20
Properties=species:S:1:pos:R:3:charge:R:1:forces:R:3 energy=-13025.509278767497 pbc="F F F"
C        4.18667917       0.58112576       0.19273063      -0.27695006      -0.00066289       0.00011484      -0.00335887
C        3.12206723      -0.17257746      -0.03530159      -0.15192677      -0.00336204      -0.00067489       0.00115102
C        1.74766029       0.41378528       0.04157205       0.44842815      -0.00642663       0.00113680       0.00225259
O        1.56090472       1.58339489       0.30932852      -0.43428427      -0.00215395      -0.00049763      -0.00037978
N        0.74362739      -0.48239088      -0.21491219      -0.36170736       0.00091508      -0.00342026       0.00033163
C       -0.64961799      -0.26014921      -0.22735972       0.12605660       0.00410205      -0.00039340      -0.00086863
C       -1.46350108      -1.35262660      -0.52296624      -0.16816700       0.00708479       0.00387006      -0.00265536
C       -2.83988603      -1.21737759      -0.55605746      -0.13869278       0.00064274      -0.00392912       0.00300555
C       -3.42452095       0.01268420      -0.29281141      -0.15798955       0.00188485      -0.00307665       0.00123290
C       -2.61270039       1.09686261       0.00091532      -0.13588290      -0.00238793       0.00533643      -0.00014623
H       -3.05617426       2.06024315       0.20751601       0.13514720      -0.00295279       0.00734189       0.00206631
C       -1.23089440       0.97593239       0.03675021      -0.12454852       0.00606648      -0.00259233       0.00333865
H        4.06809922       1.62677555       0.43827402       0.15899430       0.00271933       0.00418341      -0.00064312
H        5.18856932       0.17851990       0.13981549       0.14654893       0.00291053       0.00138490       0.00448651
H        3.22391482      -1.22310961      -0.28076314       0.12171216      -0.00260221      -0.00321944      -0.00256385
H        1.01695210      -1.42499599      -0.42239837       0.26806346       0.00100981      -0.00713338      -0.00353527
H       -1.01145630      -2.31490669      -0.72891487       0.13085526       0.00160611       0.00330045       0.00132846
H       -3.45658433      -2.07416387      -0.78719346       0.13597155      -0.00332248      -0.00476241      -0.00122499
H       -4.49884159       0.12238046      -0.31604846       0.13753477      -0.00260928       0.00344981      -0.00197022
H       -0.60319896       1.81744825       0.26509094       0.14083691      -0.00246025      -0.00041796      -0.00184729
