30
Properties=species:S:1:pos:R:3:charge:R:1:forces:R:3 energy=-36874.00076845686 pbc="F F F"
C       -2.94656943      -1.46481150       0.03099334      -0.14077285       0.00159593      -0.00324266      -0.00370582
C       -3.82029760      -0.46946687       0.44671754      -0.15280753      -0.00181152      -0.00090349      -0.00282181
C       -3.33044054       0.81243258       0.68000037       0.04608816      -0.00240662      -0.00160787       0.00506004
S       -4.31610254       2.18047054       1.20716519      -0.14804524      -0.00134148       0.00131734      -0.00010443
C       -5.91782280       1.39661406       1.44340254      -0.18789582      -0.00138194       0.00289219       0.00094115
C       -1.97794953       1.06363307       0.48924298      -0.13779980      -0.00079470       0.00006759       0.00123141
C       -1.11151124       0.05702271       0.07680466       0.14118825       0.00061632      -0.00026372      -0.00259599
N        0.23761992       0.41810267      -0.08230357      -0.35550690       0.00025605      -0.00010738      -0.00296612
C        1.31507757      -0.36060890      -0.40737243       0.41075343       0.00336568       0.00119190      -0.00251066
O        1.25750736      -1.54911493      -0.63517990      -0.42586076      -0.00128312       0.00051191       0.00265638
C        2.63035057       0.40462526      -0.46290616      -0.13127373      -0.00158087       0.00166151       0.00212497
C        3.78843449      -0.53434013      -0.71569778      -0.10423025      -0.00515022       0.00287921       0.00388877
S        5.30581643       0.44130979      -0.72306245      -0.20372067      -0.00069734      -0.00414007       0.00134996
C        6.48346263      -0.90027678      -0.98037510      -0.20234931       0.00493114      -0.00051073      -0.00417841
C       -1.59728171      -1.22555867      -0.15875173      -0.13950056       0.00515627      -0.00139077       0.00276200
H       -3.33205051      -2.45764606      -0.14987382       0.13408458       0.00268893      -0.00516877      -0.00157980
H       -4.86373625      -0.69684192       0.58181641       0.11910364      -0.00479745       0.00126013       0.00329846
H       -6.30793717       1.00568202       0.50788173       0.09130704       0.00236940       0.00358741       0.00036097
H       -6.59001644       2.16802955       1.80736627       0.12313167       0.00376376       0.00458804      -0.00018563
H       -5.86051204       0.60344160       2.18376633       0.09128163       0.00102366       0.00340594      -0.00274342
H       -1.58640623       2.05726408       0.66618521       0.11692490      -0.00900670      -0.00146452       0.00118638
H        0.43117070       1.38682903       0.09482233       0.26272082      -0.00725449      -0.00272585       0.00230177
H        2.56512058       1.16118150      -1.24872827       0.07608496      -0.00054101      -0.00566836       0.00130456
H        2.76736504       0.94868510       0.47449120       0.07435540       0.00097261       0.00047423      -0.00169076
H        3.65944288      -1.04472640      -1.66570524       0.10213466       0.00180447       0.00414536       0.00206045
H        3.82775895      -1.28992290       0.06419022       0.10187554      -0.00149558       0.00254484       0.00377114
H        7.47692047      -0.46209759      -1.01561620       0.11659274       0.00656605       0.00704846       0.00250897
H        6.29195605      -1.41291329      -1.91992950       0.09311984       0.00131399      -0.00371523      -0.00377681
H        6.44248433      -1.61508143      -0.16188637       0.09313564       0.00215385      -0.00333391      -0.00558047
H       -0.92712834      -2.00207706      -0.47898826       0.13588051       0.00096493      -0.00333239      -0.00236734
