24
Properties=species:S:1:pos:R:3:charge:R:1:forces:R:3 energy=-24933.011560739553 pbc="F F F"
O       -0.91010081       2.07952436      -0.52098923      -0.45511004      -0.00238009      -0.00039803      -0.00289161
C       -1.64228024       1.13901393      -0.75320321       0.46830878       0.00049594      -0.00212695      -0.00075004
C       -3.02795059       1.37790249      -1.27624198      -0.15198493       0.00127670       0.00290333       0.00331612
C       -4.03842979       0.52077307      -1.23513341      -0.27806041       0.00280078       0.00101980       0.00000501
N       -1.30759085      -0.17777459      -0.58723462      -0.32814226       0.00309563      -0.00154103       0.00081060
C       -0.11754010      -0.73881717      -0.07616110       0.12711734       0.00154740       0.00098141       0.00671025
C        0.00977533      -2.12245112      -0.14712715      -0.18340671       0.00183292       0.00022698      -0.00202638
C        1.14528269      -2.73423380       0.35159749      -0.14502504       0.00157249      -0.00236111      -0.00485420
C        2.15620638      -1.98428578       0.92210611      -0.14176154      -0.00331060      -0.00198154       0.00497410
C        2.02964012      -0.60036254       0.99513717       0.02586400       0.00190520      -0.00013148      -0.00085273
S        3.37454421       0.26286843       1.74145888      -0.14449346      -0.00450762       0.00522714       0.00007916
C        2.86554724       1.97608322       1.58493149      -0.19124919      -0.00041251       0.00118562      -0.00082518
C        0.88978346       0.02655432       0.49683143      -0.12196223       0.00185944       0.00141176       0.00506863
H       -3.15263757       2.37734281      -1.66718266       0.12558052      -0.00140255      -0.00070595      -0.00802103
H       -3.94353897      -0.45790020      -0.78396655       0.13610321      -0.00240764       0.00060485      -0.00178091
H       -5.01349355       0.77548537      -1.62440454       0.15123725       0.00177991       0.00276794       0.00737689
H       -1.94081782      -0.84592126      -0.98560240       0.25707331      -0.00071121       0.00215143       0.00202146
H       -0.78081362      -2.71329516      -0.59009043       0.13206893       0.00299769      -0.00221927      -0.00231517
H        1.24035558      -3.80853833       0.29279130       0.14048548      -0.00256710      -0.00460668       0.00035150
H        3.04225746      -2.46227272       1.31234930       0.13121215       0.00128967      -0.00071112      -0.00298531
H        3.66965728       2.57344425       2.00297057       0.12550783      -0.00058637      -0.00035276       0.00115328
H        2.72374373       2.24537213       0.54246168       0.09374937      -0.00464772       0.00052719       0.00209829
H        1.95226559       2.16551175       2.14079884       0.09334537      -0.00172574      -0.00410362      -0.00572973
H        0.76330823       1.09274727       0.53918036       0.13354236       0.00220556       0.00223197      -0.00093282
