25
Properties=species:S:1:pos:R:3:charge:R:1:forces:R:3 energy=-24950.590414693906 pbc="F F F"
O        0.39481857       0.39449373      -1.65965984      -0.50934535      -0.00353525      -0.00325724       0.00801394
C        0.75492235      -0.49390918      -0.85492447       0.31522119       0.00254935      -0.00218087       0.00312802
C        1.95127206      -1.18948424      -0.82864233      -0.47586215       0.00437392      -0.00126741       0.00187760
C        3.04630875      -0.85310647      -1.75562566      -0.11246521       0.00353160       0.00144418       0.00058389
N       -0.15839392      -0.85317743       0.21238562      -0.38545227       0.00126687       0.00198664      -0.00144166
C       -1.41653767      -0.39185429       0.50705999       0.21090014      -0.00073477      -0.00177519      -0.00764622
C       -2.13429197       0.48913115      -0.32161306      -0.13719037       0.00311459       0.00299333       0.00058950
C       -3.40967197       0.88975258       0.03833329      -0.16174626       0.00340977       0.00044485       0.00349265
C       -4.01757972       0.45125763       1.20965351      -0.22161111       0.00277396       0.00247783       0.00401710
C       -3.31154544      -0.41638526       2.03197363      -0.17671600      -0.00140076      -0.00419146      -0.00158157
C       -2.03863192      -0.83225161       1.69119963      -0.18867564      -0.00105706       0.00471161      -0.00627958
H        2.17638051      -1.87518715      -0.02026103       0.10601822      -0.00028610      -0.00643506      -0.00136270
H        2.67351980      -0.26842787      -2.59994972       0.08584911      -0.00417149      -0.00099140      -0.00012820
H        3.56913720      -1.72560784      -2.14925925       0.07192850      -0.00153443      -0.00425324       0.00148499
H        0.23953779      -1.49267993       0.87229562       0.23787828      -0.00703672       0.00213616       0.00086030
H       -1.65654162       0.82964873      -1.22318687       0.12432592       0.00139350      -0.00013751      -0.00094131
H       -3.94303665       1.56668574      -0.61774655       0.11060587       0.00576654      -0.00047852       0.00482389
H       -3.75722711      -0.77596120       2.95145136       0.11175482       0.00067702       0.00194585       0.00214940
H       -1.50178224      -1.51019556       2.34564012       0.10723790      -0.00582434       0.00384617      -0.00484734
H       -5.01251522       0.77927632       1.47554659       0.11805964      -0.00043730      -0.00664718      -0.00084047
S        4.42879561       0.15307102      -1.02081387      -0.30653912       0.00295161       0.00794427      -0.00111858
C        3.42888233       1.56431140      -0.52143708      -0.19516131      -0.00219683      -0.00134245      -0.00104391
H        2.89545644       1.97294485      -1.37566032       0.08538416       0.00083168       0.00119987      -0.00040589
H        4.08598177       2.32483892      -0.10051343       0.09350073      -0.00370943       0.00004357      -0.00059016
H        2.69955786       1.24523389       0.21713943       0.09210033      -0.00071630       0.00178388      -0.00279347
