25
Properties=species:S:1:pos:R:3:charge:R:1:forces:R:3 energy=-24950.52020461176 pbc="F F F"
O        0.27782656       0.74927770      -2.45106374      -0.57976151      -0.00285428      -0.00083484      -0.00195106
C        0.70413690      -0.15775788      -1.70903728       0.31878540       0.00019987       0.00223820      -0.00129575
C        1.94028530      -0.80053943      -1.79961792      -0.50691420       0.00126662       0.00382377       0.00502139
C        2.39120566      -1.85711874      -0.88183144      -0.10336170      -0.00338268       0.00319929      -0.00023120
N       -0.12363984      -0.60218682      -0.61693644      -0.32182288       0.00140052       0.00150660      -0.00171896
C       -1.19453675       0.04331366      -0.03581490       0.19847105       0.00220909       0.00006225       0.00176450
C       -1.88630916       1.10232608      -0.64353046      -0.13940313      -0.00213172      -0.00248700      -0.00123878
C       -2.97380193       1.67407916      -0.00289668      -0.17184988       0.00392547       0.00211820       0.00064233
C       -3.41061337       1.23061829       1.23937418      -0.20988451       0.00097325      -0.00267675       0.00011102
C       -2.72606730       0.18464162       1.84464898      -0.18725772       0.00140454       0.00028941       0.00068273
C       -1.63782439      -0.39768186       1.22135273      -0.16876327       0.00381273      -0.00099417       0.00392130
H        2.62779259      -0.39902661      -2.52904522       0.10665301      -0.00466944       0.00062559      -0.00249652
H        1.65069173      -2.66041027      -0.78273471       0.07412874      -0.00657545       0.00223013      -0.00216600
H        3.31388864      -2.32297052      -1.22492730       0.07704890      -0.00138078      -0.00288968       0.00017907
H        0.34498399      -1.24304243       0.00465620       0.21684121       0.00487683      -0.00206188      -0.00339576
H       -1.52917591       1.44230486      -1.60112689       0.12998576      -0.00017577       0.00025713      -0.00045529
H       -3.49295633       2.49258578      -0.48590324       0.11372368      -0.00184532      -0.00362144      -0.00357053
H       -4.25943346       1.68933033       1.72629966       0.11883830      -0.00091736       0.00134426      -0.00599776
H       -3.03997122      -0.18079324       2.81451764       0.11465149       0.00148088       0.00195687       0.00150081
H       -1.10102770      -1.20310104       1.70866816       0.12046495       0.00277027      -0.00094540      -0.00001530
S        2.78091194      -1.41303072       0.92290681      -0.27984855      -0.00154766       0.00224946       0.00188232
C        2.82602890       0.38336335       0.81569597      -0.18486536       0.00433853       0.00012215      -0.00158538
H        3.01048348       0.78077785       1.81164538       0.09553680       0.00023194      -0.00204085       0.00398383
H        3.61721475       0.69794286       0.14201594       0.07931200      -0.00534750      -0.00020234       0.00008351
H        1.87672911       0.74950667       0.44025042       0.08929138       0.00193748      -0.00326926       0.00634577
