25
Properties=species:S:1:pos:R:3:charge:R:1:forces:R:3 energy=-24950.521494760913 pbc="F F F"
O        0.44110595       0.64766505       2.69374858      -0.58016157      -0.00050849       0.00079767      -0.00699162
C        0.94534004       0.85821920       1.57277710       0.31782058       0.00396500       0.00202303       0.00624018
C        2.28918555       1.11610874       1.29379304      -0.50440782       0.00138472       0.00392696       0.00381163
C        2.81654250       1.36282219      -0.05550681      -0.10431313      -0.00075909       0.00318627       0.00120011
N        0.09454582       0.81782281       0.41229900      -0.32005388       0.00399015      -0.00660038       0.00173090
C       -1.16471345       0.27084075       0.29091758       0.19814889      -0.00349167       0.00162976      -0.00067879
C       -1.99445329      -0.01441216       1.38612077      -0.13993518       0.00112039      -0.00042120      -0.00144983
C       -3.26312154      -0.52872408       1.17455436      -0.17193982      -0.00532048      -0.00018633       0.00477077
C       -3.75128078      -0.77871036      -0.10204488      -0.20998779       0.00063387      -0.00001209      -0.00007765
C       -2.93058034      -0.50211777      -1.18797017      -0.18725324      -0.00147547       0.00027712       0.00156502
C       -1.66120256       0.01190329      -0.99691756      -0.16787133      -0.00027230       0.00642637      -0.00377793
H        2.96996417       1.03062516       2.12748694       0.10649703      -0.00054111      -0.00401023      -0.00100037
H        3.84931657       1.70742651      -0.02978047       0.07704629      -0.00059721       0.00043833      -0.00062508
H        2.24032103       2.13051368      -0.58658202       0.07413540       0.00082399      -0.00253461      -0.00063960
H        0.60427507       0.85842128      -0.45678486       0.21663405      -0.00435795       0.00194695      -0.00530185
H       -1.59965760       0.17162936       2.37076649       0.12954323       0.00525072       0.00214355      -0.00268703
H       -3.88776702      -0.74323392       2.03259105       0.11355508      -0.00708389      -0.00091904       0.00301335
H       -4.74362185      -1.18134621      -0.24702257       0.11879773      -0.00004750      -0.00057763      -0.00366736
H       -1.02498122       0.21447036      -1.85053119       0.12077945       0.00559816      -0.00419485       0.00056232
H       -3.28018886      -0.69001039      -2.19568274       0.11456933      -0.00104231      -0.00261116       0.00459824
S        2.87406499      -0.06689577      -1.30733979      -0.27958977       0.00114400       0.00582579       0.00249230
C        2.58512197      -1.46605123      -0.21311986      -0.18474719      -0.00046237      -0.00652000      -0.00309154
H        3.37926350      -1.53467882       0.52370861       0.07904229      -0.00056542      -0.00154234       0.00138021
H        2.56068916      -2.37233972      -0.81504855       0.09531268       0.00337123       0.00230440      -0.00084197
H        1.63865174      -1.33752496       0.29987045       0.08837860      -0.00075800      -0.00079643      -0.00053436
