25
Properties=species:S:1:pos:R:3:charge:R:1:forces:R:3 energy=-27652.781480106074 pbc="F F F"
O        0.69285642       1.08581190      -1.28250984      -0.50417525       0.00453974      -0.00128764      -0.00134171
C        0.84502397      -0.14410034      -1.09593217       0.29579669       0.00065736       0.00159658      -0.00122796
C        2.00820291      -0.88370431      -1.16590200      -0.48044240      -0.00201871       0.00274668       0.00429898
C        3.30129034      -0.22761880      -1.42754679      -0.11519884       0.00102978      -0.00305242       0.00249998
N       -0.33937324      -0.91460719      -0.75852372      -0.37950358      -0.00368845       0.00031869      -0.00393526
C       -1.47742206      -0.46094564      -0.14371871       0.20784929       0.00208643       0.00304427       0.00348358
C       -1.81524315       0.88721371       0.05423657      -0.14749016      -0.00046341       0.00192633      -0.00267350
C       -3.01068580       1.22802031       0.67345460      -0.16761699      -0.00038349       0.00028546       0.00023636
C       -3.90811809       0.26620840       1.11405328      -0.21661130       0.00292886       0.00135585       0.00364412
C       -3.59307629      -1.07507770       0.92850357      -0.18815984      -0.00240935       0.00083544      -0.00264069
C       -2.40904052      -1.40204906       0.31805486       0.08018837      -0.00196796      -0.00022825      -0.00441555
F       -2.10131850      -2.72343397       0.14251062      -0.17249081       0.00092298      -0.00212821       0.00301103
H        2.02387666      -1.92037598      -0.85105933       0.11127414       0.00530485      -0.00006318      -0.00443643
H        3.97504598      -0.82793308      -2.03938049       0.07553129      -0.00070663      -0.00172091      -0.00510393
H        3.15570615       0.73620265      -1.92166012       0.08594630       0.00075774      -0.00039443       0.00567109
H       -0.15595547      -1.89379082      -0.63307038       0.25072965      -0.00020120      -0.00004286       0.00124734
H       -1.11097365       1.62438348      -0.29153321       0.12605040       0.00103398      -0.00068952       0.00059439
H       -3.23840801       2.27658750       0.81187773       0.11373717      -0.00282116      -0.00456506      -0.00100370
H       -4.83541462       0.54089292       1.59463623       0.11987244      -0.00092732       0.00388863      -0.00097684
H       -4.24980800      -1.87100212       1.24885626       0.12814623       0.00198941      -0.00222660       0.00426217
S        4.33186163       0.13072408       0.08035639      -0.30169454       0.00307903       0.00111215      -0.00353253
C        3.15403335       1.22326947       0.89521596      -0.20331530      -0.00113929       0.00197027       0.00067762
H        2.92774006       2.07718329       0.26182381       0.08659979      -0.00274018      -0.00088295       0.00223829
H        3.58841083       1.56491699       1.83380030       0.09589451      -0.00193940      -0.00288288      -0.00121161
H        2.22761708       0.68563406       1.08025772       0.09908276      -0.00292342       0.00108470       0.00063439
