20
Properties=species:S:1:pos:R:3:charge:R:1:forces:R:3 energy=-13025.509277388643 pbc="F F F"
C        4.20183125       0.40947748       0.54441360      -0.27685571       0.00196219      -0.00043271       0.00144357
C        3.12156416      -0.17282544       0.04708565      -0.15202850      -0.00278428      -0.00038357       0.00276644
C        1.75788218       0.30342911       0.43685161       0.44833222      -0.00627552       0.00495063      -0.00237453
O        1.59460824       1.22644952       1.20880878      -0.43431860      -0.00317485      -0.00060671       0.00270519
N        0.73482984      -0.39077459      -0.15306659      -0.36166224      -0.00099737      -0.00411208       0.00061060
C       -0.65515106      -0.19850452      -0.00672175       0.12604947       0.00109171       0.00098683       0.00090392
C       -1.21235109       0.77792932       0.81290716      -0.12451675       0.00200376       0.00174455      -0.00314887
C       -2.59328729       0.89019697       0.89155417      -0.13594270       0.00230479      -0.00057674       0.00337649
C       -3.42752544       0.04982360       0.17107799      -0.15796703       0.00036910       0.00057450       0.00202109
C       -2.86682028      -0.92196517      -0.64485881      -0.13868903       0.00079952      -0.00143953       0.00137851
H       -3.50053448      -1.58667175      -1.21461110       0.13599460      -0.00523954       0.00114946       0.00085212
C       -1.49168817      -1.04490496      -0.73250794      -0.16810951       0.00297896       0.00156012       0.00131321
H        5.19695600       0.08385023       0.27600319       0.14658044       0.00695851      -0.00358652      -0.00058805
H        4.10336445       1.23240222       1.23778933       0.15895349       0.00075450       0.00552933       0.00089555
H        3.20219890      -1.00054463      -0.64770584       0.12177835      -0.00050994       0.00015754      -0.00158802
H        0.98923520      -1.13652886      -0.77391977       0.26806873       0.00012197      -0.00310611      -0.00570460
H       -0.56747387       1.43057341       1.37188870       0.14081028      -0.00054387      -0.00206799      -0.00067496
H       -3.01756585       1.65137869       1.53080177       0.13517222      -0.00160945      -0.00229625      -0.00257746
H       -4.50073913       0.14907542       0.24374455       0.13752170      -0.00020754       0.00150645      -0.00154480
H       -1.05823531      -1.80501116      -1.37041848       0.13082859       0.00199621       0.00044902      -0.00006523
