29
Properties=species:S:1:pos:R:3:charge:R:1:forces:R:3 energy=-26037.05733173446 pbc="F F F"
C       -2.99755974       2.00115080       0.50833501      -0.15066886      -0.00011878      -0.00055055       0.00185495
C       -1.69690121       1.54187836       0.36449779      -0.13304535      -0.00001371       0.00203529       0.00272279
C       -1.49333616       0.19011903       0.11022997       0.12196705      -0.00127715      -0.00015883       0.00370079
N       -0.21990477      -0.38979936      -0.05074579      -0.35888025       0.00222284      -0.00097979      -0.00212506
C        1.01360156       0.20083108      -0.00087556       0.41671243       0.00354710       0.00553868      -0.00191819
O        1.20003195       1.38094631       0.19902281      -0.42634159      -0.00266356       0.00664823       0.00216015
C        2.17065545      -0.76455181      -0.22233188      -0.13094571       0.00452776       0.00277281      -0.00030271
C        3.49465289      -0.03652265      -0.15330497      -0.10133670       0.00449840      -0.00274953      -0.00065886
S        4.81052010      -1.24113593      -0.42357365      -0.20450616      -0.00252088       0.00369486       0.00406016
C        6.22534228      -0.12976763      -0.28652454      -0.20163688      -0.00061962      -0.00101849      -0.00089363
C       -2.58849103      -0.66619059       0.00527225      -0.16491918      -0.00219455      -0.00233372      -0.00225032
C       -3.88730707      -0.20565216       0.15015877       0.05695800      -0.00389627      -0.00324930       0.00119720
C       -5.04889701      -1.15668706       0.06029682      -0.21761364      -0.00370798      -0.00153116      -0.00014978
C       -4.08395729       1.14805813       0.40414836      -0.17222399       0.00056334      -0.00132534       0.00160698
H       -3.15639542       3.05136534       0.70707786       0.13390556      -0.00324536      -0.00002531      -0.00299034
H       -0.85506288       2.20426126       0.44599340       0.13584685      -0.00234101       0.00722332       0.00082350
H       -0.22694267      -1.37819350      -0.22594471       0.26067612      -0.00025420      -0.00237793      -0.00030388
H        2.12370493      -1.55582010       0.52897793       0.07446456       0.00134642      -0.00042326      -0.00243366
H        2.04708381      -1.25376451      -1.19095606       0.07445778       0.00152809      -0.00024358       0.00260822
H        3.53144253       0.74150417      -0.91051480       0.10130680       0.00108976      -0.00018616       0.00499227
H        3.60767522       0.43795298       0.81736806       0.10129250       0.00295046      -0.00036303      -0.00586170
H        6.26428552       0.33487941       0.69595364       0.09248639      -0.00559135      -0.00395893      -0.00022863
H        6.19052075       0.64319903      -1.05063676       0.09250104      -0.00362754      -0.00169910      -0.00110344
H        7.12315540      -0.72484995      -0.42937219       0.11562334      -0.00061627      -0.00368687      -0.00113126
H       -2.41811790      -1.71818262      -0.19625112       0.12000896       0.00603972      -0.00386869      -0.00302386
H       -4.82475332      -1.98989773      -0.60185764       0.07533832       0.00107614      -0.00211836       0.00185556
H       -5.93976065      -0.65297552      -0.30661049       0.07859327       0.00215209       0.00322478      -0.00314894
H       -5.28477454      -1.56921113       1.04151120       0.07957806      -0.00083133       0.00329050       0.00105568
H       -5.08907288       1.53023182       0.51685486       0.13040142       0.00197753      -0.00158021      -0.00011414
