23
Properties=species:S:1:pos:R:3:charge:R:1:forces:R:3 energy=-14096.03175891848 pbc="F F F"
O       -2.16053613      -1.16671987      -1.51114807      -0.46078539       0.00293464      -0.00353894      -0.00210150
C       -2.45533948      -0.64728501      -0.45409028       0.46830532      -0.00379371       0.00203367      -0.00129416
C       -3.89616318      -0.53509029      -0.04843301      -0.14996037      -0.00215365       0.00135640       0.00524257
C       -4.39218898       0.31141094       0.84387716      -0.28078273      -0.00368840       0.00206743       0.00250076
N       -1.55394941      -0.14181578       0.44315886      -0.32983109      -0.00138977       0.00046767       0.00139332
C       -0.14911841      -0.07024902       0.32710496       0.10890260       0.00336004      -0.00030364       0.00934640
C        0.56555846       0.28536386       1.46694290      -0.17844610       0.00744394       0.00018566       0.00607523
C        1.94269741       0.39891279       1.42694867      -0.14986974       0.00579560      -0.00498673       0.00078802
C        2.64453510       0.16511915       0.24920833       0.03307940       0.00444801       0.00403386       0.00012634
C        4.14021190       0.32447929       0.19916178      -0.21992600       0.00145036       0.00109516      -0.00075828
C        1.91703899      -0.18992134      -0.87983837      -0.14627469      -0.00137257       0.00636141       0.00159678
C        0.53537273      -0.30951847      -0.85876764      -0.13164631      -0.00094112      -0.00134311       0.00573276
H       -4.53472761      -1.20309880      -0.60733016       0.12587565       0.00310802       0.00058440      -0.00447454
H       -3.77089791       1.02668182       1.36527255       0.13566555      -0.00229878       0.00320786      -0.00189683
H       -5.44844973       0.34461268       1.06777425       0.15049586      -0.00253716      -0.00556419      -0.00349617
H       -1.91341186       0.08230386       1.35243290       0.25514597      -0.00302634       0.00062975      -0.00616468
H        0.03440898       0.47321009       2.39187784       0.12862334      -0.00244142      -0.00178490      -0.00243750
H        2.47813991       0.67057285       2.32683940       0.12970993      -0.00210568       0.00042853      -0.00469206
H        4.41300043       1.34376181      -0.07587033       0.08252437       0.00555376      -0.00029522      -0.00270818
H        4.58273855      -0.34449528      -0.53535887       0.07945390      -0.00710593      -0.00007776      -0.00211691
H        4.58643085       0.11443415       1.16851015       0.07933158      -0.00001371      -0.00213415      -0.00286451
H        2.43903834      -0.38242606      -1.80791319       0.12927952       0.00165329      -0.00092994       0.00301613
H       -0.01076459      -0.58708453      -1.74190557       0.14112943      -0.00287933      -0.00149331      -0.00081226
