23
Properties=species:S:1:pos:R:3:charge:R:1:forces:R:3 energy=-22202.848226126374 pbc="F F F"
O        1.90285801      -1.31431266      -1.39290783      -0.41982982      -0.00235420       0.00761337       0.00531702
C        1.96929425      -0.43619631      -0.55967780       0.43535620       0.00029985       0.00411306       0.00489581
C        3.27621717       0.12873332      -0.10271615      -0.14612363      -0.00256683      -0.00291557       0.00272537
C        4.41574931      -0.32136631      -0.60483680      -0.27660218      -0.00386730      -0.00081656       0.00204770
N        0.88405267       0.14212649       0.06013392      -0.33211815       0.00029709       0.00003280       0.00073656
C       -0.48317506      -0.13835670      -0.12184857       0.11047553       0.00353397      -0.00265570       0.00139219
C       -0.89572150      -1.11830063      -1.03272193      -0.12052548       0.00315994      -0.00275289       0.00224671
C       -2.23042359      -1.40977984      -1.22522109      -0.13281110       0.00051310       0.00167698       0.00481935
C       -3.21187327      -0.73426728      -0.51496105      -0.14782774      -0.00461223       0.00335530      -0.00408597
C       -2.82705294       0.23455834       0.38463501      -0.12904626       0.00301067      -0.00593089       0.00050219
C       -1.48201468       0.54635715       0.59682129      -0.00639560       0.00112241      -0.00165993      -0.00063717
C       -1.28724391       1.63332431       1.62589243       0.31697914      -0.00207492       0.00197517      -0.00228582
F       -1.80670512       1.27841859       2.81490015      -0.13747023       0.00313741      -0.00407972      -0.00065410
F       -0.00106952       1.98191124       1.87132119      -0.12816122      -0.00026249      -0.00379938      -0.00235892
F       -1.91347209       2.76669551       1.26182212      -0.13743614      -0.00094118       0.00518459      -0.00234392
H        3.26374051       0.91040992       0.64664739       0.12336767      -0.00039056      -0.00178195      -0.00527738
H        5.37252520       0.07141187      -0.28952440       0.15025231      -0.00397784      -0.00358480      -0.00438962
H        4.40659633      -1.10341458      -1.35096013       0.16008273       0.00161971       0.00422511       0.00194829
H        1.12154554       0.85302937       0.72597960       0.25615996       0.00183453      -0.00006942      -0.00184415
H       -0.14061281      -1.64492068      -1.58315356       0.13798502       0.00438827       0.00074844      -0.00405441
H       -2.49824008      -2.17466198      -1.93924369       0.14094812      -0.00122181       0.00469768       0.00529955
H       -4.25788825      -0.95687830      -0.65860076       0.14198527      -0.00629866       0.00140450      -0.00111688
H       -3.58346004       0.76863779       0.94274105       0.14075564       0.00565127      -0.00498071      -0.00288221
