30
Properties=species:S:1:pos:R:3:charge:R:1:forces:R:3 energy=-19317.360598363022 pbc="F F F"
C        4.99151134       1.27793422      -0.14318473      -0.27835289       0.00167602       0.00393762       0.00686335
C        4.98169385       0.00469194       0.22725990      -0.14871283      -0.00264015      -0.00293335      -0.00393103
C        3.79312221      -0.76537580       0.72001978       0.46703377      -0.00392178      -0.00166612       0.00569475
O        3.95052694      -1.78496525       1.35959962      -0.45686358       0.00825612      -0.00128276      -0.00139217
N        2.57599332      -0.23454302       0.38391869      -0.32693523      -0.00353883      -0.00166958      -0.00148978
C        1.29170637      -0.70019854       0.73313120       0.11782970      -0.00527814      -0.00463487      -0.00444180
C        1.07189146      -1.71245971       1.66166656      -0.12778899      -0.00132503      -0.00077891       0.00104927
C       -0.23382864      -2.08797926       1.93869291      -0.14922193      -0.00213621      -0.00354041       0.00162403
C       -1.31204480      -1.48284053       1.31412031      -0.15374757      -0.00097189       0.00306827       0.00096636
C       -1.10146818      -0.45693283       0.39577509       0.02585624       0.00116788       0.00245803       0.00060454
C       -2.23792679       0.21892911      -0.27712531       0.04006778      -0.00040702      -0.00381224       0.00546003
C       -2.26138971       1.60546687      -0.40617125      -0.13584594       0.00298435      -0.00507281       0.00048329
C       -3.32279474       2.23986298      -1.03197993      -0.13966833       0.00513262      -0.00128440      -0.00048232
C       -4.37078634       1.49459448      -1.55214326      -0.14214087      -0.00237015       0.00431329       0.00618141
C       -4.35432888       0.11279788      -1.43292519      -0.14040788       0.00025133       0.00276235      -0.00157370
C       -3.30004986      -0.51999679      -0.79225600      -0.13674024       0.00114040       0.00085919      -0.00413203
C        0.20703854      -0.08153361       0.11701616      -0.16376831       0.00037600       0.00336558       0.00236776
H        5.89928829       1.76205659      -0.47161149       0.15078177       0.00524194       0.00021011      -0.00058034
H        4.10612687       1.89752661      -0.10417048       0.13733402      -0.00052460       0.00568694      -0.00369186
H        5.88720976      -0.58351329       0.24331542       0.12616549       0.00035138      -0.00058144      -0.00171738
H        2.58454981       0.49964787      -0.29946219       0.25268623       0.00252880       0.00418416       0.00170382
H        1.91052470      -2.18560640       2.14058866       0.14515205       0.00229944       0.00097487      -0.00198573
H       -0.40878733      -2.87496595       2.65859641       0.13885595      -0.00079019      -0.00361803       0.00204353
H       -2.31933069      -1.79401548       1.54971889       0.12668562       0.00328007       0.00072468       0.00847622
H       -1.44604071       2.18778949      -0.00117521       0.11877342      -0.00321080       0.00071624      -0.00081848
H       -3.32605146       3.31669000      -1.11557207       0.13663816      -0.00625171      -0.00118402      -0.00363499
H       -5.19714109       1.98602078      -2.04507456       0.13806188      -0.00003153       0.00171372      -0.00343692
H       -5.16667741      -0.47583293      -1.83336311       0.13665067       0.00233204      -0.00064034      -0.00154143
H       -3.29444725      -1.59669610      -0.69583128       0.12529655      -0.00244460       0.00230168      -0.00322123
H        0.39663620       0.70132301      -0.60898980       0.11632526      -0.00117611      -0.00457729      -0.00544673
