30
Properties=species:S:1:pos:R:3:charge:R:1:forces:R:3 energy=-19317.413779227994 pbc="F F F"
C        2.32626133      -1.93520142       1.96043895      -0.26826337       0.00149036      -0.00175251      -0.00616166
C        2.28043987      -0.79246019       2.62976281      -0.14783573      -0.00307203       0.00172620       0.00324375
C        1.51102318       0.44204728       2.27549119       0.45531908      -0.00055294      -0.00090622       0.00389996
O        1.72537422       1.47298139       2.88231728      -0.45983130       0.00650498      -0.00064028       0.00273352
N        0.59717440       0.30766607       1.26530579      -0.28735387      -0.00212763      -0.00001235      -0.00306733
C       -0.22989082       1.28768184       0.69057070       0.09137794      -0.00512947      -0.00028078      -0.00044618
C       -0.47175608       2.52181686       1.28714171      -0.12796621       0.00563925       0.00120472      -0.00294788
C       -1.37066542       3.40307028       0.70531932      -0.14941530       0.00198569      -0.00066498       0.00237593
C       -2.03953870       3.07130964      -0.46347242      -0.16224937       0.00054315      -0.00033773       0.00082133
C       -1.79307110       1.84361744      -1.05575084      -0.14295490       0.00329068       0.00542334      -0.00744055
C       -0.87212619       0.95731489      -0.51255701      -0.00628831      -0.00028434       0.00386852      -0.00216467
C       -0.58953681      -0.32756240      -1.20677501       0.03736883      -0.00269255      -0.00177413       0.00776382
C       -1.63064268      -1.19263894      -1.53939312      -0.13243543       0.00093910       0.00233592      -0.00059622
C       -1.37407815      -2.39199275      -2.18717304      -0.13893321       0.00289358      -0.00381191       0.00604715
C       -0.07593318      -2.73357252      -2.53443158      -0.13845822       0.00484664       0.00453018      -0.00058799
C        0.96657080      -1.86657274      -2.23026158      -0.13762715       0.00053691       0.00137293       0.00061128
C        0.71282739      -0.67473036      -1.57059240      -0.11350422       0.00007039       0.00811606      -0.00509867
H        1.79671544      -2.09742726       1.03319694       0.12163255      -0.00250872      -0.00168258       0.00140830
H        2.92522939      -2.75856855       2.32373940       0.14980876      -0.00009498      -0.00270522       0.00068261
H        2.86526778      -0.66664904       3.53011817       0.12741157       0.00275074       0.00119688      -0.00309093
H        0.49539777      -0.60066967       0.84664842       0.22264853      -0.00099082      -0.00047664       0.00055431
H        0.04519260       2.76504249       2.19814107       0.14136288      -0.00040164      -0.00260331       0.00187498
H       -1.54610179       4.35711513       1.18256523       0.14066942      -0.00303106       0.00086606      -0.00186962
H       -2.74475303       3.75550829      -0.91037724       0.14177567       0.00005989      -0.00260337      -0.00233646
H       -2.30906720       1.56965355      -1.96670995       0.12455725      -0.00018941      -0.00279172       0.00158922
H       -2.64181123      -0.91638374      -1.27808000       0.12446934      -0.00609072      -0.00298479      -0.00285543
H       -2.19305774      -3.05549448      -2.42513879       0.13870490      -0.00188427      -0.00133230       0.00170983
H        0.12247578      -3.66571364      -3.04392601       0.13877445       0.00533141       0.00437530       0.00143350
H        1.98177522      -2.11470506      -2.50925444       0.13611472      -0.00381617      -0.00069701      -0.00261169
H        1.52504398       0.00339170      -1.34508071       0.12112075      -0.00401750      -0.00695909       0.00452554
