26
Properties=species:S:1:pos:R:3:charge:R:1:forces:R:3 energy=-19230.852945705225 pbc="F F F"
O        3.02958705      -1.21443014       0.47216139      -0.43203497       0.00216380       0.00197638      -0.00156914
C        2.52065588      -0.15139058       0.17548942       0.42788690      -0.00149831       0.00126862       0.00082577
C        3.32178962       1.09293803      -0.03110939      -0.14896801      -0.00297525      -0.00144833      -0.00020540
C        4.63916540       1.07373122       0.10024881      -0.28243253      -0.00310879      -0.00132827       0.00550260
N        1.17845458       0.04943582      -0.00580401      -0.30520988       0.00067853      -0.00110896       0.00125869
C        0.13362647      -0.86457175       0.10394574       0.10117553       0.00171178       0.00155408      -0.00344423
C        0.33438205      -2.20837426       0.43315017      -0.13460203       0.00210951       0.00101322       0.00251920
C       -0.73874023      -3.07193162       0.52830110      -0.13834934      -0.00114405       0.00048782       0.00069634
C       -2.03691270      -2.62977496       0.30178563      -0.14488147      -0.00144690       0.00318589       0.00176222
C       -2.24892722      -1.30697505      -0.02271753      -0.14364661       0.00332954       0.00094799      -0.00671797
C       -1.18322024      -0.41126137      -0.12823641      -0.00031384       0.00190977       0.00329949       0.00133489
C       -1.46499063       1.00342634      -0.48366108       0.43704560      -0.00105262       0.00066591       0.00019149
O       -2.77153676       1.23600891      -0.66255140      -0.25587246      -0.00233747      -0.00221218       0.00310024
C       -3.12325383       2.58182057      -0.99975073      -0.08043606       0.00134700      -0.00204764       0.00100403
O       -0.63626381       1.88699420      -0.60923243      -0.42621773      -0.00128816       0.00058152       0.00041098
H        2.79047178       2.00140868      -0.28892674       0.12848264       0.00050025      -0.00071560      -0.00203979
H        5.24274745       1.95957501      -0.04308402       0.14948966      -0.00330303      -0.00175970      -0.00185778
H        5.14033746       0.15222157       0.35971216       0.15907353       0.00006847      -0.00280901      -0.00128865
H        0.86524305       0.98604211      -0.25434548       0.25305599       0.00200350      -0.00022887       0.00090081
H        1.33936537      -2.54313935       0.60840174       0.13886404       0.00251808       0.00041179      -0.00201372
H       -0.55607019      -4.10550801       0.78388937       0.13999622       0.00196299      -0.00174482       0.00055820
H       -2.87407243      -3.30627346       0.37715403       0.14163180      -0.00224694      -0.00027171       0.00022078
H       -3.24810534      -0.94727301      -0.20079605       0.12840192       0.00046903      -0.00031388      -0.00059276
H       -4.20226457       2.58720679      -1.09479815       0.10023353       0.00298117       0.00104710       0.00032912
H       -2.65378916       2.87100451      -1.93656884       0.09382749       0.00087066      -0.00279138       0.00042471
H       -2.80264496       3.26237909      -0.21509031       0.09380018      -0.00422237       0.00233982      -0.00131061
