26
Properties=species:S:1:pos:R:3:charge:R:1:forces:R:3 energy=-24966.50385170612 pbc="F F F"
C        3.64226635      -2.28360063      -0.45674386      -0.16125177       0.00325064       0.00003574       0.00081980
C        2.78239592      -2.27942071       0.63249981      -0.14551678      -0.00105230      -0.00306158      -0.00105476
C        1.67289662      -1.45365950       0.63985792      -0.15124120       0.00106983       0.00105639       0.00234278
C        1.40396651      -0.61991262      -0.44528023       0.13777764       0.00003577      -0.00336343      -0.00193658
N        0.25905267       0.19744364      -0.35384971      -0.32163000      -0.00106778       0.00117728       0.00575537
C       -0.34926166       0.92136800      -1.33761823       0.40975025      -0.00361171      -0.00209576       0.00107516
O        0.04639482       0.98421540      -2.48253300      -0.44772154      -0.00230459      -0.00018833       0.00093170
C       -1.61537584       1.64359631      -0.89237392      -0.14130233      -0.00435814      -0.00086530      -0.00037034
C       -2.76201125       0.69615573      -0.52223940      -0.11829720       0.00055460      -0.00163608      -0.00116193
S       -2.73333925       0.04740904       1.17072959      -0.17918609      -0.00182459       0.00456605      -0.00485610
C       -3.07438579       1.57085290       2.07268818      -0.18260993       0.00124663       0.00130391       0.00277221
C        2.26322964      -0.61714058      -1.53928172      -0.11641695       0.00197314      -0.00023977      -0.00299654
H        2.05564110       0.02260622      -2.37790029       0.13722833      -0.00363171       0.00054851      -0.00523894
C        3.37269809      -1.45045186      -1.53093761      -0.13954955       0.00172479      -0.00068884      -0.00053997
H        4.50845676      -2.92825025      -0.46708516       0.13599573       0.00221415      -0.00006200       0.00272671
H        2.97564965      -2.92311751       1.47861572       0.13503379      -0.00170422       0.00339543       0.00104377
H        1.00437000      -1.45736809       1.49135965       0.12788464      -0.00509429       0.00300794      -0.00024271
H       -0.23774209       0.13416646       0.52417134       0.22616951      -0.00852740      -0.00354866       0.00150518
H       -1.38816876       2.30078349      -0.05454198       0.06629218      -0.00127877       0.00049737      -0.00192847
H       -1.92892194       2.25410909      -1.73199937       0.09619128       0.00215924       0.00459466       0.00041114
H       -3.71351818       1.20828328      -0.64486971       0.09419558       0.00493007      -0.00138752      -0.00182894
H       -2.76974357      -0.16139146      -1.18995653       0.11071029       0.00176387       0.00019438      -0.00238759
H       -2.23898536       2.26436032       2.02471356       0.08144935       0.00440083      -0.00116188      -0.00256215
H       -3.96598970       2.05416226       1.68322825       0.09312892       0.00119845       0.00204911       0.00170041
H       -3.24706752       1.30245874       3.11092687       0.11914290       0.00381842      -0.00532513       0.00550604
H        4.03253023      -1.44436804      -2.38641696       0.13377291       0.00411434       0.00119743       0.00051468
