26
Properties=species:S:1:pos:R:3:charge:R:1:forces:R:3 energy=-24966.46783292678 pbc="F F F"
C       -3.50875438       0.87198881       0.17706276      -0.14408143       0.00462437       0.00411289       0.00108814
C       -2.32121946       0.25263014      -0.16640597      -0.15294148      -0.00301884      -0.00224987      -0.00263661
C       -1.41746897      -0.14565909       0.81695810       0.13727695      -0.00560349      -0.00090665       0.00027804
N       -0.24009743      -0.78259341       0.37544722      -0.32635775      -0.00337864      -0.00264507       0.00233233
C        0.88380617      -1.08524491       1.08947160       0.40713117      -0.00106838      -0.00201220      -0.00177308
O        1.02167820      -0.86763224       2.27439458      -0.44425595      -0.00058255       0.00647144      -0.00336156
C        2.01620365      -1.68949206       0.26414227      -0.14320016       0.00289974      -0.00255423      -0.00280785
C        2.74030440      -0.62560052      -0.55979655      -0.11714689       0.00006282       0.00388077      -0.00344838
S        1.93019311      -0.39334961      -2.16755758      -0.18190493      -0.00308842      -0.00040165       0.00236248
C        2.82444117       1.06870395      -2.72064214      -0.18920256       0.00041673      -0.00095465      -0.00228976
C       -1.71662030       0.07987104       2.15581342      -0.11475234      -0.00648367      -0.00523196       0.00205400
C       -2.91294486       0.70104395       2.48593450      -0.13835779       0.00022839       0.00197205       0.00184191
C       -3.81296856       1.10188711       1.51126607      -0.15973599       0.00005915       0.00001895       0.00124378
H       -4.73783482       1.58734337       1.78563516       0.13599473       0.00114746      -0.00641718      -0.00041417
H       -4.19788311       1.17632254      -0.59777981       0.13520420       0.00513757      -0.00219507       0.00275043
H       -2.08577511       0.07569818      -1.20815271       0.12704077      -0.00042354       0.00425345      -0.00592636
H       -0.17641822      -0.89643341      -0.62432591       0.23368850       0.00577171       0.00266031       0.00211565
H        2.71413461      -2.12254858       0.97409153       0.09594852      -0.00220387      -0.00016520       0.00742417
H        1.64942144      -2.48468878      -0.38594506       0.07304604      -0.00576022      -0.00712007       0.00344674
H        3.77260366      -0.91099326      -0.74663503       0.09682801      -0.00154115      -0.00378321       0.00361546
H        2.74425815       0.31742739      -0.01442275       0.09887116       0.00524192       0.00524104      -0.00220132
H        2.43134159       1.33090195      -3.69832921       0.11690047      -0.00421987       0.00434910      -0.00150742
H        3.88949162       0.87385432      -2.81321903       0.09250671       0.00346461       0.00073658      -0.00236113
H        2.66119344       1.90109676      -2.04170057       0.09089339       0.00552371       0.00195269      -0.00113387
H       -1.01873159      -0.22416341       2.91537872       0.13717753       0.00187117       0.00065419      -0.00072875
H       -3.13732053       0.87291990       3.52876014       0.13342914       0.00092416       0.00033320       0.00003709
