26
Properties=species:S:1:pos:R:3:charge:R:1:forces:R:3 energy=-24966.46243683977 pbc="F F F"
C       -4.67113880      -0.42642465      -0.06770263      -0.16135199      -0.00079504      -0.00130678      -0.00158473
C       -3.81975943      -1.17193872       0.73286398      -0.13401841       0.00096539       0.00431618       0.00267612
C       -2.45728312      -0.91297227       0.77771813      -0.11636086       0.00160517      -0.00074798      -0.00339874
C       -1.93585596       0.11613023      -0.00175052       0.14367479      -0.00155805      -0.00111334      -0.00422549
N       -0.56922474       0.45268809      -0.03723106      -0.36192688      -0.00168505      -0.00211503       0.00418753
C        0.46659820      -0.05805669       0.69941493       0.41709396       0.00036172       0.00124941       0.00380126
O        0.33902105      -0.93107927       1.52923169      -0.42432323      -0.00059202       0.00180008      -0.00109318
C        1.81236348       0.58176058       0.39298634      -0.13433631       0.00120495       0.00172055       0.00048254
C        2.91028901      -0.01757226       1.25248554      -0.10207547      -0.00049882       0.00284037      -0.00041970
S        4.53347554       0.71636244       0.95972403      -0.21019754      -0.00148571      -0.00133605       0.00198092
C        4.96326571      -0.11144698      -0.58673117      -0.20199955      -0.00080999       0.00133251      -0.00154261
C       -2.78960297       0.86794007      -0.80824514      -0.15625682      -0.00174326       0.00036531       0.00050503
H       -2.37998391       1.66948294      -1.40988866       0.12718384       0.00318388      -0.00403734       0.00065997
C       -4.14656680       0.59945609      -0.84066191      -0.14084719       0.00099571      -0.00498237      -0.00099627
H       -5.72952145      -0.64074557      -0.08967941       0.13597919      -0.00086628       0.00302483      -0.00252119
H       -4.21573306      -1.97344546       1.34019756       0.13313805      -0.00153394       0.00351833      -0.00202212
H       -1.80151680      -1.49089518       1.40275783       0.13547927      -0.00044355      -0.00221549       0.00000717
H       -0.33602287       1.18840049      -0.67958734       0.26191339       0.00169794      -0.00597899       0.00592838
H        1.73785519       1.65652479       0.56557040       0.07672664       0.00191868      -0.00052857       0.00079137
H        2.02638425       0.45531571      -0.67011820       0.06884446      -0.00170315       0.00149242      -0.00053885
H        2.95768455      -1.09272328       1.10110889       0.09901336       0.00162632       0.00314505       0.00321015
H        2.67984315       0.14036178       2.30119802       0.11220299      -0.00409954      -0.00075987      -0.00160999
H        5.98797995       0.16570122      -0.82048912       0.11605605      -0.00141017      -0.00239149      -0.00285828
H        4.32190174       0.20141767      -1.40692654       0.08805566      -0.00132158      -0.00072514      -0.00090203
H        4.90698923      -1.19160640      -0.47384877       0.09380482      -0.00083022       0.00320398      -0.00449418
H       -4.79640670       1.19065318      -1.47042279       0.13452782       0.00781717       0.00022952       0.00397652
