27
Properties=species:S:1:pos:R:3:charge:R:1:forces:R:3 energy=-27478.45067118253 pbc="F F F"
C       -3.71807803       1.45236136      -0.60702657      -0.13180052      -0.00218908      -0.00730645      -0.00310944
C       -2.34917385       1.50618909      -0.45572135      -0.14014952      -0.00457934       0.00365599       0.00034899
C       -1.62432420       0.37290589      -0.08845094       0.12594932       0.00108861       0.00448890       0.00110713
N       -0.23868124       0.53069244       0.03417911      -0.35515746       0.00035075      -0.00095407      -0.00090879
C        0.70887474      -0.37568451       0.44829585       0.40656444       0.00359159       0.00117954      -0.00314334
O        0.45166017      -1.51248305       0.77056829      -0.41379526      -0.00101497       0.00406227       0.00202315
C        2.11969198       0.19019891       0.47736000      -0.13419339       0.00030784       0.00121020       0.00196218
C        3.11800774      -0.84280593       0.96470427      -0.11124834      -0.00424204       0.00218573      -0.00376579
S        4.81183191      -0.22324549       1.02419519      -0.20324923      -0.00924397      -0.00151649       0.00139562
C        5.24536748      -0.33988588      -0.72529520      -0.20443048      -0.00358906      -0.00018429       0.00251864
C       -2.29056300      -0.83042583       0.12876314      -0.09294370       0.00478178       0.00515627      -0.00177505
C       -3.66486473      -0.88213394      -0.02616800      -0.11956905       0.00390639       0.00043804      -0.00131706
C       -4.38899320       0.24970664      -0.39339327       0.06026927      -0.00068441      -0.00161369       0.00119754
C       -5.81739394       0.18255273      -0.55304087       0.24371591       0.00387609       0.00457273      -0.00051640
N       -6.95852928       0.13652211      -0.68365857      -0.41535076       0.00480196      -0.00725059       0.00332717
H       -4.27619560       2.33189744      -0.88957203       0.13803028       0.00812498      -0.00104479       0.00047336
H       -1.82970726       2.43987864      -0.62077349       0.12987942       0.00826123      -0.00510295       0.00070210
H        0.10508010       1.44719593      -0.18991988       0.26580954      -0.00122685      -0.00364628       0.00227167
H        2.37525452       0.54775430      -0.52275946       0.07098569       0.00187652      -0.00430408       0.00001881
H        2.13211444       1.06671185       1.12754745       0.08041454      -0.00212937       0.00047555       0.00202269
H        3.07013233      -1.73268409       0.34291983       0.10222653      -0.00178855       0.00025884       0.00286410
H        2.86316505      -1.15100842       1.97386727       0.11661444       0.00104918      -0.00027059      -0.00288555
H        5.09534884      -1.35194709      -1.09330005       0.09675191       0.00308421       0.00106314      -0.00342542
H        6.29991702      -0.08887005      -0.80371988       0.11983784      -0.00325032      -0.00138956      -0.00283821
H        4.67595583       0.35611378      -1.33603875       0.09088724      -0.00592157       0.00377818       0.00159416
H       -1.73353428      -1.70342833       0.41310587       0.13628362      -0.00403493      -0.00420899       0.00071789
H       -4.18641108      -1.81267029       0.13950028       0.13766775      -0.00120592       0.00626884      -0.00086038
