29
Properties=species:S:1:pos:R:3:charge:R:1:forces:R:3 energy=-28068.911080179478 pbc="F F F"
O        1.53472228      -0.56384481       1.63900388      -0.51117653      -0.00184186       0.00165429      -0.00353281
C        1.46628905       0.35003530       0.78377143       0.29940945       0.00040568       0.00095065      -0.00016160
C        2.50069237       1.11996136       0.27543724      -0.49012497      -0.00104994       0.00225912      -0.00054314
C        3.89541651       0.85042964       0.65809880      -0.12510124      -0.00294849       0.00208764       0.00257122
N        0.17446132       0.65511937       0.21872311      -0.35036436       0.00259571       0.00682987       0.00492396
C       -1.05269353       0.10323392       0.47131434       0.18100622       0.00264410       0.00898483       0.00259541
C       -1.30431584      -0.85779789       1.45545091      -0.15673108       0.00314378       0.00249768      -0.00796631
C       -2.59049075      -1.34960226       1.65096004      -0.19595787       0.00557264      -0.00033274      -0.00137529
C       -3.65161956      -0.91000731       0.88111868      -0.23562807       0.00236556      -0.00655787      -0.00079051
C       -3.42240513       0.04524696      -0.10874555      -0.19936265      -0.00174149       0.00040214       0.00555795
C       -2.15208042       0.54366778      -0.30785491       0.16224453      -0.00019594      -0.00370339       0.00142292
O       -1.84042989       1.50190185      -1.25344814      -0.24382898      -0.00353309      -0.00203139       0.00500049
C       -2.85779669       1.87133428      -2.14658089      -0.07884871       0.00310898      -0.00206208       0.00198001
H        2.32885502       1.81758503      -0.53484497       0.11353895      -0.00286218       0.00006162       0.00420516
H        4.49058484       1.75250513       0.80713517       0.07439120       0.00090392      -0.00054706      -0.00238222
H        3.94003816       0.25541747       1.57388764       0.08492732      -0.00016035       0.00142497       0.00107460
H        0.20674019       1.34594931      -0.50654664       0.24397372       0.00204745      -0.00667536      -0.00412736
H       -0.46363599      -1.18918544       2.04062515       0.11989216      -0.00195892       0.00150491      -0.00640849
H       -2.75245822      -2.09067769       2.42259483       0.11593230       0.00279979      -0.00166581      -0.00259126
H       -4.65017396      -1.29375369       1.03138747       0.11904010      -0.00093524       0.00068695       0.00176080
H       -4.24576553       0.39074857      -0.71405761       0.10776891       0.00027142       0.00093003      -0.00001120
H       -3.23183277       1.01359021      -2.70822403       0.06358995      -0.00134721       0.00417974       0.00186881
H       -3.69070965       2.35675831      -1.63408107       0.06332644       0.00326636       0.00072157      -0.00857025
H       -2.40412190       2.57909327      -2.83506338       0.07231813      -0.00462481      -0.00065669       0.00052030
S        4.90574308      -0.09256871      -0.59472407      -0.30447924      -0.00161586      -0.00278355       0.00165976
C        3.87171465      -1.56534335      -0.64697425      -0.19976769      -0.00322386      -0.00385514       0.00249920
H        3.75191679      -1.98006744       0.35088294       0.08496734      -0.00328447       0.00050888      -0.00813436
H        2.88872523      -1.30502939      -1.02935912       0.08996071       0.00438788      -0.00413573       0.00756947
H        4.34606551      -2.30026789      -1.29655041       0.09508403      -0.00218893      -0.00067864       0.00138498
