26
Properties=species:S:1:pos:R:3:charge:R:1:forces:R:3 energy=-24966.46244645742 pbc="F F F"
C       -4.65835447      -0.55494529      -0.04671919      -0.16139689      -0.00175277       0.00287217      -0.00332855
C       -4.17927926       0.56343671       0.61991026      -0.14082552      -0.00043499      -0.00094847       0.00566172
C       -2.83119966       0.87160942       0.57825007      -0.15630254      -0.00017437      -0.00124609      -0.00053070
C       -1.94084238       0.06750308      -0.13230392       0.14373475       0.00063067       0.00238433      -0.00056396
N       -0.58678135       0.45211412      -0.11615443      -0.36192873       0.00354524       0.00098327      -0.00074889
C        0.47716141      -0.10029825      -0.77868055       0.41710967       0.00410840      -0.00078229      -0.00430577
O        0.39094457      -1.06035832      -1.51198585      -0.42423895       0.00044538      -0.00622587      -0.00356537
C        1.79745542       0.61112060      -0.52349708      -0.13440464       0.00151883       0.00184707      -0.00082454
C        2.92837224      -0.04319216      -1.29599189      -0.10209814      -0.00305530       0.00164558       0.00189198
S        4.52368025       0.76943846      -1.06247254      -0.21014996      -0.00797349      -0.00438018      -0.00093665
C        4.95104127       0.12988915       0.57158095      -0.20202576       0.00013387       0.00111900      -0.00028487
C       -2.41606528      -1.05499029      -0.80488902      -0.11640902       0.00035279       0.00035660       0.00037039
H       -1.73137211      -1.67382874      -1.35529933       0.13549013      -0.00386836      -0.00307187      -0.00087400
C       -3.77045275      -1.35182623      -0.75241400      -0.13398440      -0.00147291      -0.00276985       0.00146962
H       -5.70988713      -0.79991669      -0.01679532       0.13601078       0.00051682       0.00142069       0.00126075
H       -4.85755643       1.19669743       1.17382143       0.13446857       0.00001017       0.00243062       0.00175183
H       -2.45747578       1.74485955       1.09781570       0.12722524       0.00452691      -0.00294557      -0.00188177
H       -0.38877167       1.26153073       0.44390809       0.26193503       0.00656303      -0.00376950       0.00036740
H        1.99551085       0.60802834       0.55016813       0.06881307      -0.00149722       0.00227397       0.00001378
H        1.69384337       1.65761188      -0.81404351       0.07678167       0.00297250       0.00293354      -0.00000561
H        2.71111400      -0.00885976      -2.35878445       0.11216009      -0.00034587       0.00081279       0.00290244
H        3.00552962      -1.09324871      -1.02656998       0.09898466       0.00158518       0.00328121      -0.00336321
H        5.96277926       0.46343712       0.78706174       0.11601456       0.00066052       0.00065236       0.00590360
H        4.92999824      -0.95734469       0.57802369       0.09382150      -0.00370504       0.00168940       0.00059508
H        4.28662393       0.50987012       1.34364291       0.08809583      -0.00157975       0.00113127       0.00020904
H       -4.13098052      -2.22504808      -1.27705794       0.13311908      -0.00170981      -0.00169440      -0.00118402
