25
Properties=species:S:1:pos:R:3:forces:R:3 charge=-1 spin=1 energy=-152.0464630126953 free_energy=-152.0464630126953 stress="0.0 0.0 0.0 0.0 0.0 0.0 0.0 0.0 0.0" pbc="F F F"
O        0.68558482       1.19756489      -0.85811102       0.00063957       0.00154446       0.00155765
C        0.73506977      -0.05087048      -0.85779521      -0.00291362      -0.00346690       0.00080826
C        1.84900587      -0.79918041      -1.35467135       0.00025225       0.00151715      -0.00059540
C        3.02617476      -0.08744600      -1.86689810      -0.00137146      -0.00332859       0.00158332
N       -0.29124494      -0.84261217      -0.31557587       0.00118252       0.00654151       0.00126607
C       -1.49850294      -0.43795050       0.26267238       0.00188324       0.00156028      -0.00296425
C       -1.95666034       0.89235253       0.23294250      -0.00025284      -0.00266767      -0.00077473
C       -3.17810125       1.21285875       0.82519668       0.00017300      -0.00044602      -0.00172930
C       -3.95862412       0.23073497       1.44463691      -0.00128898       0.00682519       0.00258546
C       -3.50538454      -1.09166974       1.47137024       0.00050360      -0.00658461      -0.00273173
C       -2.28797068      -1.42434475       0.88864817       0.00230974      -0.00257291       0.00089429
H        1.83827137      -1.89089934      -1.30785506       0.00176334      -0.00019819      -0.00037134
H        2.82860631       0.96543819      -2.10755839      -0.00293651       0.00102785      -0.00008510
H        3.53019656      -0.59895381      -2.69569303      -0.00167992       0.00220170      -0.00009060
H       -0.12129233      -1.84453385      -0.32220973       0.00159154      -0.00602747       0.00030105
H       -1.33432935       1.64318853      -0.25804966       0.00152314       0.00072673      -0.00139737
H       -3.52710293       2.24756205       0.79824310      -0.00221093       0.00060850      -0.00058216
H       -4.10469740      -1.87025026       1.94917086      -0.00362590       0.00244087       0.00001341
H       -1.92944494      -2.45650694       0.91390163      -0.00020888       0.00069577       0.00201877
H       -4.91696494       0.49505762       1.90260494       0.00128415       0.00000928      -0.00228824
S        4.19049361      -0.22953031      -0.45857643       0.00207645       0.00322503       0.00066070
C        3.55696461       0.99315825       0.69553262       0.00141735       0.00077963      -0.00159013
H        3.44232276       1.97446434       0.21947484      -0.00080428      -0.00309332       0.00039743
H        4.31459324       1.06361354       1.48651939       0.00133455       0.00017793       0.00114307
H        2.59985210       0.69117600       1.13799059      -0.00064125      -0.00149627       0.00197097
