28
Properties=species:S:1:pos:R:3:forces:R:3 charge=-1 spin=1 energy=-168.35720825195312 free_energy=-168.35720825195312 stress="0.0 0.0 0.0 0.0 0.0 0.0 0.0 0.0 0.0" pbc="F F F"
O        0.35459364       0.13544262       2.14188026       0.00285729      -0.00060451       0.00078807
C        0.52202704      -0.97006508       1.57433133      -0.00009175       0.00457773       0.00099106
C        1.79027280      -1.66030468       1.58548744      -0.00080413       0.00457227       0.00327514
C        2.94509319      -1.02259885       2.21574675       0.00486898       0.00296440       0.00062832
N       -0.48865903      -1.59053654       0.87537085      -0.00886498      -0.00035366      -0.00316665
C       -1.80892102      -0.99018898       0.71991408       0.00025362      -0.00257519      -0.00390115
C       -1.90515479      -0.03785426      -0.46083061       0.00478977       0.00358061       0.00592011
C       -1.34058661       1.24059497      -0.36427962      -0.00057824      -0.00222337      -0.00023293
C       -1.37747314       2.11377571      -1.45623354      -0.00013474       0.00063521       0.00403777
C       -1.98937573       1.72418683      -2.65150015      -0.00079368      -0.00087747      -0.00428191
C       -2.55708813       0.45331706      -2.74916832      -0.00044443       0.00067514       0.00334334
C       -2.51213769      -0.42426174      -1.65894209      -0.00226694       0.00036266      -0.00397584
H        1.87724553      -2.62940845       1.08971795       0.00099236       0.00088537       0.00159102
H        2.67334583      -0.18795903       2.87650954      -0.00451607      -0.00180228      -0.00029850
H        3.63605426      -1.71730895       2.70853493       0.00064872      -0.00260535       0.00044495
H       -0.27495591      -2.42249484       0.33674964       0.00402027      -0.00057894      -0.00095352
H       -2.55324644      -1.78918833       0.60853223       0.00247845      -0.00356546      -0.00248002
H       -2.01323345      -0.43051269       1.64515157      -0.00406824      -0.00012751      -0.00171322
H       -0.86942224       1.53487908       0.57777630       0.00260840       0.00084585       0.00542819
H       -0.92711878       3.10534004      -1.36635459      -0.00420590       0.00235668       0.00003588
H       -2.02301704       2.40971225      -3.50235680       0.00054737      -0.00041899       0.00105643
H       -3.03988285       0.13478934      -3.67685754       0.00181329       0.00042339       0.00065055
H       -2.95802170      -1.41813834      -1.74044943      -0.00028725      -0.00330594      -0.00161349
S        3.85523475      -0.43210308       0.73877819      -0.00331774       0.00206348      -0.00421717
C        2.87995684       0.98718393       0.21754154       0.00056082      -0.00462635       0.00062047
H        3.51089168       1.53245100      -0.49572476      -0.00185905      -0.00186960      -0.00478908
H        2.64364588       1.64089883       1.06582604       0.00517835       0.00305120       0.00121462
H        1.94945610       0.68854506      -0.28188769       0.00061526      -0.00145945       0.00159781
