28
Properties=species:S:1:pos:R:3:forces:R:3 charge=-1 spin=1 energy=-168.3567657470703 free_energy=-168.3567657470703 stress="0.0 0.0 0.0 0.0 0.0 0.0 0.0 0.0 0.0" pbc="F F F"
O        0.52270097       1.95703724      -0.88419189       0.00051357       0.00074318       0.00007865
C        0.74596923       0.90743335      -1.53301558      -0.00543873      -0.00204524       0.00162306
C        2.06909570       0.54339617      -1.98167310       0.00136662       0.00109157      -0.00210425
C        3.20766181       1.38134331      -1.60843883      -0.00301221       0.00192919       0.00419654
N       -0.25479411       0.01323670      -1.84027111       0.00551255      -0.00198460       0.00383312
C       -1.63587381       0.21407868      -1.41754068      -0.00133261       0.00547090       0.00227875
C       -1.93071301      -0.33091318      -0.02978325      -0.00010961       0.00026769       0.00632720
C       -2.62466008      -1.53137171       0.14777484       0.00094922      -0.00126138      -0.00016196
C       -2.85445713      -2.03633337       1.43315679       0.00073147       0.00257784       0.00171576
C       -2.38745442      -1.34655836       2.55292471      -0.00235838      -0.00283024       0.00573841
C       -1.69191467      -0.14589938       2.38044068      -0.00179307      -0.00292142      -0.00314021
C       -1.46792757       0.36233354       1.09654072       0.00123078       0.00046957      -0.00470906
H        2.20511733      -0.37191335      -2.56171016      -0.00120443       0.00218429       0.00246617
H        2.91310417       2.37824857      -1.25213279       0.00203930      -0.00437516      -0.00088108
H        3.99434487       1.44352213      -2.37002835       0.00113750       0.00100617      -0.00346422
H       -0.01058073      -0.87117195      -2.27171939       0.00248582      -0.00009954      -0.00051136
H       -1.81139579       1.30064523      -1.41609272      -0.00156184      -0.00100783      -0.00209232
H       -2.30527445      -0.25925621      -2.14735675       0.00152424      -0.00402076      -0.00068831
H       -2.99264596      -2.07522266      -0.72537586       0.00230616       0.00274993      -0.00164294
H       -3.40187772      -2.97500197       1.55180941       0.00065365      -0.00200373       0.00087663
H       -2.56462463      -1.74194973       3.55682819      -0.00146057       0.00596993      -0.00527152
H       -1.32141786       0.40524195       3.24847285       0.00228900       0.00402245       0.00053826
H       -0.92860143       1.30237311       0.94758646      -0.00217171      -0.00340199      -0.00171231
S        3.94120097       0.38166933      -0.25863666      -0.00358395      -0.00215124      -0.00108027
C        2.80602654       0.67015354       1.10630020      -0.00043690       0.00838795      -0.00033884
H        2.58580673       1.73856886       1.22028035       0.00472803      -0.00759027       0.00196923
H        1.86707782       0.11495017       0.98711604      -0.00206494       0.00127728      -0.00262584
H        3.32562794       0.30860104       2.00291831      -0.00093892      -0.00245468      -0.00121716
