29
Properties=species:S:1:pos:R:3:forces:R:3 charge=0 spin=1 energy=-172.99554443359375 free_energy=-172.99554443359375 stress="0.0 0.0 0.0 0.0 0.0 0.0 0.0 0.0 0.0" pbc="F F F"
C       -4.10564331       1.89059811      -0.64353169       0.00299680       0.00709690       0.00602057
C       -3.55533186       1.80493111       0.63694687       0.00424185      -0.00606927      -0.00115240
C       -2.39615633       1.05914351       0.85437884      -0.00437078      -0.00152466      -0.00261906
C       -1.78233245       0.38480459      -0.21108485      -0.00216867       0.00350224      -0.00084680
N       -0.62407510      -0.41545578       0.04503607       0.00462216      -0.00754486      -0.00228783
C        0.46242673      -0.32332989      -0.80472150      -0.00022339       0.00332379       0.00423193
O        0.47195375       0.42716930      -1.78410575      -0.00176170       0.00294904      -0.00055856
C        1.64962645      -1.23027971      -0.48265288       0.00007537      -0.00538808      -0.00090006
C        2.87958445      -0.84981844      -1.28749215      -0.00100022      -0.00210369       0.00647138
S        3.73266358       0.62378982      -0.66305005       0.00114277       0.00806545      -0.00195678
C        4.60499753      -0.05518376       0.76061660      -0.00302241      -0.00549600      -0.00574845
C       -0.63623141      -1.28919998       1.21801366      -0.00350910       0.00237125      -0.00334609
C       -2.32797001       0.47727180      -1.49722044      -0.00442588       0.00035130      -0.00474530
C       -3.48401994       1.22953759      -1.70692514       0.00492536      -0.00367418       0.00357792
H       -5.01437931       2.47551607      -0.81364498       0.00122711       0.00393179      -0.00195134
H       -4.02267555       2.32481124       1.47611835       0.00068824      -0.00330403       0.00271410
H       -1.94133926       1.02148428       1.84613542      -0.00500505       0.00386837       0.00337502
H        1.34171159      -2.26526516      -0.71636506       0.00154027      -0.00321665      -0.00199954
H        1.85259281      -1.19946884       0.59774144      -0.00448038       0.00242604       0.00085263
H        3.58721716      -1.68821262      -1.32980416       0.00229071      -0.00042132       0.00004144
H        2.57834766      -0.59864203      -2.31265802       0.00569631      -0.00061517      -0.00639409
H        5.15960820       0.77522210       1.21418200       0.00363159       0.00042854       0.00064699
H        5.32342848      -0.83610868       0.47549066      -0.00249342       0.00440777       0.00375911
H        3.91741424      -0.45861264       1.51760953       0.00364855       0.00292392      -0.00179064
H        0.04483835      -0.93749257       2.00788415      -0.00582375      -0.00028728       0.00209245
H       -1.65265707      -1.32527373       1.62261451      -0.00241609      -0.00340119      -0.00139210
H       -0.34651425      -2.31231004       0.94557238       0.00195693       0.00027725       0.00189883
H       -1.82668499      -0.03476088      -2.31825625       0.00154608      -0.00098844       0.00259000
H       -3.89896104       1.29830959      -2.71510856       0.00047070      -0.00188860      -0.00058335
