25
Properties=species:S:1:pos:R:3:forces:R:3 charge=-1 spin=1 energy=-152.18385314941406 free_energy=-152.18385314941406 stress="0.0 0.0 0.0 0.0 0.0 0.0 0.0 0.0 0.0" pbc="F F F"
O       -0.43832459      -1.55108476      -0.06728490      -0.00090729      -0.00569755       0.00045439
C       -0.75073961      -0.50397109      -0.67155610       0.00766879       0.00333741      -0.00066465
C       -1.99063238      -0.32447599      -1.36432330       0.00103599      -0.00006640      -0.00375655
C       -2.98198272      -1.40836675      -1.36227118      -0.00004956      -0.00196379      -0.00589752
N        0.08301264       0.62678454      -0.69008019      -0.00604095      -0.00146723      -0.00364383
C        1.37257326       0.76905695      -0.17347361       0.00368262       0.00029130      -0.00173848
C        1.96178702       2.04816837      -0.24035999       0.00032115      -0.00286543      -0.00081271
C        3.25431818       2.25267781       0.23356134      -0.00146735       0.00497931      -0.00117186
C        3.99087668       1.20187069       0.78390919       0.00269732      -0.00142922       0.00566870
C        3.38356051      -0.05208514       0.84304379      -0.00612976      -0.00357521      -0.00208973
F        4.09756881      -1.08205236       1.37881337      -0.00395924       0.00278479       0.00152092
C        2.09671220      -0.30368089       0.38032647      -0.00184342       0.00771400      -0.00351182
H       -2.20743988       0.62284938      -1.86425744      -0.00023926      -0.00366044       0.00089221
H       -2.56335931      -2.38062120      -1.07031006      -0.00138287      -0.00069308       0.00005847
H       -3.55814502      -1.48410553      -2.29262039       0.00313936       0.00205922       0.00571978
H       -0.29583683       1.44490921      -1.15949478       0.00165546      -0.00100577       0.00361705
H        1.39430584       2.87890326      -0.66672886       0.00026326       0.00060181      -0.00436252
H        3.69624363       3.25010157       0.16994980      -0.00032508      -0.00477254       0.00215307
H        5.00705918       1.33293497       1.16043237       0.00051883       0.00227181       0.00363800
H        1.64304365      -1.29324510       0.43783041       0.00139348      -0.00353080      -0.00244302
S       -4.17677828      -0.80945905      -0.10791211      -0.00436334       0.00373152      -0.00376219
C       -3.36443374      -1.24963578       1.43315805       0.00363123       0.00185789       0.00407043
H       -2.42697472      -0.69894635       1.57893909      -0.00424856      -0.00054316       0.00026274
H       -3.16427219      -2.32680639       1.48714376       0.00216342       0.00110596       0.00446780
H       -4.07532727      -0.97730168       2.22357128       0.00278592       0.00053528       0.00133136
