31
Properties=species:S:1:pos:R:3:forces:R:3 charge=0 spin=1 energy=-189.43434143066406 free_energy=-189.43434143066406 stress="0.0 0.0 0.0 0.0 0.0 0.0 0.0 0.0 0.0" pbc="F F F"
C       -0.71666457      -0.26512820      -0.94169331       0.00285587      -0.00115400      -0.00322872
C        0.55817613       0.26318728      -0.36601348       0.00891718       0.00142395      -0.00146893
O        0.60200355       1.23225947       0.39405557      -0.00014464      -0.00064832       0.00348687
N        1.67892068      -0.45783798      -0.75225184      -0.00411990       0.00195512       0.00140455
C        3.01237824      -0.23758923      -0.35696157      -0.00158067       0.00634392      -0.00207103
C        3.45194842       0.99112306       0.15948198      -0.00517219       0.00377220       0.00046012
C        4.79259944       1.14178430       0.51747290      -0.00022019       0.00050068       0.00128509
C        5.70083012       0.08967732       0.36045950       0.00300878       0.00477348       0.00012596
C        5.26095586      -1.12841065      -0.16378365       0.00355637      -0.00441003      -0.00568069
H        5.95957732      -1.95796715      -0.29432418      -0.00060079       0.00081995       0.00168051
C        3.92555109      -1.29456398      -0.52018123      -0.00299802       0.00220901      -0.00254948
C       -1.88191776       0.32303086      -0.63412251      -0.00114931      -0.00238001       0.00259025
C       -3.22980879      -0.12020482      -1.13576372       0.00137079       0.00111581       0.00258053
N       -4.29362022      -0.11672631      -0.12301994      -0.00280756      -0.00103244      -0.00366414
C       -3.98319083      -0.93953287       1.04051567       0.00027267       0.00147663      -0.00070308
C       -4.79424984       1.20392189       0.23042185      -0.00480494       0.00388264       0.00244461
H       -0.64993324      -1.13607532      -1.59789010       0.00274455       0.00072280       0.00175293
H        1.52345070      -1.27194145      -1.34123106      -0.00518709       0.00278846       0.00334077
H        2.73018650       1.80123512       0.27540733       0.00335485      -0.00484475       0.00425850
H        5.13018576       2.09817049       0.92289972      -0.00004263      -0.00242323      -0.00084494
H        6.74926705       0.21994544       0.64558864      -0.00067475      -0.00464248      -0.00186647
H        3.57452002      -2.25039582      -0.91728254       0.00203441      -0.00103286       0.00406341
H       -1.85691573       1.20227824       0.02126871      -0.00007316      -0.00375500      -0.00206451
H       -3.14749994      -1.12743969      -1.57353749      -0.00026792       0.00262783       0.00102901
H       -3.54562177       0.54483495      -1.96081740       0.00150218      -0.00405408       0.00453094
H       -3.16078311      -0.53272211       1.66268744      -0.00222104      -0.00295420       0.00019624
H       -3.68359880      -1.94600882       0.71741662      -0.00133015      -0.00656298      -0.00309165
H       -4.86845565      -1.03822603       1.68246628      -0.00169230       0.00044695      -0.00622818
H       -5.68414736       1.10368881       0.86703283       0.00239554       0.00498800       0.00310647
H       -4.06760363       1.83331897       0.78272661       0.00283398      -0.00057498      -0.00488815
H       -5.09084545       1.74988073      -0.67549153       0.00024027       0.00062212       0.00001316
