64
Properties=species:S:1:pos:R:3:forces:R:3 charge=-1 spin=1 energy=-407.7314147949219 free_energy=-407.7314147949219 stress="0.0 0.0 0.0 0.0 0.0 0.0 0.0 0.0 0.0" pbc="F F F"
Cl       4.21822596      -0.40858682      -4.71105040      -0.00215299      -0.00478216       0.00171588
C        3.69991148      -0.20474559      -3.06193728       0.00898153       0.00345881       0.00113079
C        2.32988153      -0.09603410      -2.82617777      -0.00472349      -0.00428511       0.00182867
N        1.79191832       0.04258884      -1.60493086       0.00052124       0.00214126       0.00472134
C        2.68036088       0.06484091      -0.59406138      -0.00194171      -0.00023420      -0.00270408
N        2.25679226       0.21668151       0.71316552       0.00403791      -0.00077146       0.00105070
C        0.97908163       0.31638818       1.23926935      -0.00356406      -0.00167739      -0.00072694
C        0.90585094       0.55597093       2.64184641      -0.00602469      -0.00405723      -0.00324608
O        2.11925492       0.68490657       3.25518586       0.00040554      -0.00258646       0.00500013
C        2.15949702       0.91370350       4.66980153      -0.00148501       0.00207860      -0.00057293
C       -0.33630659       0.64299067       3.26866693      -0.00085962       0.00071368      -0.00716692
C       -1.51581729       0.50099768       2.53826670       0.00485080      -0.00232054       0.00370467
C       -1.45518130       0.28429409       1.15082988      -0.00168778      -0.00024551       0.00323700
N       -2.59994207       0.10765350       0.39280318      -0.00503099       0.00456084      -0.00183142
C       -3.90135535       0.59445414       0.72237598      -0.00194791       0.00244552       0.00472589
C       -4.91147818       0.20344613      -0.19318620      -0.00374637      -0.00010788      -0.00054771
C       -6.34319233       0.63082147      -0.12930172       0.00134213      -0.00184570      -0.00494882
C       -7.25891447      -0.61698281       0.01321029      -0.00013747      -0.00160193       0.00134774
C       -6.74284124      -1.76788675      -0.85582625       0.00143421       0.00356750       0.00076579
N       -5.86218861      -1.25145887      -1.91010845      -0.00114214      -0.00182849       0.00103414
C       -5.61525993      -2.20188476      -2.98708167       0.00296121      -0.00701818       0.00150809
C       -4.62090267      -0.73678192      -1.33056265       0.00190416       0.00770837      -0.00332369
O       -4.02728640       1.32508699       1.73643977       0.00127450      -0.00115592      -0.00603138
C       -0.20134690       0.18979658       0.50999601       0.00612322      -0.00041125       0.00559762
N        4.01102372      -0.03705621      -0.70366539      -0.00480790       0.00240635      -0.00034755
C        4.56789914      -0.16948126      -1.93619987      -0.00139517       0.00025195      -0.00793728
C        6.01182679      -0.25648642      -1.97257932      -0.00077814      -0.00329909       0.00639239
C        6.84999988      -0.35515390      -0.81247171      -0.00063994       0.00381145      -0.00521546
C        6.68239661      -0.43590681       0.58372971      -0.00071108       0.00325633      -0.00518700
C        7.79644636      -0.53489780       1.40264401       0.00189463      -0.00060214       0.00814024
C        9.09684415      -0.55923378       0.84849640      -0.00567386      -0.00423156      -0.00419936
C        9.25097968      -0.48595585      -0.51502561      -0.00367838      -0.00199334       0.00167078
N        8.14644992      -0.38728271      -1.30684345      -0.00723746       0.00301809      -0.00276166
N        8.19995264      -0.31607687      -2.68496503      -0.00055986      -0.00011070       0.00283206
C        6.92557977      -0.23952589      -3.06006012       0.00258532      -0.00334399      -0.00298142
H        1.63775850      -0.12132408      -3.66992114       0.00706905      -0.00354867       0.00379419
H        3.02577066       0.25831094       1.38289100       0.00506111       0.00340135      -0.00171588
H        3.21986363       0.98488409       4.93799024       0.00351053      -0.00214072       0.00163990
H        1.65230497       1.85435636       4.93772117       0.00015336       0.00090975      -0.00173008
H        1.69795077       0.08113352       5.22460548      -0.00425126      -0.00229299       0.00191118
H       -0.38171988       0.82298646       4.34285398       0.00065938       0.00339145       0.00527611
H       -2.49525126       0.57301562       3.01384405       0.00296971      -0.00108715       0.00163729
H       -2.46006213      -0.27299298      -0.53736897      -0.00337456      -0.00173498       0.00140348
H       -6.57977886       1.03588401      -1.13528497       0.00040980       0.00192475      -0.00171790
H       -8.27777859      -0.33036418      -0.28563804       0.00201809      -0.00098879       0.00288502
H       -7.29235378      -0.91294511       1.07175900      -0.00311046       0.00058950       0.00073220
H       -7.57932761      -2.29763361      -1.33062265      -0.00196992      -0.00283839      -0.00255414
H       -6.20529090      -2.50386624      -0.22633876      -0.00163427      -0.00398985       0.00195504
H       -5.10666361      -3.12443658      -2.64758112      -0.00432060       0.00419620      -0.00043929
H       -6.56456140      -2.49537415      -3.45362869       0.00202380      -0.00218964      -0.00216724
H       -4.98537982      -1.73927878      -3.75787037       0.00225115       0.00068543      -0.00249338
H       -3.97023051      -1.56873852      -0.98128672       0.00593076      -0.00531977      -0.00206851
H       -4.04849916      -0.26084287      -2.15179580       0.00113159       0.00708699      -0.00144714
H       -0.10349771       0.03500540      -0.56734613      -0.00035655      -0.00408429      -0.00051707
H        5.66530950      -0.41497962       0.97417906       0.00255698      -0.00091272       0.00306848
H        7.67518559      -0.59536588       2.48713817       0.00040558       0.00200146      -0.00006521
H        9.97943505      -0.63919687       1.48574150      -0.00020692       0.00462065       0.00149333
H       10.19816973      -0.50118759      -1.04859839       0.00702050       0.00137794      -0.00516922
H        6.69654741      -0.16715593      -4.11993864      -0.00143005       0.00210175      -0.00443774
S       -6.93556788       1.81882490       1.09593287       0.00055255       0.00025365       0.00487363
C       -6.05560242       3.31402228       0.65242644      -0.00056742      -0.00394425      -0.00306084
H       -6.28349911       3.63652796      -0.37237384       0.00215316       0.00482201       0.00250409
H       -4.97925009       3.15740247       0.78806596      -0.00322297       0.00356718      -0.00088528
H       -6.40226136       4.08724691       1.34988436       0.00017805       0.00323370       0.00062176
