38
Properties=species:S:1:pos:R:3:forces:R:3 charge=0 spin=1 energy=-226.85638427734375 free_energy=-226.85638427734375 stress="0.0 0.0 0.0 0.0 0.0 0.0 0.0 0.0 0.0" pbc="F F F"
C       -5.12870574       0.62849017      -0.83846459      -0.00197211      -0.00172324      -0.00061718
C       -3.79863066       0.21213133      -0.91927088       0.00438315      -0.00040197       0.00288546
C       -2.96269494       0.36329808       0.19868804      -0.00100102      -0.00158471      -0.00265371
N       -1.60987430      -0.02708951       0.20905167       0.00816146      -0.00051749       0.00113493
C       -0.92201154      -0.72515388      -0.75488580      -0.00800645      -0.00190727       0.00050783
O       -1.40889558      -1.13816804      -1.80911139       0.00071059      -0.00145090      -0.00155974
C        0.55103279      -0.97585044      -0.38239709      -0.00233498      -0.00084764       0.00031245
C        1.27969594      -1.65647224      -1.54079650      -0.00460478       0.00242978       0.00782174
C        2.67377334      -2.12430128      -1.12523342       0.00128009       0.00003573      -0.00128564
N        3.26001958      -1.19232230      -0.15251825       0.00593013       0.00646856       0.00267613
C        4.69959463      -1.34039937       0.01261541      -0.00330258      -0.00474692       0.00314221
C        2.80322961       0.17444268      -0.35849660       0.00439940       0.00003383      -0.00252192
C        1.31306431       0.30747568       0.02992877       0.00355175       0.00361764      -0.00123915
S        1.08475198       0.60604930       1.82557918       0.00078801      -0.00152874      -0.00276905
C        1.44254042       2.36913175       1.91939776      -0.00097465       0.00338180       0.00243777
C       -3.47077363       0.93872119       1.37821750      -0.00015929      -0.00330763      -0.00100282
C       -4.79769604       1.35192587       1.44272752       0.00043482       0.00356816      -0.00267822
H       -5.17981414       1.79626737       2.36456610      -0.00002767       0.00023127       0.00297490
C       -5.63483578       1.19797066       0.33351501      -0.00369161       0.00096531       0.00115335
H       -6.67909680       1.52235742       0.38179497       0.00518981      -0.00061738       0.00084981
H       -5.77625225       0.50479913      -1.70927178      -0.00355214       0.00210908      -0.00564662
H       -3.39318472      -0.23201545      -1.82897944      -0.00187419       0.00291362       0.00055656
H       -1.05018538       0.23908049       1.03485831      -0.00510306      -0.00108963      -0.00030055
H        0.54244052      -1.66227809       0.48664436       0.00123034      -0.00328440      -0.00402734
H        0.67315716      -2.49367241      -1.90530596       0.00459339      -0.00234693      -0.00128685
H        1.33725472      -0.94773887      -2.38227714      -0.00169690      -0.00123980      -0.00127676
H        3.31694071      -2.23375246      -2.01933523       0.00569597       0.00026947       0.00563545
H        2.62134994      -3.12300663      -0.66351035       0.00092482      -0.00275826      -0.00091916
H        5.27675315      -1.06204713      -0.89000770       0.00055440       0.00230581      -0.00078537
H        4.93977773      -2.38594264       0.24805072      -0.00168104      -0.00197178      -0.00442408
H        5.05414214      -0.71625775       0.84326263      -0.00132620      -0.00100889      -0.00092633
H        2.92442025       0.51892935      -1.40747720      -0.00131188      -0.00073006       0.00231059
H        3.40090778       0.85015979       0.26676286      -0.00434788      -0.00118577      -0.00292919
H        0.88534300       1.17617373      -0.49368634      -0.00433099       0.00194827       0.00048207
H        1.34721980       2.65784455       2.97267771      -0.00042012       0.00104491       0.00109230
H        2.46497798       2.58767182       1.58919452       0.00242996       0.00113356       0.00183324
H        0.72907253       2.95582775       1.32858847      -0.00032588       0.00015882      -0.00053068
H       -2.81284880       1.05051820       2.24314028       0.00178742       0.00163352       0.00157370
