65
Properties=species:S:1:pos:R:3:forces:R:3 charge=0 spin=1 energy=-402.2474670410156 free_energy=-402.2474670410156 stress="0.0 0.0 0.0 0.0 0.0 0.0 0.0 0.0 0.0" pbc="F F F"
C        0.15483046      -3.59666368       0.13650708      -0.00462547       0.00209332       0.00590971
N        1.45776740      -3.41440674      -0.14445002      -0.00498232       0.00046700      -0.00118987
C        1.90504019      -2.15696911      -0.22053932       0.00673771      -0.00270714      -0.00256711
N        3.22286230      -1.91782444      -0.50920208      -0.00371334      -0.00227656      -0.00206556
C        4.28208215      -2.79427359      -0.78041493       0.00200350       0.00309424      -0.00018914
C        5.53295932      -2.20651195      -1.03934941       0.00072166       0.00289539      -0.00229925
C        6.64152482      -2.99828970      -1.32476931      -0.00074306      -0.00399342       0.00252862
C        6.49804411      -4.38319157      -1.34829285       0.00089520      -0.00779691      -0.00469089
F        7.57330756      -5.16224301      -1.62593457      -0.00104903       0.00241672       0.00291015
C        5.25786587      -4.98802653      -1.08975415       0.00019309       0.00517675      -0.00047473
Cl       5.14091259      -6.70445329      -1.13483401       0.00409436       0.00072959       0.00062800
C        4.14842517      -4.19490230      -0.80652585       0.00517881      -0.00088623      -0.00257738
C        1.03473265      -1.02099348      -0.00609040       0.00032611       0.00337085      -0.00000406
C        1.40019028       0.34460935      -0.07165470      -0.00861198       0.00153720      -0.00187815
C        0.46504678       1.34742454       0.14130843       0.00055736       0.00002916       0.00214523
N        0.74025574       2.71764786       0.10772702      -0.00724700       0.00430861       0.00163715
C        1.94025359       3.31819546      -0.21036991       0.00746176      -0.00513360      -0.00320186
O        2.94877777       2.68379417      -0.53911605      -0.00224226       0.00093326       0.00255010
C        1.91478981       4.83553483      -0.10452365      -0.00305739      -0.00135149      -0.00444573
C        3.19882169       5.45363950      -0.62702314       0.00848116      -0.00268441       0.00079444
S        3.21383750       7.26083400      -0.57876194      -0.00469727       0.00243375       0.00156180
C        3.37194910       7.57612382       1.19012843      -0.00630874       0.00569961      -0.00506742
C       -0.88792179       0.99382524       0.44366613       0.00310985       0.00342606      -0.00386426
O       -1.71671887       2.06617846       0.61634431       0.00598313      -0.00350711       0.00312044
C       -3.11396251       1.78839792       0.88624207      -0.00312075       0.00073197       0.00481222
C       -3.89215038       1.31135562      -0.33865077      -0.00046424      -0.00580171      -0.00053239
C       -5.05600696       0.40330263       0.07260090      -0.00034470      -0.00353506      -0.00230974
N       -4.57959115      -0.91976377       0.49005791       0.00399262       0.00199489      -0.00109932
C       -5.44958500      -1.60418220       1.46440732      -0.00254433       0.00203927       0.00347526
C       -4.98662862      -3.04746239       1.62332946      -0.00190646      -0.00380254      -0.00046051
O       -5.21176465      -3.80796375       0.42333720      -0.00346050       0.00015232       0.00651623
C       -5.21823206      -2.99059940      -0.75611932      -0.00258277       0.00213028      -0.00109956
C       -4.22544851      -1.83716719      -0.62497369       0.00100931       0.00389196       0.00066016
C       -1.26212278      -0.32944914       0.54154756      -0.00487012      -0.00171983       0.00234386
C       -0.32117700      -1.36391060       0.30116559      -0.00212049      -0.00311185       0.00184964
N       -0.75379053      -2.65255444       0.36063996      -0.00039712      -0.00285596      -0.00440533
H       -0.19279974      -4.63229013       0.18623386      -0.00164653      -0.00075012      -0.00303314
H        3.47966851      -0.93594537      -0.54856888       0.00130549      -0.00146091       0.00136708
H        5.63491673      -1.11796656      -1.02054052      -0.00402796      -0.00410396      -0.00008437
H        7.61719985      -2.55673770      -1.53185611       0.00054950       0.00097476       0.00037331
H        3.17376585      -4.64105560      -0.60486351      -0.00174850       0.00109935       0.00065704
H        2.41298015       0.67952006      -0.29947316       0.00088817       0.00192282       0.00167802
H       -0.05654134       3.30750472       0.34911936       0.00186308      -0.00250582      -0.00119042
H        1.04021605       5.22229312      -0.65239432       0.00241339       0.00208415      -0.00457481
H        1.74281742       5.09334570       0.95500113       0.00207648       0.00058503       0.00312060
H        3.32325034       5.18996280      -1.68643967       0.00310098       0.00086887       0.00147927
H        4.06797967       5.03928493      -0.09735025      -0.00023629       0.00202519      -0.00044149
H        3.43084440       8.66549858       1.30675108       0.00066358      -0.00543921      -0.00039229
H        4.28742496       7.13355418       1.60619953       0.00023291       0.00044516       0.00089494
H        2.50337367       7.21856517       1.76086566      -0.00188537       0.00339625       0.00186237
H       -3.51471428       2.74136705       1.25661742      -0.00103232       0.00147532       0.00144444
H       -3.19307732       1.04962244       1.70114897      -0.00299246       0.00279671      -0.00082596
H       -3.21820513       0.76593640      -1.01550467       0.00339688       0.00022649       0.00603078
H       -4.26831139       2.17898479      -0.89814649       0.00282136      -0.00203076       0.00010706
H       -5.79094751       0.34957119      -0.75401578       0.00113475       0.00077382       0.00461713
H       -5.58798380       0.86519945       0.91982019      -0.00066236       0.00258115       0.00022549
H       -5.39315596      -1.08617881       2.43474274       0.00136974       0.00036769      -0.00071827
H       -6.51767328      -1.59318459       1.16274518       0.00466274       0.00009412      -0.00186317
H       -3.91416682      -3.06588195       1.88740187      -0.00233003      -0.00262114      -0.00414958
H       -5.54477425      -3.55509531       2.42222341      -0.00017675      -0.00048949      -0.00251693
H       -6.23182272      -2.59293235      -0.95482210      -0.00131662      -0.00268362       0.00117463
H       -4.93870465      -3.64923784      -1.58986595       0.00077684       0.00084385      -0.00026470
H       -4.17961626      -1.27771818      -1.57088329       0.00193296       0.00378675      -0.00113986
H       -3.22454737      -2.27149468      -0.44769249       0.00269729      -0.00064360      -0.00256950
H       -2.28453545      -0.61888673       0.79194155       0.00451207      -0.00200691      -0.00028779
