29
Properties=species:S:1:pos:R:3:forces:R:3 charge=-1 spin=1 energy=-185.925048828125 free_energy=-185.925048828125 stress="0.0 0.0 0.0 0.0 0.0 0.0 0.0 0.0 0.0" pbc="F F F"
C       -3.53313629       1.42946751      -2.27150842       0.00623478      -0.00034255      -0.00176403
N       -4.78067620       1.07485242      -2.52221138      -0.00060488      -0.00377318       0.00000262
C       -5.26880820      -0.00054006      -1.84809473      -0.00099528      -0.00058328       0.00029671
N       -4.58663516      -0.72279597      -0.95922473      -0.00316203      -0.00824842       0.00102440
C       -3.30876244      -0.38066174      -0.68542077      -0.00137402       0.00003868       0.00318161
C       -2.69791304       0.73967513      -1.33537415       0.00188574      -0.00683877       0.00000855
C       -1.36844018       1.07938663      -1.01998992       0.00247898      -0.00183341      -0.00072713
C       -0.63661061       0.34341549      -0.07817342      -0.00488483       0.00581823       0.00043284
N        0.66201422       0.75331329       0.20471969       0.00207807       0.00369370       0.00282216
C        1.59599866       0.20203218       1.10311904      -0.00278544       0.00270855      -0.00040378
C        2.81543706       0.94071376       1.19528763      -0.00348306      -0.00138250      -0.00043026
C        3.89983556       0.44303011       2.05302705       0.00777191      -0.00518803       0.00229019
O        1.37187612      -0.85687618       1.72813976       0.00159515       0.00743023       0.00132352
C       -1.24706632      -0.77768082       0.56164338       0.00243841       0.00492170      -0.00119904
C       -2.54423562      -1.12370172       0.25891144       0.00265004       0.00223011       0.00131249
H       -6.30036855      -0.28951648      -2.05585147       0.00140947       0.00070186      -0.00336926
H       -0.90354731       1.93195667      -1.51997575      -0.00384073       0.00340547       0.00237847
H        0.97394203       1.58861241      -0.28284939       0.00194917       0.00167463      -0.00150572
H        2.95360596       1.84712553       0.60020155       0.00136738      -0.00348496      -0.00139532
H        3.56697897      -0.31087601       2.77868403       0.00344836      -0.00294736       0.00240701
H        4.48123543       1.23548721       2.53990476      -0.00456090      -0.00178149      -0.00374457
H       -3.04230595      -1.97405625       0.72770653       0.00126708       0.00140047      -0.00104134
H       -3.14029618       2.29342435      -2.81729598       0.00053744       0.00078976       0.00323094
H       -0.64321389      -1.33115046       1.28448278      -0.00635028       0.00156400       0.00047037
S        5.05042464      -0.29005417       0.82827460       0.00209607      -0.00076914      -0.00001819
C        4.25904835      -1.85478967       0.43876067      -0.00311628       0.00099045       0.00043561
H        3.31566939      -1.71996595      -0.10458587      -0.00101718       0.00099058      -0.00533211
H        4.97260102      -2.38847393      -0.20177398      -0.00292480      -0.00088868      -0.00112410
H        4.07478588      -2.44814960       1.34280412      -0.00010803      -0.00029610       0.00043707
