37
Properties=species:S:1:pos:R:3:charge:R:1:forces:R:3 energy=-29684.669479792647 pbc="F F F"
C        5.04683893      -0.89532651      -0.95052619      -0.04395474      -0.00060993      -0.00288809      -0.00118292
C        3.71968519      -0.99661229      -0.56674455      -0.05428498      -0.00433953      -0.00270979      -0.00168082
C        3.07438798       0.12129941      -0.04558899       0.04381031      -0.00111717      -0.00478538       0.00753413
N        1.74838378       0.07772346       0.42223600      -0.09742644      -0.00261871      -0.00187538       0.00431964
C        0.78070530      -0.81665532       0.05330116       0.19796610       0.00005589      -0.00254758      -0.00380269
O        0.92807873      -1.65026595      -0.81875120      -0.30248371      -0.00263599       0.00153467       0.00062082
C       -0.53357375      -0.64207258       0.78389323      -0.04163080       0.00511271      -0.00285727      -0.00079228
C       -1.36562638       0.45631836       0.09726023      -0.00439290       0.00395558      -0.00484457      -0.00262022
S       -0.88734433       2.13075315       0.62843765      -0.09985302      -0.00534628       0.00259702       0.00029752
C       -1.43924273       2.14841098       2.34805752      -0.05627184      -0.00104485       0.00289162       0.00196763
C       -2.87330167       0.22877389       0.19309762       0.01775504       0.00050193       0.00027285      -0.00274080
N       -3.27746055      -1.07197521      -0.32434543      -0.17632923      -0.00133670       0.00067351      -0.00261963
C       -4.68507607      -1.30253800      -0.06460308      -0.01794622      -0.00028779       0.00391133      -0.00009035
C       -2.98898340      -1.24806911      -1.74152312      -0.01867575      -0.00104527      -0.00190549      -0.00058635
C        3.76227032       1.32848131       0.05791370      -0.05277528      -0.00589056       0.00154242       0.00253299
C        5.08543173       1.41876760      -0.33841418      -0.04319578      -0.00136556       0.00419440       0.00535995
H        5.60358226       2.36419328      -0.25165380       0.04537524       0.00214793       0.00932909       0.00245009
C        5.73765125       0.30286043      -0.84204092      -0.04715434       0.00207803       0.00068541       0.00563639
H        6.77210554       0.36446327      -1.14574681       0.04421364       0.00365044       0.00249871      -0.00655305
H        5.54456382      -1.77206042      -1.34081086       0.04405013       0.00301867      -0.00312263      -0.00628445
H        3.18811224      -1.92638853      -0.66668362       0.03305191       0.00134710      -0.00597416      -0.00350606
H        1.45279148       0.88476261       0.94944834       0.11880000       0.00255885      -0.00329395      -0.00134993
H       -1.07563303      -1.58054240       0.71952056       0.02801740       0.00194436      -0.00024442       0.00258803
H       -0.36948439      -0.40831542       1.83147280       0.04183285       0.00268765       0.00341409      -0.00211160
H       -1.09546382       0.44380295      -0.95983651       0.03488730       0.00697210      -0.00223364      -0.00216277
H       -1.19202458       3.13068966       2.74320107       0.04367439       0.00581885      -0.00175275       0.00164126
H       -2.51305456       2.01367384       2.41773980       0.03875687       0.00207702       0.00084617       0.00161489
H       -0.93496584       1.39701509       2.94770609       0.04260863       0.00104444       0.00418498      -0.00524776
H       -3.17720567       0.28229769       1.23934012       0.02857919      -0.00380411      -0.00038859      -0.00264795
H       -3.39058219       1.03751014      -0.34015856       0.02821189      -0.00457586       0.00412224       0.00237817
H       -5.33816890      -0.60418331      -0.60865297       0.03004575      -0.00395496      -0.00262555       0.00122608
H       -4.94367228      -2.31674713      -0.36221961       0.02980343       0.00290220       0.00596515       0.00213869
H       -4.88166381      -1.19958118       1.00078295       0.02908991      -0.00072916       0.00017454      -0.00251653
H       -3.39977800      -0.43497377      -2.35831574       0.03148151      -0.00068647      -0.00480802      -0.00116646
H       -1.91569609      -1.30450082      -1.91132884       0.02945947      -0.00291954      -0.00336351       0.00228586
H       -3.42278071      -2.18838207      -2.07425524       0.02941399      -0.00180617      -0.00030789       0.00141462
H        3.25241255       2.19959246       0.44742392       0.04548997      -0.00175868       0.00369062       0.00365550
