36
Properties=species:S:1:pos:R:3:charge:R:1:forces:R:3 energy=-29668.775045871756 pbc="F F F"
C        5.59357333      -0.18803414       0.15716123      -0.08381666      -0.00071654       0.00223843      -0.00490776
C        5.10744431      -0.84732838      -0.96369946      -0.06282546       0.00126103       0.00002096       0.00072780
C        3.75120647      -0.86764954      -1.23468082      -0.08137122       0.00389269      -0.00287940      -0.00060665
C        2.82683382      -0.22670034      -0.39087950       0.04801571       0.00559560      -0.00053768       0.00090263
N        1.49357965      -0.30925078      -0.69554608      -0.14308354       0.00364773      -0.00629213       0.00057716
C        0.35443258       0.35831151      -0.09225914       0.10892254      -0.00229935       0.00335034      -0.00462470
C       -0.83186165       0.15322853      -0.75593446      -0.22400412      -0.00070692      -0.00485987      -0.00005129
C       -2.07590743       0.80213213      -0.27613850      -0.02751935       0.00183898      -0.00114655      -0.00362408
C       -3.27671433      -0.13271192      -0.24957324       0.00155335       0.00134373       0.00941377      -0.00217457
N       -2.99913797      -1.39059820       0.44671320      -0.13790500      -0.00223104       0.00660184      -0.00492141
C       -2.41258204      -1.17363125       1.76285255      -0.03379993      -0.00103679      -0.00526224      -0.00352612
C       -4.18372220      -2.21156338       0.51933220      -0.02099175       0.00044767       0.00150825       0.00122850
O        0.55392479       1.05301613       0.93796957      -0.35754347      -0.00824460       0.00378127      -0.00082804
C        3.32514085       0.44849887       0.73506181      -0.06871319       0.00238637       0.00152251       0.00316408
C        4.68479404       0.45391475       0.99185759      -0.05780002       0.00381204       0.00095719      -0.00134262
H        5.78772462      -1.35340914      -1.63808087       0.02012928      -0.00076102       0.00076435       0.00443758
H        3.38158697      -1.38582124      -2.11076405       0.02329794      -0.00486610      -0.00184554       0.00188139
H        1.25922604      -0.81658070      -1.52722203       0.11555042       0.00210488      -0.00190099      -0.00788768
H       -0.93920300      -0.49968275      -1.61168070       0.01860114       0.00027444       0.00067367       0.00162856
H       -1.90088365       1.22037729       0.71392809       0.01926353      -0.00187151      -0.00841273      -0.00428944
H       -3.56759824      -0.38055084      -1.27472544       0.00541609       0.00613987       0.00557807       0.00259083
H       -4.13018801       0.37926975       0.22428260       0.00931061      -0.00325028      -0.00288071      -0.00233985
H       -3.00312676      -0.46020113       2.36040215       0.01632269       0.00366194      -0.00357500       0.00558039
H       -1.40576150      -0.77556128       1.67423404       0.01750541      -0.00205677       0.00495810      -0.00209110
H       -2.36797658      -2.12484197       2.29766861       0.01200230      -0.00071507      -0.00593225       0.00455638
H       -3.92506327      -3.19301813       0.91989356       0.01043592      -0.00265440      -0.00460917       0.00284864
H       -4.59699656      -2.34901496      -0.48131232       0.01049104       0.00416750      -0.00119000      -0.00214838
H       -4.97625133      -1.78083456       1.15695011       0.01346892       0.00157061       0.00725410       0.00528244
H        2.62093068       0.95064456       1.37502199       0.01437437      -0.00281456      -0.00012004       0.00293382
H        6.65185341      -0.17381804       0.37428771       0.02054061      -0.00678296       0.00329132      -0.00083269
H        5.04272539       0.97610290       1.87109700       0.01918117      -0.00430042       0.00152668      -0.00261683
S       -2.55696232       2.29359644      -1.29384965      -0.18380749      -0.00198187       0.00279560       0.00291632
C       -1.05233130       3.24200236      -1.04158350      -0.08420154       0.00305559       0.00101196      -0.00229159
H       -0.90876127       3.43595543       0.01711117       0.02243757       0.00203590       0.00221104      -0.00182960
H       -1.12935436       4.18245306      -1.58639381       0.01462712       0.00251036      -0.00443240       0.00538246
H       -0.20094566       2.66423621      -1.38870958       0.02592741      -0.00245689      -0.00358241       0.00629576
