58
Properties=species:S:1:pos:R:3:charge:R:1:forces:R:3 energy=-39846.13015448303 pbc="F F F"
C        3.31200902      -2.60531990      -1.64189666      -0.04552445       0.00098281      -0.00052796       0.00065593
C        1.97558097      -2.31623745      -1.51793911       0.04543865       0.00254176       0.00113640      -0.00429741
N        1.50100381      -1.26309171      -0.85435379      -0.19219530       0.00490204      -0.00065436      -0.00196470
C        2.42826267      -0.48980357      -0.29616442       0.16210055       0.00197971      -0.00305543       0.00337688
N        2.05962917       0.61695081       0.42218133      -0.13162519       0.00043819       0.00090315      -0.00338210
C        0.80653502       1.18781552       0.64383102       0.03509504      -0.00066825      -0.00023224       0.00161009
C       -0.38508657       0.72049795       0.12879171      -0.06367465      -0.00114973       0.00120930      -0.00150369
C       -1.59409020       1.37335580       0.40147051       0.05150456      -0.00160564       0.00180149       0.00069679
N       -2.74860452       0.82747275      -0.20556618      -0.10148856      -0.00316801      -0.00189609       0.00009212
C       -4.05603394       1.13487954       0.05472930       0.17962205      -0.00342276       0.00273410      -0.00054161
C       -5.02606513       0.36077566      -0.76955084      -0.05101135      -0.00029185      -0.00123267      -0.00030202
C       -6.32397670       0.46125315      -0.53093570      -0.03524321       0.00383282      -0.00384950       0.00345451
C       -7.36835662      -0.30454034      -1.27074376       0.00903709       0.00407702       0.00468616      -0.00478622
N       -7.98676650      -1.34320699      -0.45353766      -0.18558687       0.00877133       0.00037948      -0.00040928
C       -8.82311667      -2.19850355      -1.27278000      -0.01738164      -0.00219637       0.00285707      -0.00042402
C       -8.74534339      -0.79024899       0.65509589      -0.01772211      -0.00161702       0.00049329      -0.00017264
O       -4.40697160       1.95381873       0.88093639      -0.30811352       0.00405478       0.00083975      -0.00378244
C       -1.61171498       2.49422754       1.20391833      -0.04647699       0.00483009      -0.00027810       0.00456198
C       -0.40975973       2.96856910       1.72657058      -0.05220120       0.00494372      -0.00057909       0.00132011
C        0.78332830       2.33933180       1.45751073       0.05706000       0.00311353       0.00244800      -0.00209735
O        2.01302502       2.73826734       1.92105704      -0.14428219      -0.00248449       0.00347950       0.00209562
C        2.05741022       3.90188154       2.72898668       0.02668346       0.00066157       0.00136693      -0.00065235
N        3.75106398      -0.66520676      -0.34279516      -0.19381160       0.00036715      -0.00224027      -0.00474861
C        4.20976642      -1.72292367      -1.02007598       0.06399044       0.00065948      -0.00655045       0.00378520
C        5.64045432      -1.92320706      -1.08881053      -0.04315325       0.00109915       0.00408871      -0.00428240
C        6.65173472      -1.11979546      -0.53166864       0.03275954       0.00011132       0.00276637      -0.00099866
C        6.72951059       0.07172258       0.24067730      -0.03767954      -0.00159315       0.00012003       0.00328889
C        7.95015096       0.55221904       0.59889909      -0.02462458      -0.00183012      -0.00097502       0.00236826
C        9.14021941      -0.12182751       0.20702181      -0.04094221      -0.00237963       0.00266213       0.00019131
C        9.06032170      -1.25453079      -0.52826724       0.02711976      -0.00014792      -0.00074155       0.00295253
N        7.83116585      -1.72917682      -0.88083788       0.01347409       0.00009540      -0.00118830       0.00435264
N        7.65623161      -2.85278883      -1.61170684      -0.18201187      -0.00231572       0.00148580      -0.00028706
C        6.34449257      -2.95779197      -1.72905141       0.00135124      -0.00250477      -0.00150868       0.00144562
H        3.63872399      -3.47138942      -2.19376498       0.06111126      -0.00129648       0.00289708       0.00169939
H        1.23086119      -2.95921396      -1.97321699       0.05469809       0.00002459       0.00019392       0.00190436
H        2.83226414       1.10751400       0.83919848       0.10529692       0.00046474       0.00052642      -0.00246457
H       -0.37014486      -0.16275584      -0.48931956       0.03025822       0.00163498       0.00139747      -0.00460743
H       -2.56684167       0.08724650      -0.85774554       0.15213107       0.00387236      -0.00157251      -0.00040512
H       -4.64262469      -0.28324723      -1.55276400       0.05120415       0.00201789      -0.00439777       0.00123537
H       -6.61886498       1.14059293       0.25752540       0.03286459       0.00033002       0.00150417       0.00223857
H       -8.12753919       0.40025303      -1.64249895       0.03183194      -0.00351040      -0.00139034      -0.00292460
H       -6.90530457      -0.77535439      -2.13743838       0.03061935      -0.00517097      -0.00633023      -0.00206156
H       -9.66767095      -1.66122293      -1.72682673       0.03166691      -0.00549908       0.00530995      -0.00278624
H       -9.21862352      -3.00489747      -0.65952392       0.03115651      -0.00138008      -0.00240284       0.00035000
H       -8.22235057      -2.63085951      -2.06990096       0.03043553      -0.00105054      -0.00118862       0.00268622
H       -9.18353727      -1.60754082       1.22256460       0.03143855      -0.00468909      -0.00303225       0.00097076
H       -9.55116798      -0.12313918       0.32053676       0.03247554      -0.00703539       0.00445460       0.00075490
H       -8.09320040      -0.23062595       1.32020500       0.02697981       0.00023334      -0.00316411       0.00468520
H       -2.53633654       2.99383757       1.42636286       0.03419216       0.00115469      -0.00712420       0.00212040
H       -0.43959268       3.84502750       2.35227322       0.04753970      -0.00186417      -0.00080170      -0.00261443
H        1.68376672       4.77234507       2.18773101       0.04241188       0.00422050       0.00487224       0.00762800
H        1.48415271       3.76764661       3.64754787       0.04267464       0.00244761       0.00354127      -0.00436957
H        3.10261353       4.05407969       2.97620685       0.04499361      -0.00082463      -0.00385557       0.00115261
H        5.80809533       0.55507747       0.51705562       0.04105076      -0.00102082       0.00233911       0.00217731
H        8.02604104       1.45361848       1.18812498       0.05541070      -0.00157757       0.00131267      -0.00505200
H       10.11147288       0.25429852       0.48603679       0.05821439      -0.00227946      -0.00183061       0.00084016
H        9.89291034      -1.84273946      -0.87629329       0.05382843      -0.00058919       0.00168663      -0.00128563
H        5.92881032      -3.78589140      -2.27756500       0.05502898       0.00130054      -0.00289115      -0.00348751
