23
Properties=species:S:1:pos:R:3:charge:R:1:forces:R:3 energy=-14095.544973225848 pbc="F F F"
C       -3.70227940      -1.56661310       0.44479606      -0.06253259       0.00015768      -0.00210448      -0.00009404
C       -2.89703228      -0.58125470       0.07050311      -0.04544862      -0.00257824      -0.00424819       0.00131365
C       -1.41212223      -0.73469862       0.18750352       0.17739293      -0.00287298      -0.00035421      -0.00470667
O       -0.91294174      -1.76923437       0.58586899      -0.32811964       0.00104409      -0.00609395       0.00473341
N       -0.64279601       0.34573457      -0.17665692      -0.07367314      -0.00084192      -0.00273626       0.00134863
C       -1.21213650       1.57539953      -0.70317504       0.00100734       0.00114959      -0.00016879      -0.00006777
C        0.77805142       0.19138263      -0.18301436       0.04135766       0.00048171       0.00392065       0.00193278
C        1.48845732       0.39036105      -1.35832552      -0.04570749      -0.00027411       0.00230798       0.00032843
C        2.87173934       0.27033768      -1.36324157      -0.03492694      -0.00112890      -0.00017780      -0.00128030
C        3.54766232      -0.03364704      -0.19071717      -0.03830896       0.00015578      -0.00205841      -0.00138729
C        2.83188551      -0.22954674       0.98441412      -0.03755433       0.00103148       0.00178717      -0.00093825
C        1.45024816      -0.13440666       0.98716541      -0.04493145      -0.00106984      -0.00735839       0.00162190
H       -3.29253363      -2.48643364       0.83654536       0.03818829       0.00169553       0.00236084      -0.00016443
H       -4.77613726      -1.47251889       0.36481405       0.05020943       0.00075265      -0.00239863       0.00211623
H       -3.31013325       0.33335260      -0.33096419       0.04426560       0.00057251       0.00678451       0.00044598
H       -1.96053390       1.97571561      -0.02218728       0.04544403       0.00271720       0.00502332      -0.00277999
H       -0.41846966       2.30768378      -0.78983227       0.03852120      -0.00111430       0.00766334       0.00025539
H       -1.67153609       1.43980179      -1.68241430       0.04845519       0.00276276      -0.00122738      -0.00044298
H        0.95595608       0.63802476      -2.26683240       0.04493243       0.00071062      -0.00415416      -0.00524753
H        3.42083478       0.41500534      -2.28351663       0.04867136       0.00007590       0.00125379       0.00007373
H        4.62387042      -0.12187331      -0.19127319       0.04739930       0.00166869       0.00436099       0.00116292
H        3.35377088      -0.46693730       1.90106125       0.04804845      -0.00181368      -0.00135495      -0.00056288
H        0.87980077      -0.32247501       1.88351326       0.03730998      -0.00328199      -0.00102680       0.00233886
