26
Properties=species:S:1:pos:R:3:charge:R:1:forces:R:3 energy=-24966.490386557794 pbc="F F F"
C        4.01470050       0.26569642       1.53233859      -0.04585836      -0.00414052      -0.00154966      -0.00082440
C        3.44695083       1.46798721       1.13790319      -0.04318181      -0.00266345      -0.00224001      -0.00065587
C        2.18353237       1.51639104       0.56975249      -0.05481638      -0.00223760       0.00268883       0.00289348
C        1.47284506       0.33240504       0.39083094       0.04478884       0.00379143       0.00172338      -0.00515909
N        0.19132420       0.29171210      -0.19086616      -0.09756398       0.00150005      -0.00415622       0.00206943
C       -0.64371710       1.34036430      -0.45486110       0.18993938       0.00344486      -0.00514533      -0.00313660
O       -0.39741738       2.49729856      -0.17933044      -0.31269032      -0.00394461      -0.00365623       0.00409878
C       -1.95216198       0.93325752      -1.10199407      -0.03348850       0.00095799      -0.00000066       0.00401293
C       -2.89905598       0.27901293      -0.08852625      -0.02463163       0.00043319       0.00098453      -0.00312504
S       -2.61056441      -1.48892923       0.19610906      -0.09828697      -0.00273084       0.00466529       0.00212574
C       -3.16725226      -2.12479972      -1.39588223      -0.05697947       0.00072121      -0.00004539       0.00129976
C        2.04148346      -0.87886397       0.78233572      -0.05082481      -0.00006314       0.00381854       0.00627293
C        3.30238324      -0.91117862       1.35189409      -0.04176670       0.00224432       0.00004551      -0.00611979
H        4.99960094       0.24730617       1.97537181       0.04475110      -0.00552971      -0.00242517      -0.00276894
H        3.99060181       2.39291152       1.27381297       0.04421736      -0.00024246      -0.00663554      -0.00478595
H        1.74454802       2.45143053       0.26890521       0.03068410      -0.00183175       0.00364156       0.00334646
H       -0.18395144      -0.63583542      -0.32009638       0.11537299      -0.00500472      -0.00135827       0.00011843
H       -2.40894439       1.83755694      -1.49092976       0.04781634       0.00817511      -0.00046878       0.00034295
H       -1.76563401       0.25464311      -1.93223913       0.04158970       0.00020285       0.00866575       0.00312744
H       -2.80122940       0.78008563       0.87272242       0.03898685       0.00065926       0.00259461      -0.00663388
H       -3.93229212       0.39263894      -0.40818095       0.04296907       0.00021701      -0.00070234       0.00142448
H       -4.18834076      -1.81434568      -1.59948588       0.04168010      -0.00365325      -0.00542103       0.00038716
H       -3.13703102      -3.20908910      -1.33642330       0.04296182       0.00483458      -0.00319283      -0.00159537
H       -2.52051845      -1.80410240      -2.20715050       0.04250751       0.00387116       0.00068280       0.00050156
H        1.49064678      -1.79970038       0.64197265       0.04602911       0.00016782       0.00687603       0.00445981
H        3.72452540      -1.86061769       1.65357939       0.04579447       0.00082131       0.00060992      -0.00167627
