20
Properties=species:S:1:pos:R:3:charge:R:1:forces:R:3 energy=-13025.455670513365 pbc="F F F"
C        3.67900998       0.66499385       0.82135893      -0.05844725      -0.00280934      -0.00027801      -0.00350615
C        3.19507762      -0.45905219       0.31390460      -0.04357471       0.00377166      -0.00466470       0.00466460
C        1.76199383      -0.87477377       0.26409536       0.17284545       0.00354302      -0.00106054      -0.00563668
O        1.47552102      -2.05335118       0.20684628      -0.31822920       0.00010871       0.00045360      -0.00078028
N        0.85535123       0.14767626       0.26333787      -0.09519064       0.00229691      -0.00248742       0.00249347
C       -0.55124335       0.04854422       0.20964574       0.04873849       0.00077390       0.00158405       0.00187407
C       -1.23911850      -1.14997959       0.37558885      -0.05039304       0.00019280       0.00135641       0.00854621
C       -2.62522263      -1.14618674       0.34477685      -0.03799874       0.00155456      -0.00184536      -0.00054133
C       -3.34036551       0.02518139       0.14725542      -0.03998275       0.00074752      -0.00136829      -0.00047953
C       -2.65041741       1.21669464      -0.02411469      -0.03569360      -0.00385854       0.00022080      -0.00054350
C       -1.26654178       1.22799128       0.00721887      -0.04659049      -0.00465515       0.00208310       0.00069589
H        3.06316728       1.41615470       1.29896046       0.04299166      -0.00227594      -0.00679339       0.00103278
H        4.73956487       0.86730753       0.80656361       0.05240251      -0.00731513       0.00589787      -0.00078239
H        3.85670183      -1.21935104      -0.07417136       0.04622861      -0.00010109      -0.00191400      -0.00342285
H        1.23113569       1.07102205       0.15347871       0.14155097       0.00209456       0.00013155       0.00309038
H       -0.69114476      -2.06367563       0.52563230       0.03121722       0.00407220       0.00144302      -0.00091866
H       -3.14867905      -2.08271046       0.47792640       0.04637982       0.00023857      -0.00118906       0.00202334
H       -4.41965962       0.01037041       0.12764467       0.04713924       0.00261277       0.00002415      -0.00451146
H       -3.18736605       2.14230991      -0.18179773       0.04789516       0.00182355       0.00732563      -0.00153713
H       -0.72666584       2.15768916      -0.12289139       0.04871121      -0.00281616       0.00108004      -0.00176067
