25
Properties=species:S:1:pos:R:3:charge:R:1:forces:R:3 energy=-24950.587958844553 pbc="F F F"
O        0.83461473      -1.28453533      -0.29595040      -0.37457073      -0.00557166      -0.00178839      -0.00093180
C        0.80527847      -0.10109327      -0.70992724       0.09438937       0.00530742       0.00171612       0.00323453
C        1.76175748       0.55054898      -1.46941181      -0.24198490       0.00092791      -0.00175551      -0.00385089
C        3.02204622      -0.13266690      -1.82620744      -0.05624579       0.00156538       0.00202786      -0.00001422
N       -0.33221720       0.72028980      -0.34704137      -0.14235207       0.00010990      -0.00328440      -0.00262359
C       -1.53426984       0.33766238       0.19684594       0.05941549       0.00211607      -0.00030874       0.00346319
C       -1.83614644      -0.98403783       0.56330523      -0.06372863      -0.00171863       0.00015876       0.00112342
C       -3.07005475      -1.28499664       1.11403871      -0.05277601      -0.00269200       0.00098966       0.00039629
C       -4.03923044      -0.30989278       1.32438748      -0.08351925      -0.00450942      -0.00151173      -0.00363808
C       -3.74672389       0.99913026       0.96562773      -0.05713844       0.00067674      -0.00185152       0.00002017
C       -2.51820949       1.31811535       0.41247300      -0.07625747      -0.00009555      -0.00212111      -0.00249284
H        1.67887026       1.60457521      -1.71543632       0.01465554       0.00210801       0.00012879       0.00420710
H        2.89729485      -1.21465720      -1.78080140       0.00835255      -0.00441026       0.00411264       0.00246259
H        3.39934202       0.13413071      -2.81438614       0.00071976      -0.00749001       0.00205903      -0.00123961
H       -0.29459722       1.65834204      -0.69974930       0.11425177      -0.00220122      -0.00079257       0.00187073
H       -1.08316158      -1.73569477       0.40222985       0.01433239       0.00179629       0.00464070       0.00119726
H       -3.27546748      -2.31339709       1.38577905       0.01540765       0.00069602       0.00138753      -0.00070168
H       -4.99638806      -0.56458610       1.75592968       0.01668406      -0.00355530       0.00239331       0.00142696
H       -2.29425243       2.34209032       0.13958211       0.01951968      -0.00192988      -0.00149565      -0.00404802
H       -4.47791548       1.78413224       1.11631889       0.01619938       0.00397227      -0.00065567      -0.00126691
S        4.49348216       0.22317313      -0.72558575      -0.19049615      -0.00122022       0.00577215      -0.00670493
C        3.76558158      -0.35365134       0.81027223      -0.08695567       0.00264698      -0.00313072      -0.00032165
H        2.86311442       0.21598666       1.01131434       0.02457074       0.00391743       0.00022720      -0.00229583
H        3.47766950      -1.39616919       0.71697445       0.01911713       0.00236350      -0.00586702       0.00511687
H        4.48639901      -0.23037742       1.61739856       0.00840084       0.00719059      -0.00105100       0.00561079
