25
Properties=species:S:1:pos:R:3:charge:R:1:forces:R:3 energy=-25403.437320084493 pbc="F F F"
C       -4.37020833       1.03353671       0.55403807       0.03399681      -0.00188029       0.00690876      -0.00028878
N       -3.06522227       1.29476526       0.60271119      -0.21920948       0.00236971      -0.00063163       0.00337385
C       -2.22260587       0.34645229       0.20225601       0.10139346       0.00380340       0.00385752      -0.00117434
N       -0.88037598       0.72777519       0.29704226      -0.10662232      -0.00013945      -0.00125239      -0.00519354
C        0.23608540       0.00467720      -0.02958448       0.20413512       0.00055966      -0.00068089       0.00464002
O        0.20662082      -1.12639627      -0.46668924      -0.29128003       0.00478532       0.00328561      -0.00002413
C        1.53366972       0.75735447       0.20876396      -0.03791232      -0.00596189       0.00400979       0.00107668
C        2.73315571      -0.08957237      -0.17281243      -0.03483594      -0.00691015      -0.00063944       0.00166838
S        4.26111365       0.83100300       0.12786103      -0.10982627       0.00587265      -0.00295134      -0.00284214
C        5.44950599      -0.41331544      -0.40974150      -0.05857201      -0.00086682      -0.00042208      -0.00155890
C       -2.63963535      -0.89753351      -0.26353514      -0.05131047       0.00391352       0.00229646      -0.00127056
C       -3.99843292      -1.14365531      -0.30506053      -0.02454943       0.00460994      -0.00198157       0.00017152
C       -4.89304652      -0.16670297       0.10966742      -0.04192346       0.00238316      -0.00274536       0.00084022
H       -5.02164607       1.83173072       0.88933633       0.04558979      -0.00364512       0.00571753       0.00291655
H       -0.76365126       1.66319793       0.65238245       0.14028373      -0.00160623      -0.00405428       0.00111806
H        1.52760681       1.68150276      -0.37307721       0.04495816       0.00118749       0.00485167       0.00047426
H        1.59813550       1.04423708       1.26067917       0.04485186      -0.00378889       0.00122380      -0.00117733
H        2.67464052      -0.36373866      -1.22184237       0.04037162       0.00076965       0.00046493       0.00034225
H        2.74003707      -1.00509692       0.41073059       0.04019880       0.00249611      -0.00432618       0.00091543
H        6.44578817       0.00517457      -0.29391425       0.04422737      -0.00144545      -0.00157814       0.00108816
H        5.29122868      -0.66846485      -1.45431090       0.04334439       0.00307585      -0.00024083      -0.00191194
H        5.36837285      -1.31106937       0.19767467       0.04341087       0.00123962       0.00198743       0.00073961
H       -1.91278186      -1.62568785      -0.57544214       0.03844090      -0.00221652      -0.00522734      -0.00041716
H       -4.35107962      -2.10050027      -0.66235045       0.05300869      -0.00695500      -0.00547510      -0.00151466
H       -5.96046078      -0.32725426       0.09068064       0.05783010      -0.00165028      -0.00239668      -0.00199157
