25
Properties=species:S:1:pos:R:3:charge:R:1:forces:R:3 energy=-25403.444352939863 pbc="F F F"
C       -3.83636905      -1.88385148      -0.01491027       0.03413743      -0.00092944       0.00506246      -0.00099463
N       -2.53576677      -1.75504118       0.24040483      -0.21897617      -0.00176752      -0.00353102      -0.00367011
C       -1.97232730      -0.56710608       0.03530106       0.10173848      -0.00474152      -0.00144497       0.00125748
N       -0.60645325      -0.54715168       0.33534661      -0.10704210      -0.00459231      -0.00087536       0.00193152
C        0.27201598       0.50016033       0.24539836       0.20570414      -0.00158668      -0.00120400      -0.00575567
O       -0.04203853       1.61266097      -0.12247197      -0.29145676      -0.00384871      -0.00061864       0.00444130
C        1.68702712       0.12435022       0.65206260      -0.03554285       0.00311943       0.00208352       0.00211731
C        2.60837272       1.33283944       0.64067149      -0.03228293       0.00583611      -0.00033438       0.00201132
S        4.29660118       0.94678873       1.15696539      -0.11747439      -0.00620136      -0.00092151      -0.00548850
C        4.85743220       0.09507956      -0.32804006      -0.05765677       0.00250592      -0.00208798      -0.00120458
C       -2.67584250       0.54059587      -0.43104956      -0.05121139       0.00017537       0.00240749      -0.00218615
C       -4.02388004       0.38194805      -0.68734460      -0.02445737       0.00009358      -0.00126351       0.00264166
C       -4.62858423      -0.84997396      -0.47923509      -0.04187067      -0.00177375      -0.00015053      -0.00147484
H       -4.25589097      -2.86724840       0.16414005       0.04571202       0.00295481       0.00879388       0.00005616
H       -0.26821110      -1.43731255       0.66355318       0.14055632      -0.00050372      -0.00148235      -0.00565415
H        2.05338337      -0.64586045      -0.03208000       0.04496061      -0.00297896       0.00108849       0.00149594
H        1.66990897      -0.32111724       1.64832101       0.04501211       0.00455512       0.00008828       0.00233838
H        2.22816462       2.08705440       1.32472865       0.03996971       0.00442666       0.00211227      -0.00498144
H        2.62477003       1.77839323      -0.34964119       0.03999981      -0.00086191       0.00172966       0.00675389
H        5.90227883      -0.16120693      -0.17852077       0.04372425       0.00459040       0.00194928      -0.00247881
H        4.77737563       0.74150228      -1.19847357       0.04347282      -0.00382971      -0.00125960       0.00060073
H        4.29856675      -0.81908985      -0.50472202       0.04353538       0.00135521      -0.00191794       0.00635232
H       -2.16771007       1.47638342      -0.57909251       0.03853811       0.00178700       0.00475374       0.00023722
H       -4.59616359       1.22472022      -1.04878080       0.05307519       0.00315986      -0.00491551       0.00006348
H       -5.67984447      -1.00509766      -0.67036922       0.05783499      -0.00094350      -0.00806161       0.00159011
