25
Properties=species:S:1:pos:R:3:charge:R:1:forces:R:3 energy=-24950.58790143618 pbc="F F F"
O       -0.97560477       0.10969366      -1.13623798      -0.37483844       0.00450950      -0.00407909       0.00040010
C       -0.81574944      -0.70018771      -0.19218579       0.09455021      -0.00132248       0.00227727       0.00251357
C       -1.69616635      -1.67684633       0.24078988      -0.24217027       0.00099345       0.00093888       0.00120069
C       -3.02759365      -1.81121155      -0.38489400      -0.05625475       0.00338537       0.00122405       0.00331130
N        0.40900851      -0.61720626       0.57805107      -0.14227080       0.00120562       0.00099988       0.00014375
C        1.56190720       0.07444252       0.29720203       0.05929234       0.00047173       0.00294249       0.00102327
C        1.71635957       0.90626069      -0.82375024      -0.06360127      -0.00021410      -0.00065477      -0.00067150
C        2.91099616       1.57449270      -1.03080320      -0.05276071       0.00233256      -0.00405087       0.00019110
C        3.98165090       1.45587331      -0.15102812      -0.08348949       0.00727306      -0.00342699      -0.00506999
C        3.83513616       0.63647127       0.96021821      -0.05710442       0.00340056      -0.00381779      -0.00693085
C        2.64924383      -0.04322305       1.18024381      -0.07628596       0.00221122       0.00118735       0.00029422
H       -1.49604658      -2.27899532       1.12168026       0.01466355      -0.00199096       0.00143400      -0.00049625
H       -3.37518332      -2.84310430      -0.45423915       0.00069155       0.00419948       0.00528234      -0.00355191
H       -3.02613113      -1.37415401      -1.38360482       0.00828206      -0.00152453      -0.00418502       0.00413351
H        0.47231914      -1.28012755       1.32786634       0.11421813       0.00148698       0.00042972      -0.00328606
H        0.88410566       1.00012119      -1.49917925       0.01422883      -0.00473167      -0.00102028       0.00039480
H        3.00407540       2.20417006      -1.90756110       0.01542126      -0.00585724       0.00155753       0.00771914
H        4.64947288       0.52032669       1.66520221       0.01620740      -0.00654909       0.00021081       0.00111849
H        2.54102352      -0.68008763       2.04958129       0.01954619      -0.00031345      -0.00097163       0.00024208
H        4.90569190       1.98655974      -0.32882577       0.01667990       0.00581563       0.00286976       0.00186717
S       -4.44374347      -0.96855076       0.50269334      -0.19023356       0.00088478      -0.00031474      -0.00242572
C       -3.77780942       0.69771148       0.45014145      -0.08688669      -0.00406351       0.00368338       0.00254568
H       -2.81201649       0.70784414       0.94627456       0.02470808       0.00046722       0.00133966       0.00204142
H       -4.47081118       1.37822094       0.94359644       0.00838645      -0.00576491      -0.00494701      -0.00237834
H       -3.61731667       1.00392321      -0.57897218       0.01901150      -0.00630508       0.00109048      -0.00432980
