38
Properties=species:S:1:pos:R:3:charge:R:1:forces:R:3 energy=-29248.536437435483 pbc="F F F"
C       -3.72775999       2.21826392       1.08844297      -0.04394151      -0.00103433      -0.00005426       0.00115435
C       -2.40461521       2.56939844       0.86195810      -0.04034228       0.00074342      -0.00179711       0.00189591
C       -1.57522861       1.72835687       0.13607324      -0.03464192      -0.00152787       0.00027697      -0.00033488
C       -2.03962343       0.51395288      -0.36875814      -0.01242004       0.00069353      -0.00059335      -0.00279166
C       -1.08664724      -0.38816856      -1.15431083       0.07217146       0.00179993       0.00120269       0.00009306
N        0.07651463      -0.58807151      -0.27880718      -0.11686403       0.00037115      -0.00063968       0.00237874
C        1.22135672      -1.21643487      -0.61763309       0.18403229       0.00026717      -0.00193986      -0.00562546
O        1.42572440      -1.72724187      -1.70649108      -0.30581063       0.00134066      -0.00449844       0.00012840
C        2.28620246      -1.24653626       0.47584756      -0.01031176      -0.00416890      -0.00061702       0.00059842
C        2.98002944      -2.60490559       0.49084515      -0.06980252      -0.00167460       0.00040418       0.00036340
C        3.30238061      -0.12546975       0.20922824      -0.03382208      -0.00055694      -0.00517804       0.00040844
S        2.68538902       1.55084736       0.47805979      -0.11142237       0.00004279       0.00529227       0.00121445
C        2.69107606       1.57521261       2.28148635      -0.05795837       0.00092579      -0.00104290      -0.00311053
C       -0.67205293       0.31385101      -2.45708286      -0.07966663       0.00013602       0.00099911       0.00181085
C       -1.68411249      -1.75715183      -1.48269624      -0.07728940       0.00126712       0.00174935      -0.00022893
C       -3.36759004       0.17840601      -0.14109578      -0.04813843      -0.00073970       0.00141899       0.00072661
C       -4.20461521       1.02163350       0.58056629      -0.04065452      -0.00055728      -0.00152757      -0.00206447
H       -4.37613801       2.87187896       1.65187941       0.04418352       0.00206307       0.00089286      -0.00033277
H       -2.01831852       3.50291681       1.24595769       0.04572111      -0.00042142       0.00045708       0.00173102
H       -0.55377555       2.02685154      -0.05331663       0.03175763      -0.00379027       0.00107446      -0.00017846
H        0.06053776      -0.06480997       0.57690305       0.11441936      -0.00176991      -0.00122606       0.00235128
H        1.81201971      -1.06623961       1.44283932       0.03932868      -0.00089768      -0.00158391       0.00434508
H        3.70743856      -2.64580871       1.29977190       0.03570316       0.00165152       0.00049802       0.00092747
H        3.49245232      -2.77948843      -0.45132624       0.02931011       0.00064322       0.00097608       0.00097656
H        2.25816133      -3.40638263       0.63192576       0.03425124      -0.00243558       0.00390356      -0.00100169
H        3.64184215      -0.17973318      -0.82290337       0.03364548       0.00392637      -0.00003425      -0.00192022
H        4.17079446      -0.26272432       0.85112823       0.03950027       0.00199134       0.00103409       0.00054238
H        2.00148160       0.84606327       2.69719517       0.04055347       0.00179886       0.00075384      -0.00175319
H        3.68973947       1.38735069       2.66589183       0.04136891       0.00064022      -0.00055220      -0.00009549
H        2.37657837       2.56796074       2.59085368       0.04243442       0.00042546       0.00123312      -0.00165591
H        0.01686893      -0.31269195      -3.01225361       0.02323387      -0.00011390       0.00170097       0.00219130
H       -1.55159895       0.50978429      -3.06689753       0.03231948       0.00101509       0.00153119       0.00138364
H       -0.17670128       1.25763208      -2.24009865       0.02973027      -0.00219855      -0.00095365      -0.00185193
H       -1.96248755      -2.27442601      -0.56676068       0.02992030      -0.00356404      -0.00064526       0.00134871
H       -0.94547347      -2.35417219      -2.00901558       0.02397196       0.00021212      -0.00267032      -0.00004932
H       -2.56190777      -1.65115615      -2.11618151       0.03369270       0.00288604      -0.00005151      -0.00324364
H       -3.75798733      -0.75069313      -0.52504241       0.03687844       0.00181399       0.00165126      -0.00301000
H       -5.23400149       0.73474854       0.74205287       0.04495826      -0.00120429      -0.00144476       0.00267830
