28
Properties=species:S:1:pos:R:3:charge:R:1:forces:R:3 energy=-26020.97040111168 pbc="F F F"
O       -0.33957550       2.00252801      -1.32406310      -0.41087401       0.00458580      -0.00198658       0.00061125
C       -0.71695198       0.88670726      -0.91453857       0.09037793      -0.00359418       0.00226776       0.00053149
C       -1.94818154       0.29505094      -1.18344132      -0.25494564      -0.00140565       0.00011160      -0.00041197
C       -2.42640825      -1.05520473      -0.80100607      -0.00933196       0.00104678       0.00203403      -0.00249995
C       -1.64262708      -2.23953901      -1.37588139      -0.08437282       0.00012146      -0.00287705       0.00227924
N        0.16250073       0.12652866      -0.06007364      -0.13861150      -0.00541634       0.00711828       0.00009623
C        1.44685209       0.42128899       0.33016278       0.06500739      -0.00393886      -0.00192951      -0.00142625
C        2.20939163       1.44522728      -0.25409133      -0.06817366      -0.00306554      -0.00291867      -0.00102991
C        3.51916780       1.64885483       0.14526982      -0.05705273      -0.00271266       0.00166543      -0.00273626
C        4.11564196       0.87480556       1.13389816      -0.07904238       0.00386395       0.00154932      -0.00443541
C        3.36257378      -0.12703299       1.72923867      -0.05858099       0.00201026       0.00141280       0.00014177
C        2.05391871      -0.34974989       1.33927564      -0.07156824      -0.00019230      -0.00102052      -0.00148349
H       -2.64787432       0.95958035      -1.66454865       0.00304588      -0.00186638      -0.00070860       0.00461689
H       -3.46863507      -1.14813093      -1.11108369       0.00677618       0.00227007       0.00137699      -0.00261555
H       -0.59542011      -2.20924758      -1.08681225       0.01720145       0.00153899       0.00042766       0.00349822
H       -2.07017793      -3.18600037      -1.04405592       0.00934076      -0.00439223      -0.00618142      -0.00067682
H       -1.68049919      -2.19383492      -2.46483667       0.01431940       0.00327504       0.00242170       0.00145049
H       -0.29880579      -0.61039107       0.45136605       0.09043711       0.00461894       0.00113587      -0.00540355
H        1.73547438       2.05403926      -1.00500226       0.01461054       0.00138705      -0.00327190      -0.00085445
H        4.08436844       2.43932729      -0.33425947       0.01650684       0.00318664       0.00151547       0.00143588
H        5.13995409       1.04898018       1.43078895       0.01795566       0.00432324       0.00340415       0.00390511
H        3.79323704      -0.74780576       2.50622476       0.01784559      -0.00135782      -0.00194236       0.00472079
H        1.48265552      -1.13447900       1.81750207       0.02738326      -0.00287175      -0.00188836      -0.00137768
S       -2.55214682      -1.35095537       1.06343136      -0.14061899      -0.00445002       0.00063488      -0.00035718
C       -3.09796814       0.28390366       1.58745807      -0.08557724      -0.00100532       0.00154945       0.00321036
H       -2.28319947       0.99100934       1.46142759       0.03056949       0.00170111      -0.00385845       0.00213309
H       -3.92853660       0.60126558       0.96474065       0.02393301       0.00013536       0.00234573       0.00242903
H       -3.40920591       0.25146422       2.63106576       0.01343089       0.00220283      -0.00238816      -0.00575149
