29
Properties=species:S:1:pos:R:3:charge:R:1:forces:R:3 energy=-26037.015437659495 pbc="F F F"
C       -4.32593432       1.53809768       0.44620554      -0.04575660       0.00208345       0.00158270       0.00217129
C       -3.72610221       1.60540915      -0.80215983      -0.04307286       0.00092162       0.00080536       0.00048410
C       -2.52036857       0.97159165      -1.05909922      -0.05484784       0.00203016      -0.00047130       0.00118921
C       -1.90109147       0.25201430      -0.04077985       0.04487485       0.00174742      -0.00262187      -0.00170307
N       -0.68705637      -0.43785814      -0.21383885      -0.09740600      -0.00016409      -0.00379578      -0.00265104
C        0.15016553      -0.41295697      -1.29316871       0.18957894       0.00089184       0.00007801       0.00159896
O       -0.02875422       0.26877763      -2.28267517      -0.31148520       0.00535787       0.00303068       0.00437385
C        1.37136353      -1.30672713      -1.16085112      -0.03794782      -0.00295306       0.00149100      -0.00595100
C        2.42460468      -0.73575074      -0.19862617       0.00253090      -0.00585539      -0.00289977      -0.00146369
S        2.00903255      -1.17403477       1.52698364      -0.09268643       0.00555416      -0.00226466       0.00373717
C        2.41401368       0.37720004       2.35301457      -0.05773541      -0.00320816      -0.00194802      -0.00239692
C        3.81468135      -1.24798924      -0.55829970      -0.06870122      -0.00331814      -0.00128969       0.00265510
C       -2.50008890       0.18493074       1.21706053      -0.05063643       0.00549533       0.00262057       0.00048189
C       -3.70424598       0.82198024       1.45827151      -0.04178238       0.00294013      -0.00193545       0.00080447
H       -5.26539665       2.03874982       0.62774448       0.04484053      -0.00114392      -0.00179510       0.00053248
H       -4.19973336       2.16274856      -1.59852348       0.04429252      -0.00139188      -0.00347257      -0.00209974
H       -2.05982271       1.03068077      -2.02937285       0.03062688      -0.00084907       0.00088915       0.00108309
H       -0.36408967      -0.93915463       0.59899660       0.11417628       0.00073816       0.00213437       0.00137941
H        1.79834324      -1.37258393      -2.15717142       0.04262020       0.00157130      -0.00051791      -0.00340926
H        1.10099604      -2.31258120      -0.83659953       0.03800217       0.00150065       0.00500708      -0.00214388
H        2.40624487       0.35072547      -0.26952799       0.04046387       0.00051075      -0.00360488      -0.00062072
H        3.45318761       0.64963316       2.19424985       0.04096549      -0.00699840      -0.00015618      -0.00359819
H        1.76885893       1.17533754       1.99789995       0.03820462       0.00169746       0.00036816       0.00154233
H        2.24959162       0.23365333       3.41748146       0.04268636      -0.00466991       0.00260952      -0.00371700
H        3.84575639      -2.33715643      -0.52209477       0.02933434       0.00290929      -0.00149628      -0.00095867
H        4.56634303      -0.85966931       0.12395645       0.03182565      -0.00247854       0.00276579       0.00065040
H        4.07030988      -0.93764065      -1.57042534       0.03749458      -0.00164600       0.00018931       0.00458851
H       -2.01571320      -0.36979471       2.00983729       0.04369442      -0.00031678       0.00222288       0.00275178
H       -4.15365679       0.75554258       2.44006763       0.04584537      -0.00095670       0.00247475       0.00068855
