60
Properties=species:S:1:pos:R:3:charge:R:1:forces:R:3 energy=-64776.277894230196 pbc="F F F"
C       -0.24499763       2.14909303       1.07113918       0.03674972      -0.00206370       0.00349765       0.00167553
N        0.34835475       1.13000345       0.45017611      -0.18845855      -0.00760608      -0.00081361      -0.00219387
C       -0.46255552       0.14114376       0.10172148       0.16366419      -0.00221338       0.00130410      -0.00376976
N        0.02941993      -0.96263436      -0.53584023      -0.13109988       0.00299215      -0.00050743       0.00603220
C        1.35539399      -1.35209104      -0.75606072       0.03510888      -0.00105497      -0.00135955       0.00132107
C        2.44722805      -0.50806367      -0.74177649      -0.06158286      -0.00278923      -0.00198550      -0.00233967
C        3.73577238      -1.00237454      -0.97915786       0.05361872      -0.00207189       0.00037384      -0.00284084
N        4.78380272      -0.06199853      -0.92212511      -0.09119897      -0.00307981      -0.00024674      -0.00307549
C        6.11681528      -0.27112698      -1.13429613       0.20358965      -0.00182999       0.00590076      -0.00478299
O        6.59971361      -1.34327077      -1.43823753      -0.29802993       0.00297643      -0.00007875       0.00125359
C        6.95973429       0.98408760      -0.95418169      -0.03709781      -0.00188471       0.00253574       0.00134000
C        8.43070087       0.71221157      -1.21500004      -0.03400503      -0.00243167       0.00129257       0.00235829
S        9.47128977       2.17774718      -1.02200278      -0.12487967      -0.00311149       0.00245829       0.00080903
C        9.47044923       2.29887559       0.77584737      -0.05947960       0.00005273      -0.00081292       0.00113545
C        3.92765343      -2.34270515      -1.24447506      -0.04556221      -0.00070365       0.00226136      -0.00384578
C        2.82322870      -3.19319131      -1.27209895      -0.05136655      -0.00108094       0.00287106      -0.00101930
C        1.55443817      -2.71901509      -1.03870100       0.05709609      -0.00220537      -0.00019419      -0.00019573
O        0.40817313      -3.47409383      -1.06659450      -0.14428738      -0.00115739      -0.00291887       0.00142337
C        0.55668322      -4.87627974      -1.20859269       0.02670739       0.00053046      -0.00353750      -0.00290536
N       -1.78589723       0.06565588       0.30647893      -0.20372751       0.00128142      -0.00723419       0.00523360
C       -2.37329472       1.08065360       0.91340362       0.12173924       0.00471779      -0.00334501       0.00368532
N       -3.71571286       1.08325714       1.12059704      -0.11070965       0.00409662      -0.00103370      -0.00691706
C       -4.60607650       0.02008218       1.02914674       0.05132586       0.00079720       0.00149533       0.00431182
C       -4.20141569      -1.31276084       1.11144873      -0.04354261       0.00112941       0.00012460       0.00437773
C       -5.13274751      -2.32981380       1.03038736      -0.03619873      -0.00214027       0.00245585       0.00382853
C       -6.48681155      -2.05378112       0.88812220      -0.03503159      -0.00266238       0.00332783      -0.00574357
C       -6.89600378      -0.73944740       0.82966153      -0.03327578      -0.00106108       0.00213053       0.00251727
C       -5.98211961       0.31010976       0.89831661      -0.03422615      -0.00070091       0.00060761      -0.00274335
C       -6.45682715       1.72219740       0.86445164       0.17742662      -0.00227114      -0.00170290      -0.00224868
O       -5.82903746       2.66592123       1.31336658      -0.27978593       0.00180028      -0.00734590       0.00007339
N       -7.70710519       1.89182738       0.31246250      -0.07064845       0.00036568      -0.00096468      -0.00092865
O       -8.06688390       3.19301262      -0.00930472      -0.14572610       0.00212881      -0.00230534      -0.00263791
C       -8.69908739       3.80038194       1.11970884       0.01311393       0.00366940       0.00110405      -0.00234802
C       -1.58844209       2.18510078       1.32657927      -0.01240754      -0.00199098       0.00548086      -0.00466802
Cl      -2.29181122       3.55435381       2.12785639      -0.05128491       0.00262637       0.00281025       0.00279191
H        0.38785957       2.97284917       1.37625956       0.05462945       0.00249557       0.00278822       0.00198557
H       -0.65890284      -1.67921677      -0.70684558       0.10608111       0.00399425       0.00729312       0.00519720
H        2.29238038       0.54030666      -0.54438185       0.03209951       0.00138504      -0.00432750       0.00263312
H        4.48828361       0.87209696      -0.70119897       0.15434365      -0.00209538      -0.00287939       0.00722802
H        6.81437892       1.36171285       0.06116603       0.04448614      -0.00319155      -0.00199773       0.00314838
H        6.59855157       1.75808422      -1.63426011       0.04516653       0.00131364       0.00060630      -0.00174355
H        8.78661606      -0.07107015      -0.55210471       0.03898752       0.00012024      -0.00057296      -0.00184877
H        8.56519386       0.35679487      -2.23313897       0.03899164       0.00099861      -0.00092699       0.00372037
H        8.48254411       2.52410343       1.16683671       0.04313586      -0.00012602       0.00330512      -0.00459409
H        9.83551949       1.37860646       1.22518192       0.04257785       0.00097177      -0.00191747      -0.00326944
H       10.14296623       3.10864146       1.04438774       0.04274019      -0.00175347      -0.00101395       0.00088457
H        4.91267516      -2.72765769      -1.42964813       0.03436016      -0.00054020      -0.00189148       0.00224762
H        2.99012679      -4.23560705      -1.48491279       0.04782023      -0.00503827       0.00382845       0.00139902
H        0.98537653      -5.13174680      -2.17833502       0.04314272       0.00555582      -0.00199584      -0.00189004
H        1.17764394      -5.28963206      -0.41258738       0.04207004      -0.00294151      -0.00458667      -0.00135074
H       -0.44398840      -5.28845240      -1.13765490       0.04503698       0.00075281      -0.00497217      -0.00238529
H       -4.17574695       1.96871835       1.33375883       0.10292134       0.00049989      -0.00386734      -0.00435371
H       -3.16378950      -1.54264181       1.25836432       0.03167450       0.00618665       0.00074238       0.00107843
H       -4.79012105      -3.35344997       1.08699362       0.04767283       0.00037542       0.00089366       0.00029961
H       -7.21089001      -2.85332855       0.83308170       0.04992532       0.00452520      -0.00272493      -0.00217801
H       -7.95110556      -0.51575236       0.76703545       0.04510681       0.00315177       0.00449200       0.00287386
H       -7.96385670       1.27124649      -0.43989728       0.12901971       0.00175409       0.00009189      -0.00149069
H       -8.02250698       3.83547067       1.96966955       0.03535969       0.00417611      -0.00243671       0.00390647
H       -8.93917308       4.80921598       0.80111615       0.04429151      -0.00223553       0.00526890       0.00068123
H       -9.60286095       3.25083182       1.37700912       0.04183189      -0.00339085       0.00115457      -0.00114317
