49
Properties=species:S:1:pos:R:3:charge:R:1:forces:R:3 energy=-47670.547277776735 pbc="F F F"
C        7.27039564       2.38640698      -1.77758333      -0.00307575      -0.00185703      -0.00080561       0.00204497
N        6.62430850       1.45167795      -0.87937256      -0.10152881       0.00031808       0.00363018      -0.00211406
C        5.53718454       0.73225389      -1.23452262       0.19066416       0.00297109       0.00291090       0.00288825
C        5.01005892      -0.21196573      -0.19979740      -0.03329157       0.00455803      -0.00451520      -0.00663600
C        3.65613474      -0.60897852      -0.21171980       0.05102301       0.00355626      -0.00141030       0.00277624
N        2.82767617      -0.09133393      -1.20415988      -0.11145715       0.00376146      -0.00312736       0.00116614
C        1.47473590      -0.01048341      -1.22250119       0.12148601       0.00216061      -0.00125989       0.00128351
C        0.80197614       0.32748127      -2.42208039      -0.01267200       0.00298104      -0.00937374      -0.00005969
Cl       1.66812753       0.62730112      -3.89523773      -0.05169215       0.00146638      -0.00232268       0.00417946
C       -0.56308709       0.41581498      -2.38761594       0.03735018       0.00317212       0.00489226      -0.00163860
N       -1.27232846       0.21072882      -1.27919660      -0.18519942       0.00305669       0.00293077      -0.00203012
C       -0.56229870      -0.08682653      -0.20003031       0.16594407      -0.00239534      -0.00494515      -0.00200585
N       -1.18576595      -0.29928651       0.99986482      -0.11968225      -0.00188954      -0.00676114      -0.00125941
C       -2.54523883      -0.40953777       1.31210694       0.05048182      -0.00109176       0.00464786      -0.00064807
C       -2.87203521      -0.89763874       2.58220327      -0.04805056       0.00057570       0.00263571      -0.00158696
C       -4.19632886      -1.01196155       2.95246518      -0.03602583       0.00272343       0.00622302       0.00421245
C       -5.22871488      -0.65309354       2.10071598      -0.05074500       0.00116513      -0.00083115       0.00258842
C       -4.89647363      -0.17245083       0.84343310       0.05174965      -0.00057293       0.00250944       0.00262731
N       -5.86307527       0.19573248      -0.11113614      -0.09764986      -0.00007517      -0.00278526      -0.00115532
C       -7.20734622       0.34124143       0.07524732       0.16988298      -0.00034600       0.00110339      -0.00057163
C       -7.96405198       0.72121546      -1.15485400      -0.04874256      -0.00309732      -0.00403781      -0.00028128
C       -7.67630277       0.33278798      -2.38720119      -0.06417604      -0.00032220       0.00102571      -0.00142602
O       -7.78868415       0.21282929       1.13269767      -0.32335442       0.00089020       0.00000240      -0.00270463
C       -3.56304578      -0.04774436       0.44554363      -0.06790031      -0.00133276      -0.00106247      -0.00315645
N        0.76985286      -0.22005125      -0.12253529      -0.20456088      -0.00178606       0.00298645      -0.00156449
C        3.20736198      -1.53686923       0.72684820      -0.04335833       0.00158276      -0.00283915       0.00197126
C        4.07216164      -2.02777952       1.68691941      -0.03593685       0.00179205      -0.00387286       0.00147067
C        5.40094271      -1.62822108       1.72431648      -0.03442624      -0.00133210       0.00104239      -0.00224150
C        5.85580616      -0.73699709       0.77415094      -0.03087423      -0.00260099       0.00171242      -0.00083514
O        5.02226073       0.84549174      -2.34551962      -0.29384094       0.00184290       0.00492869       0.00421884
H        7.10906896       3.41454205      -1.45955110       0.04641288      -0.00162927      -0.00460032      -0.00479170
H        8.33779814       2.18469252      -1.82455188       0.04583704      -0.00548671       0.00667635      -0.00245481
H        6.84197135       2.25423205      -2.76461854       0.03104345       0.00206921       0.00489884       0.00605479
H        6.90405364       1.42886444       0.08239402       0.13385871      -0.00074725       0.00505462      -0.00588645
H        3.35160575       0.31104243      -1.97978573       0.10187449      -0.00081677       0.00228389      -0.00096984
H       -1.11576490       0.66267935      -3.28546206       0.05485941       0.00058050      -0.00141843      -0.00421872
H       -0.54624270      -0.49106716       1.75043238       0.13046944      -0.00273269      -0.00066987       0.00167811
H       -2.08442605      -1.18164618       3.26715687       0.05044923      -0.00225216      -0.00007784      -0.00017599
H       -4.44217074      -1.38880216       3.93554955       0.04855545      -0.00168141      -0.00535391      -0.00096922
H       -6.25953667      -0.73609203       2.39201599       0.03275361       0.00122194       0.00058484       0.00409773
H       -5.50655959       0.47959036      -1.00456449       0.14128791      -0.00499505       0.00528015       0.00010478
H       -8.83283339       1.32430739      -0.93782726       0.04592998       0.00074396      -0.00063531       0.00050881
H       -6.85297712      -0.33440377      -2.61011777       0.04111661      -0.00206584       0.00033252       0.00124891
H       -8.27236992       0.64703630      -3.23046907       0.05123506      -0.00133620      -0.00043365       0.00000192
H       -3.32340545       0.32651764      -0.53666313       0.02933335       0.00372661       0.00636581       0.00050199
H        2.19283684      -1.88352013       0.68472517       0.03205659       0.00054177      -0.00112778       0.00254986
H        3.69663816      -2.73940065       2.40835524       0.04770976      -0.00097731       0.00181296       0.00558091
H        6.07425517      -2.01449600       2.47544158       0.04994990      -0.00124009      -0.00344548      -0.00532370
H        6.90383844      -0.47463832       0.76272989       0.04492640      -0.00279913      -0.00875968       0.00294965
