31
Properties=species:S:1:pos:R:3:charge:R:1:forces:R:3 energy=-17743.659055784945 pbc="F F F"
C       -0.48033967       1.00531609      -1.05156299      -0.05092216       0.00029113       0.00187963      -0.00010529
C        0.93602062       1.13604525      -0.61091484       0.17547989       0.00033795      -0.00289460      -0.00908574
O        1.51783270       2.19722952      -0.71176562      -0.32279474      -0.00291030       0.00645504      -0.00096162
N        1.50764716      -0.00645389      -0.11524297      -0.09924973      -0.00164401       0.00037386      -0.00206104
C        2.82369824      -0.17046049       0.36702310       0.04779434      -0.00393744       0.00143188       0.00430925
C        3.65093757       0.89906856       0.69672672      -0.05158265       0.00113618      -0.00417900       0.00475670
C        4.91132264       0.64346513       1.21448587      -0.03937878       0.00054682      -0.00335748       0.00281333
C        5.36847788      -0.65276071       1.39938203      -0.04136711      -0.00294886      -0.00357180       0.00108959
H        6.35261681      -0.83247839       1.80544441       0.04664831      -0.00096898       0.00365520      -0.00706286
C        4.54480518      -1.71514069       1.05682444      -0.03712197      -0.00087480      -0.00073213      -0.00219698
H        4.88218062      -2.73474745       1.18708165       0.04742796       0.00462009       0.00074580       0.00341515
C        3.28139343      -1.47547431       0.54435506      -0.04825545       0.00072683       0.00264565       0.00153884
C       -1.33145785       0.04017320      -0.73109008      -0.02533390       0.00140147       0.00197293       0.00230060
C       -2.72770296      -0.01560388      -1.25770924       0.01469329       0.00176271       0.00065695      -0.00016294
N       -3.72597193       0.14783497      -0.21103398      -0.18355744       0.00221600       0.00809766       0.00410048
C       -5.02177784       0.42368969      -0.80476562      -0.01540888      -0.00162826      -0.00059726      -0.00104082
C       -3.80654028      -1.00329949       0.67228839      -0.01621327       0.00194327       0.00063676      -0.00043652
H       -0.79981167       1.84267695      -1.65585815       0.04274359       0.00100742       0.00072282      -0.00214194
H        0.97948118      -0.85132271      -0.22460964       0.13997465      -0.00263277      -0.00117757      -0.00194483
H        3.30920728       1.90784803       0.54753010       0.03136475      -0.00120008      -0.00716902       0.00236601
H        5.54398057       1.48033927       1.47640058       0.04587983      -0.00078878       0.00046808      -0.00232272
H        2.63806142      -2.30480131       0.27683989       0.04851070       0.00739247       0.00094143       0.00559028
H       -1.04095776      -0.73506930      -0.03105444       0.03727277      -0.00351704      -0.00013939       0.00270370
H       -2.87377894      -0.96822312      -1.79036556       0.03256702       0.00048123      -0.00097365      -0.00285150
H       -2.85442787       0.78320635      -1.98746014       0.03085408      -0.00036121      -0.00006886      -0.00065041
H       -4.95328553       1.32589737      -1.40819310       0.03085195      -0.00176514       0.00111430       0.00143438
H       -5.37989027      -0.39401372      -1.44656853       0.03218758      -0.00414917      -0.00297510      -0.00113554
H       -5.75317093       0.58935013      -0.01687063       0.03212993      -0.00106083       0.00203014       0.00019760
H       -4.58035685      -0.82035601       1.41425792       0.03193621       0.00198751      -0.00108486       0.00086114
H       -2.86925341      -1.15581585       1.20308051       0.02968188       0.00344805      -0.00298131      -0.00141979
H       -4.05324306      -1.92907777       0.13479309       0.03318729       0.00108835      -0.00192591      -0.00189688
