37
Properties=species:S:1:pos:R:3:charge:R:1:forces:R:3 energy=-29684.621936028685 pbc="F F F"
C        4.88638190       0.18112823       1.57589926      -0.04461849       0.00068830      -0.00033458       0.00223069
C        3.64490661       0.74425122       1.33571598      -0.05418926       0.00436046      -0.00169995      -0.00098776
C        2.83148940       0.25468119       0.31502723       0.04421056      -0.00058619      -0.00080740       0.00109604
N        1.57812837       0.87181394       0.12876895      -0.09416288      -0.00236434       0.00033917       0.00085863
C        0.70611404       0.73170578      -0.91540938       0.20528343       0.00205853       0.00445643      -0.00193587
O        0.85805120      -0.04699490      -1.83445793      -0.30243731      -0.00054740      -0.00033373      -0.00482997
C       -0.53515132       1.59229422      -0.82495517      -0.03683559       0.00224961       0.00033007      -0.00130838
C       -1.75729439       0.67945150      -0.73801532      -0.01047853       0.00174217      -0.00244483      -0.00027772
S       -3.32300264       1.59247537      -0.65719862      -0.12382290       0.00071440       0.00732237      -0.00092751
C       -3.23117247       2.47260823      -2.23039521      -0.06290460      -0.00186659       0.00225892       0.00390779
C       -1.66087688      -0.18846277       0.50861754       0.01076679       0.00067845       0.00013198      -0.00200125
N       -2.82268346      -1.03837045       0.69926563      -0.18310156       0.00110820       0.00145238       0.00076315
C       -2.89956643      -1.54323266       2.05481118      -0.01908519      -0.00019182      -0.00631504      -0.00277277
C       -2.88671451      -2.13324920      -0.25614536      -0.02134607       0.00468458       0.00390312      -0.00665555
C        3.26911649      -0.81353600      -0.46132512      -0.05641570       0.00332758      -0.00053651      -0.00142909
C        4.51325100      -1.37173455      -0.20700330      -0.04554532      -0.00143849       0.00085607       0.00100108
H        4.84314707      -2.20157130      -0.81596848       0.04325379      -0.00219905      -0.00090107      -0.00083777
C        5.32806325      -0.88329106       0.80303486      -0.04860916      -0.00095585      -0.00355501       0.00018450
H        6.29637661      -1.32494765       0.98722629       0.04359653      -0.00277962      -0.00306256      -0.00179151
H        5.50563220       0.57916898       2.36803674       0.04457864      -0.00823693      -0.00002005       0.00021851
H        3.30359973       1.57186034       1.94388254       0.04723591       0.00144747       0.00140874      -0.00180972
H        1.35138631       1.56320073       0.82013535       0.14813286      -0.00310528      -0.00467918       0.00358954
H       -0.51172204       2.27290011       0.02716957       0.04504887      -0.00168456      -0.00259100      -0.00318125
H       -0.58908888       2.18691310      -1.73542933       0.04418830      -0.00051239      -0.00145140       0.00129145
H       -1.77417647       0.05528712      -1.62856275       0.03662004       0.00393707       0.00205246       0.00215429
H       -4.23113613       2.83915472      -2.45145111       0.04210476      -0.00715325      -0.00184620       0.00138679
H       -2.92235192       1.80441212      -3.02820532       0.03977703      -0.00491341      -0.00711832      -0.00310793
H       -2.55418410       3.31952702      -2.18420185       0.04385641      -0.00306521      -0.00015406      -0.00073633
H       -1.56516226       0.48251435       1.36610944       0.02843275       0.00300881       0.00252055       0.00380218
H       -0.74421510      -0.79329639       0.46815167       0.02868531       0.00216077       0.00073255       0.00031296
H       -2.06840418      -2.21621618       2.31422874       0.03012478       0.00510324      -0.00156650       0.00337965
H       -3.83229626      -2.08912758       2.17632058       0.03004628      -0.00563969      -0.00215897      -0.00162211
H       -2.90049174      -0.71192005       2.75645825       0.03065435      -0.00259853       0.00747307      -0.00070153
H       -2.96850739      -1.75721051      -1.27297563       0.02538940       0.00323285       0.00219507       0.00408717
H       -3.77477967      -2.72718472      -0.05092227       0.03094658       0.00552684       0.00229554       0.00200976
H       -2.00730955      -2.79140668      -0.20338164       0.03110033      -0.00147970      -0.00011083      -0.00045737
H        2.64083024      -1.19143880      -1.24925347       0.02951878       0.00528890       0.00195871       0.00509693
