75
Properties=species:S:1:pos:R:3:charge:R:1:forces:R:3 energy=-71604.3629230514 pbc="F F F"
C        4.51801255      -4.09485562      -0.68113780       0.02703582      -0.00080304      -0.00312607      -0.00080784
N        3.46484580      -4.36710903      -1.44669092      -0.22397514      -0.00057903       0.00053737      -0.00012760
C        2.67488681      -3.32170278      -1.70480644       0.16023770       0.00044698       0.00274346       0.00325919
N        1.56407908      -3.61698450      -2.45084452      -0.13314325       0.00148028       0.00011532       0.00115292
C        0.42641076      -2.84609874      -2.70637424       0.02975284      -0.00086568       0.00011342       0.00204486
C        0.13729282      -1.64393313      -2.07836709      -0.06483302      -0.00456191       0.00299929      -0.00217650
C       -1.06727092      -0.99126951      -2.35596531       0.05327940      -0.00559132       0.00118989       0.00532175
N       -1.43611492       0.20274237      -1.69383661      -0.09769227       0.00267666       0.00052639       0.00162469
C       -0.91012913       0.75476192      -0.56157587       0.21252334      -0.00146215      -0.00225875       0.00070859
O        0.09157832       0.36636695      -0.00575359      -0.24681157      -0.00084895      -0.00131714      -0.00283708
C       -1.66978346       2.00639570      -0.11983358      -0.00565995      -0.00046700      -0.00477590       0.00077793
C       -0.90557156       2.79368975       0.94512188      -0.03032902      -0.00388973      -0.00020901      -0.00067100
S       -0.54506741       1.95500889       2.51893408      -0.07211310      -0.00063657      -0.00257316      -0.00740357
C       -1.24852296       3.14019926       3.66255958      -0.06035761       0.00022856      -0.00187267       0.00025509
C       -3.16495712       1.82202313       0.18520403       0.01619040      -0.00090791       0.00046499       0.00121088
N       -3.47135380       1.19606212       1.44878787      -0.15601823       0.00076781      -0.00491127       0.00036446
C       -4.86755017       1.40457330       1.80994302       0.01342600       0.00215037      -0.00163067      -0.00082704
C       -5.15676714       0.76704164       3.15847928       0.03222185      -0.00029651      -0.00195301       0.00026781
O       -4.84964865      -0.61350975       3.15740404      -0.22721934       0.00352618      -0.00151794       0.00377043
C       -3.48862448      -0.81591632       2.82208021       0.03238127      -0.00061737       0.00055872      -0.00257984
C       -3.16318115      -0.23161259       1.45870990      -0.00037974      -0.00037914      -0.00427766      -0.00044886
C       -1.93509599      -1.50364159      -3.29833062      -0.04951581      -0.00216156       0.00270817       0.00138624
C       -1.63879986      -2.69964235      -3.94482731      -0.05561311      -0.00166991      -0.00174836       0.00427997
C       -0.47937986      -3.37896583      -3.64286524       0.05091382       0.00282001      -0.00213402      -0.00176606
O       -0.10781705      -4.58086059      -4.18071439      -0.14721011       0.00496494      -0.00597340       0.00024738
C       -0.99737287      -5.17337056      -5.11008403       0.02341734       0.00143958      -0.00127426      -0.00124865
N        2.86829384      -2.06059519      -1.34314411      -0.19953413       0.00422443       0.00188611       0.00075001
C        3.91678913      -1.79062263      -0.56959715       0.11331251       0.00251186      -0.00330164       0.00414684
N        4.12723136      -0.53567784      -0.12200304      -0.11658050      -0.00149260      -0.00203783       0.00111039
C        3.43694775       0.61989698      -0.49993138       0.04400278      -0.00078260      -0.00090358       0.00091583
C        2.94403232       0.80431167      -1.78813809      -0.04532631      -0.00121683      -0.00071022      -0.00124605
C        2.29339262       1.97938496      -2.11521783      -0.03312841      -0.00165688       0.00145644       0.00258524
C        2.17199578       3.00653902      -1.19155533      -0.03373027       0.00270933       0.00146467       0.00363392
C        2.67892972       2.83270272       0.08358572      -0.03310794       0.00228456      -0.00074146       0.00201214
C        3.28535751       1.63996589       0.45479960      -0.03735847       0.00150702      -0.00026061       0.00215399
C        3.74873930       1.41891106       1.86187353       0.18432331       0.00231406       0.00278645       0.00034212
O        4.74655077       0.75106738       2.12716729      -0.30664399       0.00016340       0.00094035      -0.00015987
N        2.99115098       1.99866163       2.81514855      -0.11690798      -0.00194832      -0.00141235      -0.00020922
C        3.31409889       1.88170927       4.22084180      -0.00725056       0.00151458       0.00347996      -0.00438992
C        4.78894608      -2.83848012      -0.20306700      -0.02148013       0.00209418      -0.00425861      -0.00137342
Cl       6.15199910      -2.54656886       0.82800098      -0.05813636       0.00079316      -0.00224315      -0.00508011
H        5.17338230      -4.92173556      -0.43766730       0.05112150       0.00283649       0.00316197       0.00111646
H        1.55221334      -4.55225547      -2.82745878       0.11162522       0.00203966      -0.00212065       0.00028479
H        0.84687108      -1.23694985      -1.37943081       0.01480793      -0.00213127      -0.00115482      -0.00423332
H       -2.24187252       0.65581181      -2.08283657       0.14282894       0.00241279      -0.00546173       0.00449224
H       -1.66057993       2.64695319      -1.01081022       0.04746380       0.00348408      -0.00324728       0.00555928
H        0.03964433       3.10847888       0.51141565       0.03887331      -0.00171517      -0.00084553       0.00461954
H       -1.48628638       3.68205334       1.17371338       0.04146675       0.00076828       0.00178897       0.00250823
H       -0.74335275       4.09997918       3.59684258       0.04207330       0.00105360       0.00070984      -0.00014371
H       -2.31143660       3.26929110       3.48166761       0.03209325      -0.00131272       0.00141037       0.00037224
H       -1.10586296       2.73141987       4.65905828       0.03884412      -0.00080310       0.00112946       0.00362515
H       -3.59022238       2.82733329       0.19027375       0.03568152      -0.00659656       0.00306928       0.00086359
H       -3.65788109       1.28826071      -0.64104933       0.03720248       0.00362520      -0.00266173       0.00097299
H       -5.05602092       2.47491850       1.87419939       0.03702465       0.00010299       0.00194942      -0.00094277
H       -5.54563073       0.97956291       1.05296201       0.03392263       0.00249832      -0.00119960      -0.00106665
H       -4.56917309       1.28088325       3.92821386       0.02354636       0.00108608       0.00051283      -0.00391310
H       -6.21437766       0.86004814       3.39965093       0.03360325       0.00053760       0.00671444       0.00216148
H       -3.31165023      -1.88997795       2.82982194       0.03425928      -0.00387135       0.00333026      -0.00529079
H       -2.84669583      -0.34803766       3.57362631       0.02000028      -0.00206738      -0.00262443      -0.00455715
H       -3.74560047      -0.77001435       0.69434500       0.03327847      -0.00004767       0.00867166      -0.00460757
H       -2.10817386      -0.37856163       1.24913992       0.03031968       0.00003626       0.00799399       0.00097136
H       -2.85477268      -0.99298116      -3.54156311       0.04999657      -0.00293648       0.00090755      -0.00078451
H       -2.32545972      -3.08746558      -4.67741063       0.04712080      -0.00159482       0.00142106      -0.00155341
H       -1.12715657      -4.54127968      -5.98966135       0.04097203      -0.00232228       0.00432680       0.00251265
H       -1.96833120      -5.37392220      -4.65461675       0.04066855      -0.00082376       0.00683246       0.00108013
H       -0.53692029      -6.10966903      -5.40389945       0.04330087       0.00527792      -0.00026413      -0.00095489
H        4.70528976      -0.40139291       0.70829029       0.10453069      -0.00030573      -0.00091529      -0.00188009
H        3.06501134       0.02784044      -2.52030322       0.03266713      -0.00091601      -0.00423536      -0.00111487
H        1.86078497       2.07763408      -3.09923021       0.04613465       0.00115134       0.00328536       0.00078341
H        1.68034851       3.93106203      -1.45644658       0.04827100      -0.00010293      -0.00072120      -0.00009050
H        2.61397641       3.63647116       0.80381408       0.04389975      -0.00291734       0.00178146      -0.00291868
H        2.06035620       2.29499633       2.55868241       0.09553362      -0.00238039      -0.00388222      -0.00144591
H        2.68210964       1.14344094       4.71156771       0.04163288       0.00192438       0.00743978      -0.00442878
H        4.34816779       1.57034931       4.31129840       0.03034914      -0.00057367      -0.00272883      -0.00328525
H        3.18636854       2.84616723       4.70408750       0.04192338      -0.00319881      -0.00092249       0.00031872
