41
Properties=species:S:1:pos:R:3:charge:R:1:forces:R:3 energy=-33824.90523476366 pbc="F F F"
C        5.51478737       0.34743883       0.52454676      -0.06345817       0.00089388       0.00209891      -0.00393328
C        5.78925257      -1.01234843       0.48382177      -0.07939455       0.00000889       0.00360267      -0.00223043
C        4.72417280      -1.90080269       0.39560817      -0.05969913       0.00138762       0.00061254       0.00391185
C        3.41332883      -1.46092087       0.35307534      -0.06720809       0.00252153       0.00030532       0.00004019
C        3.12926857      -0.08891291       0.38280971       0.05155949       0.00123553      -0.00105946      -0.00000105
N        1.85177425       0.41467419       0.28745849      -0.13095120       0.00104873      -0.00306159       0.00077475
C        0.60753115      -0.25547684       0.56650392       0.09972923       0.00011825      -0.00347744      -0.00590959
C       -0.52257265       0.52906594       0.34882516      -0.16648361       0.00016763      -0.00254262      -0.00050106
C       -1.86825114       0.02133070       0.74764481      -0.01003290       0.00327770       0.00469446       0.00435348
N       -2.70858754      -0.35194189      -0.41434069      -0.13855305       0.00376616       0.00171305      -0.00488342
C       -4.08219414      -0.58328660      -0.00071747       0.00003950       0.00236072       0.00006235      -0.00052703
C       -4.83054588      -1.33586057      -1.08358215       0.01451752      -0.00029277      -0.00600683      -0.00158099
O       -4.31838074      -2.65125953      -1.27499976      -0.22942980       0.00532976      -0.00106342       0.00347338
C       -2.95161706      -2.78085918      -0.88471091       0.01406324       0.00260458       0.00021252      -0.00018068
C       -2.16269036      -1.50766552      -1.14601342      -0.00408127      -0.00211925      -0.00677806      -0.00205965
C       -0.48164921       1.83848712      -0.33345831      -0.05493905      -0.00082653      -0.00132435       0.00095685
O        0.63027850      -1.44482108       0.96152255      -0.37394708       0.00668412       0.00071327       0.00474301
C        4.20936264       0.80278320       0.47053886      -0.07612075      -0.00016046      -0.00339706       0.00177279
H        4.91061094      -2.96733819       0.36258904       0.02108924       0.00399096       0.00005555      -0.00209658
H        2.57873563      -2.13821451       0.30467671       0.01532957       0.00467316       0.00164800       0.00779597
H        1.78069226       1.41771626       0.26503081       0.09737596       0.00514270      -0.00287823       0.00528091
H       -2.42786109       0.79632057       1.28782429       0.01141158      -0.00076491       0.00208571       0.00202409
H       -1.76452790      -0.83873342       1.41942753       0.01757809      -0.00138041       0.00347601      -0.00166119
H       -4.15055982      -1.15513931       0.94117864       0.01961631       0.00005393       0.00150311       0.00227001
H       -4.56845767       0.37851059       0.17973271       0.01881033      -0.00327779       0.00280507      -0.00095220
H       -4.75113092      -0.76374394      -2.01471879       0.00940567       0.00167209       0.00514731      -0.00178651
H       -5.88504798      -1.44340793      -0.82904403       0.01705264      -0.00830224       0.00363248      -0.00169931
H       -2.54693270      -3.61530875      -1.45649386       0.01673576      -0.00631415       0.00263050       0.00089333
H       -2.90006315      -3.03706827       0.17921407       0.01649529      -0.00022482       0.00159374      -0.00756547
H       -1.12492112      -1.65279444      -0.85412877       0.02733368      -0.00703517      -0.00129513      -0.00186123
H       -2.19313955      -1.31769917      -2.22689767       0.01392515      -0.00169241       0.00188599       0.00157962
H       -1.41675193       2.03611055      -0.85505290       0.01288458      -0.00177828      -0.00114495       0.00116447
H        0.31947812       1.89799420      -1.06935765       0.02794338      -0.00225686      -0.00160233      -0.00099916
H        4.00740908       1.86665935       0.49514689       0.02719758      -0.00035978      -0.00649640       0.00154630
H        6.80726708      -1.37216389       0.52009410       0.02227764      -0.00061896       0.00308454       0.00203863
H        6.32159527       1.06680348       0.59906733       0.02205841      -0.00235123       0.00181937      -0.00470856
S       -0.23262190       3.27744642       0.82227934      -0.14518034      -0.00321090      -0.00146010      -0.00087280
C        0.24598906       4.54010433      -0.37696165      -0.06115425       0.00020667       0.00069877      -0.00164514
H        0.41030066       5.47779169       0.14853288       0.01464714       0.00169189      -0.00205575      -0.00454449
H        1.16252022       4.25778699      -0.89052519       0.03059750      -0.00269137      -0.00332314       0.00268105
H       -0.53559061       4.68689012      -1.11825085       0.02095108      -0.00317844       0.00288589       0.00489862
