41
Properties=species:S:1:pos:R:3:charge:R:1:forces:R:3 energy=-34289.3683052781 pbc="F F F"
C        4.56791875       0.82569257      -1.46216307      -0.02906527       0.00465879      -0.00059200      -0.00329411
C        5.89891248       0.84828958      -1.16151843      -0.07435814       0.00381400      -0.00481340       0.00042463
C        6.32696618       0.25814660       0.04856851       0.00388840       0.00176069       0.00006100       0.00045354
N        5.52422308      -0.31105016       0.91079233      -0.23099276       0.00194177       0.00051748      -0.00274910
C        4.19497473      -0.33853860       0.62002727       0.02221305       0.00274515       0.00566411      -0.00387546
C        3.65534490       0.21777944      -0.56812945      -0.02469611       0.00276516       0.00155797      -0.00488365
C        2.27125577       0.15670140      -0.83746079      -0.08274175      -0.00168110      -0.00290928       0.00067210
C        1.41919747      -0.43166382       0.07364865       0.04461075      -0.00281985      -0.00191393       0.00451358
N        0.05455404      -0.49923887      -0.07657540      -0.12173129      -0.00603062       0.00006217       0.00084602
C       -0.72925318      -0.17637984      -1.23959049       0.11155826      -0.00411181      -0.00471138      -0.00106217
C       -2.10049955      -0.34433027      -1.11211272      -0.21129495      -0.00429467      -0.00011215      -0.00561903
C       -2.90463981      -0.69024445       0.08948056      -0.01129746       0.00024859      -0.00525525      -0.00334405
C       -2.85848622       0.28836219       1.27909776      -0.00126049      -0.00279430       0.00684129       0.00198852
N       -3.30483507       1.65782687       1.03681571      -0.15114082      -0.00745301       0.00581386       0.00109577
C       -4.67393681       1.75212637       0.57208522      -0.02778207      -0.00230129      -0.00065759      -0.00188525
C       -2.40759830       2.47619103       0.23497296      -0.02896494      -0.00243269      -0.00155825       0.00238800
O       -0.13240176       0.21315299      -2.26528009      -0.38349721       0.00021939      -0.00067436       0.00234841
C        1.97379616      -0.99235983       1.26673408      -0.07920240       0.00068241       0.00135182       0.00495745
C        3.30571120      -0.94680226       1.53199318      -0.05813859       0.00197491       0.00206174      -0.00187110
H        7.38077547       0.26189034       0.30383111       0.02016309      -0.00170929       0.00627093       0.00242227
H        1.84040822       0.54774929      -1.75008385       0.02764925      -0.00277255      -0.00369979       0.00270065
H       -0.43494240      -1.01998477       0.63378234       0.10110585      -0.00349611      -0.00028641      -0.00112329
H       -2.62859754      -0.17954643      -2.03613777       0.01464162      -0.00246302      -0.00006631      -0.00106709
H       -3.95094778      -0.79462119      -0.20813663       0.01907217       0.00074473       0.00642210      -0.00548816
H       -1.84716657       0.35449441       1.67233788       0.01625486       0.00532613       0.00326681      -0.00268827
H       -3.49282653      -0.10436295       2.07711595       0.00972987      -0.00252551       0.00167873       0.00842908
H       -5.33463382       1.19963451       1.24296757       0.01752429       0.00312632       0.00148575      -0.00796743
H       -4.98263833       2.79776647       0.56523630       0.01556397       0.00399916      -0.00769022       0.00415413
H       -4.81017211       1.35050010      -0.44112413       0.02271833      -0.00124437       0.00174740       0.00366916
H       -2.40940995       2.20172984      -0.82351801       0.02139939       0.00742933       0.00438895       0.00503540
H       -2.71127854       3.52165464       0.33656305       0.01596264       0.00361574      -0.00702539       0.00058589
H       -1.39404375       2.37693895       0.61895509       0.02085034      -0.00288341      -0.00288625      -0.00246019
H        3.71638485      -1.36883832       2.43820671       0.02034622      -0.00072467      -0.00444644      -0.00168905
H        6.62035922       1.30277290      -1.82733238       0.03690744      -0.00156072       0.00148691       0.00280918
H        4.18226552       1.26111623      -2.37374095       0.03256731      -0.00411066      -0.00354513      -0.00150679
H        1.30150395      -1.46339482       1.97069796       0.03543745      -0.00101376      -0.00655785       0.00453122
S       -2.50420236      -2.37878298       0.82560848      -0.11864640       0.00434284      -0.00053930      -0.00517950
C       -2.20364319      -3.32292100      -0.68266131      -0.07681262       0.00339816       0.00823276       0.00137024
H       -2.08582500      -4.37421510      -0.42534558       0.02425040       0.00092943       0.00205726       0.00216831
H       -1.30422530      -2.94830829      -1.16255263       0.02977306       0.00557081       0.00235814       0.00303263
H       -3.03808656      -3.20678167      -1.36900009       0.02742738      -0.00087050      -0.00338654      -0.00284187
