42
Properties=species:S:1:pos:R:3:charge:R:1:forces:R:3 energy=-34305.21144185338 pbc="F F F"
C        6.99471609      -0.60720609       0.34947317       0.03426588      -0.00219259      -0.00189398      -0.00327071
N        6.33053214       0.29825414       1.01106080      -0.22312760      -0.00065583      -0.00185174      -0.00244189
C        4.99681865       0.42720072       0.74825439       0.02319597       0.00000654      -0.00077272      -0.00087081
C        4.25388244       1.39514943       1.45711945      -0.04982175      -0.00053276      -0.00024831       0.00255731
C        2.92163779       1.56441801       1.24332834      -0.04581261      -0.00154550      -0.00393702       0.00656106
H        2.36857264       2.30372483       1.79381934       0.03494822      -0.00015241       0.00317026       0.00166182
C        2.25166325       0.76222945       0.28668929       0.05274328      -0.00059408       0.00489760      -0.00513639
N        0.87983251       0.91974459       0.02680925      -0.09429410      -0.00359483      -0.00649138      -0.00212054
C       -0.05446968       1.52850052       0.81877505       0.19559056      -0.00053321      -0.00577301       0.00120706
O        0.17882274       2.00627469       1.90984929      -0.30858809       0.00473692       0.00276522       0.00076319
C       -1.45142879       1.54591890       0.22032707      -0.03238232      -0.00115529       0.00423268       0.00369390
C       -2.11373001       0.16301832       0.19194030       0.00524218      -0.00328412       0.00012214       0.00374993
S       -1.55513194      -0.86869300      -1.20085002      -0.08022726      -0.00118096      -0.00307292      -0.00591079
C       -2.40911976      -0.08505668      -2.58270721      -0.05826178       0.00066570       0.00012194       0.00208275
C       -3.62778952       0.35201015       0.23801418       0.02342442      -0.00581424      -0.00418232      -0.00102737
N       -4.39431399      -0.85863415       0.02141045      -0.16885097      -0.00427948      -0.00509703      -0.00375146
C       -5.79978220      -0.55115617      -0.16927754      -0.01374497      -0.00369063       0.00331437      -0.00102289
C       -4.21996728      -1.83280752       1.08954691      -0.01720400       0.00188361      -0.00210028       0.00089636
C        2.94740434      -0.17870163      -0.42461726      -0.04863252      -0.00282117      -0.00422099       0.00299560
C        4.32649601      -0.36875978      -0.20286429      -0.01868162      -0.00139462      -0.00028556       0.00016894
C        5.08854438      -1.33817567      -0.89547006      -0.02763164      -0.00092284       0.00046262       0.00026244
H        4.60178221      -1.96670922      -1.62940613       0.05205464       0.00600231      -0.00002664      -0.00142351
C        6.41805089      -1.46282726      -0.62384866      -0.04387040      -0.00110447       0.00004069      -0.00093907
H        7.03192161      -2.19332370      -1.13006575       0.05797548       0.00306741       0.00571563       0.00009974
H        8.05176991      -0.69162477       0.57568095       0.04400636      -0.00478869       0.00044286       0.00055813
H        4.77689073       1.99953056       2.18311704       0.03896960       0.00147785       0.00726051      -0.00288502
H        0.53202692       0.41720362      -0.77882045       0.11321446      -0.00207937      -0.00541827      -0.00569897
H       -2.04372474       2.21088202       0.84338812       0.04576305       0.00126993       0.00536596       0.00789489
H       -1.42688301       1.95755459      -0.78851242       0.04325544       0.00279019       0.00256710       0.00060000
H       -1.79965108      -0.39186560       1.07578163       0.03694566       0.00068351      -0.00010110       0.00372319
H       -2.08900327      -0.59882204      -3.48557836       0.04573164       0.00015094       0.00088636       0.00536014
H       -2.15441225       0.96742819      -2.66277936       0.04314361       0.00901088      -0.00364925      -0.00012301
H       -3.48069764      -0.20845152      -2.45934867       0.03130563       0.00181015      -0.00227719      -0.00311195
H       -3.87983681       0.80044476       1.21035664       0.03678548       0.00041151       0.00384034      -0.00184732
H       -3.88697900       1.09542193      -0.52138653       0.03453022       0.00557361      -0.00207496      -0.00363710
H       -5.91600818       0.12301178      -1.01622951       0.03265687      -0.00282100       0.00293561      -0.00255456
H       -6.25929826      -0.07938513       0.71195790       0.03185174       0.00307660       0.00208800       0.00435611
H       -6.34282066      -1.46737714      -0.39377064       0.03162985       0.00277723       0.00170036      -0.00263964
H       -4.50732667      -1.43739992       2.07500317       0.03350747      -0.00180411      -0.00196894       0.00096241
H       -4.83225252      -2.70643344       0.87567526       0.03278244      -0.00117804       0.00133942      -0.00151370
H       -3.18580303      -2.16269875       1.14338555       0.02636048       0.00555332       0.00263964       0.00256278
H        2.45530395      -0.79779818      -1.16389245       0.04925092      -0.00282787      -0.00046547      -0.00079112
