24
Properties=species:S:1:pos:R:3:charge:R:1:forces:R:3 energy=-18082.77481648775 pbc="F F F"
C       -4.61162258      -0.16015598      -0.27427719      -0.04505448       0.00141524       0.00715702       0.00053359
C       -3.93940851      -0.31105478       0.85764795      -0.03194809       0.00107625      -0.00735018      -0.00067466
C       -2.47709089      -0.09738263       1.04899437       0.18236560      -0.00303643       0.00412965       0.00118337
O       -2.03863493       0.26197069       2.12164852      -0.30327433       0.00076965      -0.00290481       0.00227687
N       -1.70791978      -0.36711362      -0.05298470      -0.08459733      -0.00196723      -0.00127984       0.00346703
C       -0.31230976      -0.24362484      -0.16899661       0.06558309      -0.00071058       0.00140244       0.00160265
C        0.26874243      -0.67877778      -1.39052539      -0.02946402       0.00026943      -0.00163680       0.00325768
C        1.60637653      -0.58546627      -1.61411716      -0.03280770      -0.00084827       0.00167098       0.00095418
C        2.45210669      -0.04641867      -0.62000716       0.04345990      -0.00006755       0.00886391      -0.00215815
N        3.79195419       0.05366932      -0.83720198      -0.20906113       0.00044489      -0.00390469      -0.00043098
C        4.50211221       0.56317924       0.12856484       0.10084556       0.00005171      -0.00200398      -0.00016751
N        4.05795940       1.00893136       1.33526531      -0.20879591      -0.00374986      -0.00223742      -0.00325754
C        2.77539326       0.91252340       1.54052412       0.06079867      -0.00400333       0.00500703      -0.00184035
H        2.39240032       1.26142613       2.49400662       0.05268868      -0.00341190      -0.00329791      -0.00015566
C        1.87552756       0.38118042       0.58470626      -0.01052069       0.00081927      -0.00442175       0.00084791
C        0.48619449       0.28056545       0.81143740      -0.03876922       0.00084195       0.00515293      -0.00520358
H       -5.67595753      -0.33658022      -0.31586220       0.05647516       0.00586643       0.00067867      -0.00051269
H       -4.14890711       0.17082128      -1.19538491       0.04581489      -0.00578913      -0.00454952      -0.00590702
H       -4.44106987      -0.56687916       1.77880967       0.05084020       0.00434141       0.00032656       0.00270621
H       -2.17828734      -0.79238494      -0.82924503       0.14834058       0.00634939       0.00422765      -0.00068736
H       -0.37792013      -1.09103727      -2.15637946       0.05514521      -0.00286766       0.00258387       0.00153703
H        2.05063648      -0.91242831      -2.54138458       0.04731156      -0.00014791      -0.00441936       0.00194327
H        5.56916155       0.64614194      -0.03693491       0.04395381       0.00013414       0.00122000       0.00384912
H        0.06773593       0.61566740       1.74837358       0.04067007       0.00422030      -0.00441473      -0.00316384
