58
Properties=species:S:1:pos:R:3:charge:R:1:forces:R:3 energy=-52108.11735943975 pbc="F F F"
F        9.50148824       2.96476139      -1.67413928      -0.11039169      -0.00037659      -0.00036820      -0.00018604
C        8.37997017       2.32555984      -1.31068161       0.08004550      -0.00183420       0.00049466      -0.00216711
C        8.45067678       1.03482666      -0.81792142       0.00633515       0.00106381       0.00228531       0.00395270
Cl       9.99799548       0.26804302      -0.68169635      -0.07427672      -0.00030603      -0.00197328       0.00064705
C        7.29901185       0.36137214      -0.43641232      -0.05076583       0.00157736      -0.00223385      -0.00137912
C        6.06703226       0.99215843      -0.55314102       0.06120853       0.00096106      -0.00458951      -0.00024128
N        4.85116254       0.39520441      -0.19413789      -0.09746531      -0.00004922      -0.00341699      -0.00071918
C        4.57470506      -0.84453857       0.29950934       0.13201454       0.00122252      -0.00265980      -0.00011743
N        5.54078292      -1.70021181       0.53772568      -0.20055401       0.00342815       0.00056088       0.00277002
C        5.18073785      -2.90507668       1.03024949       0.10208313       0.00208631       0.00053844       0.00073904
N        3.98250027      -3.33178601       1.30137880      -0.21922418       0.00260793      -0.00267409      -0.00261470
C        2.96401479      -2.45957828       1.05602010       0.04383706       0.00138917       0.00007693      -0.00200477
C        3.19798721      -1.17838008       0.54769613      -0.02176776       0.00061988       0.00307840       0.00413743
C        2.11992298      -0.29999453       0.30307937      -0.03515343      -0.00312976       0.00171200      -0.00597981
C        0.83436474      -0.68779806       0.55076633       0.04583235      -0.00201871      -0.00094450       0.00646521
N       -0.31247268       0.08991271       0.35504182      -0.10483494       0.00002671      -0.00010976       0.00131787
C       -0.40355570       1.29929752      -0.28466191       0.17731161      -0.00226465       0.00142472      -0.00170438
C       -1.77695037       1.85158764      -0.38282058      -0.04967111       0.00229551       0.00337340      -0.00149484
C       -2.77817538       1.62259445       0.45247917      -0.02575242      -0.00296003      -0.00181475       0.00108195
C       -4.16810830       2.13129198       0.24048700       0.01787978      -0.00110108      -0.00135673      -0.00055921
N       -5.12579388       1.04016337       0.17064740      -0.16989183      -0.00075524       0.00050284      -0.00389184
C       -6.47599909       1.53803900       0.41446510       0.01539419       0.00020073      -0.00108874       0.00209243
C       -7.48856274       0.40400021       0.41118922      -0.03765797       0.00094505       0.00083619       0.00481238
C       -7.42381173      -0.38625998      -0.89083473      -0.03632351       0.00092539       0.00266387       0.00346837
C       -5.99193390      -0.83687809      -1.15759806      -0.03832985       0.00151222       0.00118178      -0.00007290
C       -5.04533371       0.35186276      -1.11574783       0.01160816       0.00184223       0.00188699      -0.00440457
O        0.54815178       1.88424877      -0.76476153      -0.31820202      -0.00073032       0.00250776      -0.00301486
C        0.60173272      -1.99563839       1.07197132       0.06963222      -0.00778739      -0.00493270      -0.00232332
O       -0.71650606      -2.27691539       1.28668021      -0.13586783      -0.00768786      -0.00243501       0.00088995
C       -1.03489055      -3.56899825       1.79023871       0.03149882       0.00233874      -0.00090524       0.00173782
C        1.63270404      -2.85511520       1.31815032      -0.07110870      -0.00143754       0.00200945      -0.00088727
C        6.00723691       2.29210589      -1.05253853      -0.03613032       0.00010645      -0.00368314       0.00373805
C        7.15879294       2.95745006      -1.42966142      -0.03954168      -0.00274162       0.00074517       0.00052031
H        7.35534763      -0.64079171      -0.05382824       0.02707474      -0.00360195      -0.00122876       0.00229265
H        4.03915228       0.96381262      -0.33499925       0.12570859      -0.00033336      -0.00312340       0.00175360
H        5.99832070      -3.59316561       1.21893924       0.04248437       0.00351727       0.00416213       0.00102806
H        2.30435805       0.68781139      -0.08882520       0.03493242      -0.00016570       0.00568389      -0.00498960
H       -1.17382376      -0.36258303       0.60020188       0.11740636       0.00101456       0.00302623      -0.00005359
H       -1.88906648       2.52194568      -1.22425506       0.04526979       0.00331687       0.00699181      -0.00400602
H       -2.63473810       1.04844767       1.35992577       0.03637416       0.00295641      -0.00075199       0.00177420
H       -4.20877535       2.75479056      -0.66275546       0.03441540      -0.00308875       0.00113457       0.00059096
H       -4.42126034       2.78423581       1.07918583       0.03474016       0.00111060      -0.00450317       0.00206920
H       -6.75648238       2.29778130      -0.33432078       0.02868569       0.00085639      -0.00452437      -0.00057556
H       -6.48258952       2.02752884       1.38643757       0.03057762       0.00240826       0.00264251       0.00129973
H       -7.26703669      -0.25821534       1.24925658       0.02439755      -0.00082794      -0.00378725       0.00225066
H       -8.48769233       0.80936318       0.56646081       0.03515502       0.00047413       0.00095278       0.00035089
H       -7.75996021       0.25039100      -1.71325555       0.02732182      -0.00215070      -0.00195196       0.00064031
H       -8.09448990      -1.24281917      -0.85390926       0.03157844       0.00013752       0.00277830      -0.00196615
H       -5.91556037      -1.32850031      -2.12678121       0.03504518      -0.00357918      -0.00552175       0.00182622
H       -5.68449490      -1.55551963      -0.39635953       0.02348338       0.00090387      -0.00087307      -0.00131471
H       -5.28607457       1.04055779      -1.94215624       0.02751024      -0.00107483       0.00199910      -0.00436372
H       -4.02242534       0.01683458      -1.26970742       0.02560184       0.00346534       0.00070139      -0.00092654
H       -0.57706987      -3.72848875       2.76624527       0.04425750      -0.00026855      -0.00005530       0.00026711
H       -0.70618836      -4.34604223       1.10021901       0.04412559      -0.00271675       0.00190208       0.00201841
H       -2.11488520      -3.59548070       1.88448410       0.04738228       0.00762327       0.00130526      -0.00391535
H        1.47041413      -3.84430883       1.71087055       0.04355878       0.00198063       0.00247754      -0.00136876
H        5.05098753       2.78734934      -1.14693177       0.05239771       0.00077179      -0.00254444       0.00189386
H        7.12708657       3.96524561      -1.81731986       0.05874530      -0.00269801       0.00241540      -0.00118433
