63
Properties=species:S:1:pos:R:3:charge:R:1:forces:R:3 energy=-64033.32952517212 pbc="F F F"
F        9.23438114       3.93902407       0.08473795      -0.13148493      -0.00290037      -0.00598965      -0.00046091
C        8.20444099       3.07011147       0.09285620       0.06234583      -0.00312375      -0.00310222      -0.00050801
C        6.90722061       3.53525490      -0.03605310       0.00334242      -0.00079461       0.00020029      -0.00023029
Cl       6.62501053       5.24172129      -0.20816500      -0.11419310       0.00068302      -0.00364213      -0.00000877
C        5.85038927       2.64533560      -0.02715608      -0.05487042       0.00172624       0.00107367      -0.00133890
C        6.08054197       1.27544523       0.11369260       0.04643239       0.00355054       0.00455401       0.00251039
N        4.96262628       0.44732335       0.12929701      -0.10582723       0.00178997       0.00537271       0.00008279
C        4.85306172      -0.92019631       0.12604169       0.11968337       0.00057167       0.00512829       0.00292987
N        5.90493311      -1.70387685       0.18881361      -0.23070683      -0.00151106       0.00093400       0.00158088
C        5.64898001      -3.03416066       0.14613849       0.07815570      -0.00074239      -0.00230221      -0.00158297
N        4.50763982      -3.64588331       0.04114881      -0.25783744      -0.00186189      -0.00322214       0.00120389
C        3.40350989      -2.83602372      -0.02359384       0.03999851      -0.00213846       0.00072652       0.00557609
C        3.52732026      -1.44783583       0.04808511      -0.02685045      -0.00046740       0.00156626       0.00000030
C        2.39225218      -0.62324642       0.02442514      -0.06160831      -0.00212212       0.00093159       0.00231333
C        1.14069794      -1.13957962      -0.16410500       0.03416089      -0.00263473       0.00297948       0.00041715
N        0.00907801      -0.37834912      -0.26366110      -0.13154198      -0.00087078      -0.00025653      -0.00186764
C       -0.06466123       1.06254331      -0.22273873       0.11721914       0.00002655      -0.00508969       0.00276640
C       -1.35631677       1.55866392      -0.25903480      -0.19609141       0.00398183       0.00170552       0.00275894
C       -2.59638950       0.75139845      -0.16937890      -0.00525614       0.00647854      -0.00085915      -0.00108034
C       -3.76904386       1.63683448       0.22766683       0.01122532       0.00404208      -0.00089247      -0.00275832
N       -5.03017071       0.93032728       0.38136234      -0.16150038      -0.00351782       0.00483234      -0.00430737
C       -6.12598752       1.83128416       0.67342830       0.00953084      -0.00623441       0.00359375      -0.00079070
C       -7.47390665       1.12714480       0.45879358      -0.04737027      -0.00135356      -0.00115531       0.00369808
C       -7.36137538      -0.37301583       0.74835898      -0.04385389       0.00304626      -0.00025260       0.00054308
C       -6.32588429      -0.60009235       1.84262841      -0.04458470       0.00484705       0.00124670       0.00228740
C       -4.93933085      -0.13919456       1.37368572       0.00585835       0.00063358       0.00476575      -0.00302562
O        0.99781527       1.72472894      -0.17682557      -0.36483383      -0.00409826      -0.00203369      -0.00471654
C        1.01921043      -2.55637281      -0.24716307       0.04980368      -0.00250604       0.00524322       0.00396811
O       -0.26714321      -2.98859919      -0.41494899      -0.14274731      -0.00098541       0.00295184      -0.00162022
C       -0.50290453      -4.37878140      -0.36296530       0.02632274       0.00499652       0.00021903      -0.00401844
C        2.11056230      -3.38327585      -0.16550276      -0.09255080      -0.00225528       0.00378295      -0.00296637
C        7.39118204       0.81641333       0.24118347      -0.05514877       0.00201836       0.00030015      -0.00060258
C        8.44108191       1.71935988       0.22906950      -0.05027572       0.00024595       0.00017413       0.00152522
H        4.84419470       3.02367084      -0.13074850       0.04060954       0.00160351      -0.00335042       0.00139955
H        4.05884779       0.90117488       0.04448181       0.11037016      -0.00036729       0.00358083      -0.00220082
H        6.52885531      -3.66414149       0.20632651       0.02242957       0.00044180      -0.00314651      -0.00560421
H        2.44900607       0.44368896       0.14652521       0.03338681      -0.00053458      -0.00294824       0.00099749
H       -0.83155374      -0.84282730      -0.56716207       0.08589712      -0.00420343      -0.00184329       0.00547971
H       -1.46328324       2.62303480      -0.37797138       0.02698772       0.00022089       0.00101127       0.00187207
H       -2.50652695      -0.05280703       0.55719113       0.02568147      -0.00425308      -0.00038551       0.00091457
H       -3.48416353       2.15665796       1.15824325       0.02634945       0.00183299       0.00162216      -0.00337926
H       -3.88591072       2.40463860      -0.53808637       0.02324123       0.00321868      -0.00621467      -0.00565704
H       -6.06034056       2.69342316       0.01179559       0.02199492       0.00335223       0.00292581      -0.00129122
H       -6.05549066       2.21507741       1.70649989       0.01921741      -0.00135132      -0.00355299       0.00007190
H       -8.21881494       1.58166948       1.11344508       0.02372846      -0.00266716       0.00077879      -0.00406582
H       -7.80125136       1.27550909      -0.56871340       0.02170681       0.00362435      -0.00259376       0.00728780
H       -7.03721097      -0.90101779      -0.14839113       0.01680345       0.00476888       0.00224703      -0.00390059
H       -8.33006901      -0.77823591       1.03756407       0.02224336       0.00267211       0.00054026       0.00691774
H       -6.27764889      -1.65101315       2.12622873       0.02502659       0.00198161      -0.00218293      -0.00374687
H       -6.62854109      -0.03812837       2.73075774       0.02098673       0.00195381       0.00003561       0.00272449
H       -4.34288209       0.17430580       2.24419439       0.02498362      -0.00063165       0.00109149      -0.00253049
H       -4.41134960      -0.97740329       0.92489773       0.02116556      -0.00708996      -0.00217037       0.00172734
H       -1.57693810      -4.50014589      -0.45856541       0.03297097       0.00483309      -0.00494660      -0.00071249
H       -0.16834283      -4.80542615       0.58588818       0.03334859       0.00058513       0.00010165      -0.00073072
H       -0.00240408      -4.90096753      -1.18138274       0.03401012       0.00266359      -0.00021124      -0.00791541
H        2.01528688      -4.45472979      -0.21358050       0.03086208      -0.00198654       0.00267821       0.00071067
H        7.56129710      -0.23882256       0.34553666       0.02203885       0.00132403       0.00164224       0.00227870
H        9.45974716       1.37462639       0.32592742       0.04178615      -0.00087151       0.00145914       0.00176466
S       -3.01067456      -0.20057539      -1.74524502      -0.11536768      -0.00180049       0.00298935      -0.00107390
C       -2.16939271       0.82300336      -2.96905858      -0.07560016      -0.00049514      -0.00325758       0.00191296
H       -2.43793738       1.86282300      -2.81642185       0.03357783       0.00007887      -0.00661626       0.00136404
H       -2.47530693       0.50491019      -3.96227475       0.02995175      -0.00718100      -0.00109578      -0.00035530
H       -1.09497921       0.71518852      -2.86955811       0.03465972      -0.00024121      -0.00167198       0.00346226
