28
Properties=species:S:1:pos:R:3:charge:R:1:forces:R:3 11_adduct=T (SP=-976.690322747026,U=-976.4446501,H=-976.44370589,G=-976.50061415) energy=-26577.771454066795 pbc="F F F"
C        1.15750371       1.97837570       0.16939726      -0.20350809       0.00284187       0.00143682       0.00122959
H        2.05451408       1.49282195      -0.20116646       0.08626565      -0.00041016      -0.00751399       0.00118088
H        1.13712881       1.94010601       1.25481722       0.08842357      -0.00149702       0.00333616       0.00295711
S       -0.31702807       1.23030798      -0.54059802      -0.16455172      -0.00211855       0.00764901       0.00071269
C       -2.75440754      -0.66488723       0.27268529       0.46800956      -0.00019112       0.00427724      -0.00362040
O       -2.94357216      -0.14716201       1.33992756      -0.43750224       0.00463645       0.00049383       0.00515294
C       -1.43255799      -1.21908991      -0.19486621      -0.13227689      -0.00128240       0.00135197       0.00049333
H       -1.43152150      -1.29197037      -1.28041333       0.08713957      -0.00187427       0.00024230       0.00123239
C       -0.25954882      -0.38133951       0.31359332      -0.06375707       0.00178622       0.00071221      -0.00100528
H       -0.41498499      -0.18004485       1.36972191       0.11569643       0.00081482       0.00039180      -0.00056356
O       -3.71146152      -0.84056613      -0.64685150      -0.27270770      -0.00234114      -0.00204346       0.00028143
C       -5.00272109      -0.33410796      -0.28384842      -0.07975052      -0.00029132      -0.00255892      -0.00180448
H       -4.94643468       0.73659354      -0.10485901       0.09148120      -0.00709159      -0.00514832      -0.00264916
H       -5.65060622      -0.54980451      -1.12539889       0.09946721      -0.00210703       0.00218641       0.00265770
H       -5.36059507      -0.82831696       0.61565647       0.09156997       0.00441118       0.00038908      -0.00336632
C        1.06928430      -1.07607746       0.14109732       0.04887625       0.00281058      -0.00314201       0.00008115
C        1.80053782      -1.46385245       1.25828063      -0.14735158       0.00167491       0.00183802       0.00282538
C        1.58771486      -1.33858963      -1.12422420      -0.12442102       0.00238281      -0.00184779      -0.00015442
C        3.02432179      -2.10663505       1.11618930      -0.14030977      -0.00012225      -0.00062942      -0.00150089
H        1.40818694      -1.26767512       2.24740702       0.12683168       0.00196096       0.00016129       0.00425521
C        2.80673302      -1.97887701      -1.26856651      -0.14061727       0.00175168      -0.00353066       0.00130621
H        1.03436260      -1.02440628      -1.99813499       0.11769848       0.00142186       0.00226582       0.00019299
C        3.53029324      -2.36460625      -0.14717243      -0.14416243      -0.00244690      -0.00847870       0.00068236
H        3.58105784      -2.40614990       1.99309490       0.13621792      -0.00080917       0.00147665      -0.00430906
H        3.19129848      -2.17816621      -2.25872912       0.13621032       0.00195089       0.00695565       0.00142194
H        4.48207304      -2.86464084      -0.25792649       0.13852605       0.00069863      -0.00060943      -0.00202001
H       -1.35650485      -2.23311031       0.19731943       0.09613201      -0.00500728      -0.00098596      -0.00004153
H        1.16018246       3.01924482      -0.13902299       0.12237045      -0.00155215       0.00132428      -0.00562815
