27
Properties=species:S:1:pos:R:3:charge:R:1:forces:R:3 11_TS=T (SP=-976.163685209415,U=-975.93375631,H=-975.9328121,G=-975.98893792) energy=-26559.08398614064 pbc="F F F"
C        3.41106840      -1.11019467      -1.15784144      -0.14142966      -0.00356320      -0.00210336       0.00224098
C        2.06133503      -0.85310053      -1.00259821      -0.12442236      -0.00169832       0.00662195      -0.00023840
C        1.56569658      -0.36591926       0.20204210       0.04808010       0.00180016       0.00501261       0.00069483
C        2.45617231      -0.10380388       1.23729865      -0.15051065       0.00196480      -0.00309332       0.00283182
C        3.81065052      -0.36177731       1.09033004      -0.13171627       0.00160114       0.00053333      -0.00395360
C        4.28854208      -0.86891636      -0.10705155      -0.13907968      -0.00021842      -0.00165052      -0.00233474
C        0.13759182      -0.08461526       0.39187004      -0.03257082       0.00086453       0.00337891      -0.00025382
C       -0.87581914      -0.78837536      -0.20001842      -0.15008661      -0.00168227       0.00301709      -0.00356971
C       -2.25857765      -0.59735692       0.22517706       0.46860996      -0.00140807      -0.00403291       0.00454349
O       -2.63150760       0.14588451       1.10210481      -0.42493510      -0.00090318      -0.00181210      -0.00571278
O       -3.10441366      -1.34859413      -0.49973654      -0.27687225      -0.00220430      -0.00078323       0.00075377
C       -4.48191584      -1.25360597      -0.12091543      -0.09120273      -0.00160595       0.00015403       0.00080927
S       -0.37886780       1.53625575      -1.52252146      -0.13586481      -0.00021413      -0.00406709      -0.00190671
C       -1.71094444       2.31279677      -0.65973503      -0.26423767       0.00228660      -0.00112059      -0.00055457
H       -0.10965594       0.58058019       1.21208572       0.12512369       0.00018129      -0.00095529      -0.00257451
H       -0.68397729      -1.48220701      -1.00262578       0.13007466      -0.00051619       0.00171327       0.00313367
H       -1.59619832       3.39307873      -0.74134276       0.12308493       0.00751048      -0.00373362       0.00392376
H       -2.67938715       2.03381319      -1.06319718       0.10777000       0.00816204       0.00448167      -0.00109787
H       -1.73627157       2.06808905       0.39953736       0.09495026      -0.00420863      -0.00001042      -0.00297531
H       -5.01211738      -1.94259866      -0.76891232       0.10322662       0.00008386      -0.00158791       0.00275825
H       -4.60923741      -1.53067561       0.92327368       0.09461211      -0.00031848      -0.00366721      -0.00162878
H       -4.84745759      -0.23859781      -0.26551784       0.08745748      -0.00204897      -0.00097212       0.00258118
H        2.07320804       0.30483996       2.16237164       0.13121018      -0.00390722      -0.00066461       0.00071440
H        4.49310955      -0.16533922       1.90404152       0.14142925      -0.00037662       0.00047460      -0.00349192
H        5.34356260      -1.06931161      -0.22469259       0.13876294       0.00004616      -0.00031143       0.00125604
H        3.78572924      -1.49103388      -2.09745504       0.13975297       0.00066291       0.00082032       0.00494314
H        1.37442702      -0.97509876      -1.82720002       0.12878339      -0.00029034       0.00435776      -0.00089166
