22
Properties=species:S:1:pos:R:3:charge:R:1:forces:R:3 12_TS=T (SP=-840.447151849971,U=-840.26414941,H=-840.2632052,G=-840.31378288) energy=-22865.923325232507 pbc="F F F"
C        3.62646042      -0.07609346      -0.28036569      -0.13651876       0.00244870       0.00500426      -0.00341936
C        2.70782800      -0.34539097      -1.28255761      -0.13051440      -0.00031827       0.00656390      -0.00071295
C        1.36629309      -0.50081518      -0.97031298      -0.12069180       0.00236341      -0.00678959       0.00022952
C        0.92703859      -0.38355083       0.34040992       0.06821800       0.00155970      -0.00085494      -0.00135484
C        1.85117895      -0.10571657       1.33693082      -0.13980211       0.00400865      -0.00347419      -0.00027200
C        3.19336545       0.04576381       1.02957053      -0.12946665       0.00339075      -0.00423457      -0.00191815
C       -0.51186440      -0.50465522       0.66629623       0.00053008      -0.00047187       0.00090218      -0.00078032
C       -1.34607694      -1.30985724      -0.07056097      -0.11845591      -0.00354460       0.00456472      -0.00214981
C       -2.71770189      -1.35521681       0.20097469       0.25178072      -0.00383134       0.00028307       0.00347741
N       -3.85195973      -1.34466844       0.39244212      -0.40340927       0.00023833       0.00154802       0.00569252
S       -1.35955288       1.73904822       0.42473362      -0.17122860      -0.00507827      -0.00167803      -0.00456846
C       -2.63987664       1.55456588      -0.76507619      -0.22159305      -0.00266428      -0.00272851      -0.00695450
H       -0.77989920      -0.32323135       1.70120471       0.12450051      -0.00460614      -0.00552530      -0.00264811
H       -1.00319109      -1.88372767      -0.91626881       0.12401313       0.00087208       0.00509722      -0.00042829
H       -2.79498042       2.51976547      -1.25540886       0.12356678      -0.00025629      -0.00324637       0.00291628
H       -2.36917233       0.82232480      -1.52583229       0.08629142      -0.00590014       0.00489691      -0.00381976
H       -3.57645189       1.23454256      -0.31362693       0.10978696       0.00493971       0.00350762      -0.00052169
H        1.51581432      -0.00459217       2.35946925       0.13604844       0.00599732      -0.00296033       0.00201875
H        3.90323709       0.26185762       1.81226068       0.14038754      -0.00007761      -0.00125650       0.00270007
H        4.67277915       0.04140374      -0.51732710       0.14030127       0.00266105       0.00722621       0.00068584
H        3.03722433      -0.43224673      -2.30679883       0.14059111       0.00168242      -0.00389752       0.00650104
H        0.63807981      -0.70013198      -1.74293417       0.12566464      -0.00341295      -0.00294793       0.00532634
