10
Properties=species:S:1:pos:R:3:charge:R:1:forces:R:3 14=T (SP=-247.470784434541,U=-247.38513005,H=-247.38418584,G=-247.4181905) energy=-6733.939684133485 pbc="F F F"
N       -3.00368643      -0.57524502      -0.35686565      -0.65445113       0.00398910      -0.00177711      -0.00258426
C       -1.89025637       0.16370509      -0.09120807       0.45523325      -0.00034454      -0.00281200       0.00407927
C       -0.87905097      -0.51383827       0.77244996      -0.13240783      -0.00269739       0.00214570       0.00498114
C        0.24744102       0.09918355       1.10203830      -0.27827966      -0.00257943       0.00037844      -0.00284816
O       -1.74202261       1.28710368      -0.52664269      -0.46667758       0.00683020      -0.00532165       0.00086590
H       -1.09789731      -1.51567691       1.11901843       0.12261199      -0.00279717       0.00240630      -0.00257943
H        0.44538465       1.09820519       0.74350956       0.15872052      -0.00462447      -0.00004167       0.00240577
H        0.98961019      -0.37473007       1.72971694       0.14448704      -0.00214741       0.00085574      -0.00743602
H       -3.71328098      -0.17126236      -0.93797466       0.33424264       0.00001889       0.00392707       0.00085909
H       -3.12799394      -1.50383495      -0.00672321       0.31652084       0.00435250       0.00023918       0.00225670
