30
Properties=species:S:1:pos:R:3:charge:R:1:forces:R:3 17_adduct=T (SP=-1103.324108089609,U=-1103.06881275,H=-1103.06786854,G=-1103.12687736) energy=-30023.839884941313 pbc="F F F"
N       -2.95096634       0.14451768       0.06371059      -0.34761542      -0.00188068      -0.00248206       0.00313672
C       -1.97023074       0.95078502       0.57567549       0.41301137      -0.00140113      -0.00152399      -0.00148278
C       -1.02300253       0.27527705       1.55373014      -0.14161675      -0.00520416       0.00323435       0.00033870
C        0.40511706       0.36325004       1.04242417      -0.12266061      -0.00118206      -0.00092133      -0.00013146
O       -1.82815420       2.11845203       0.29026464      -0.42409000       0.00649823      -0.00157443       0.00181364
S        0.59750056      -0.79077175      -0.33564337      -0.18366860       0.00570453      -0.00434092       0.00020347
C        2.29573156      -0.41001977      -0.79092066      -0.20087573      -0.00260145      -0.00058776      -0.00435167
H       -2.93158438      -0.81208048       0.36840455       0.25962552       0.00621575      -0.00386116       0.00077644
H        0.60302280       1.37872393       0.70497637       0.10423570       0.00028322      -0.00099864       0.00227711
H        1.11156145       0.10385801       1.82806817       0.09640400       0.00168095       0.00242915       0.00066612
H        2.40505214       0.63338407      -1.07600488       0.09412656      -0.00311664      -0.00002606      -0.00055660
H        2.99122863      -0.64196677       0.01215387       0.09443730      -0.00291461       0.00243385       0.00238382
H        2.53835161      -1.02928242      -1.64991226       0.11817621      -0.00045055      -0.00325003      -0.00271352
C       -4.00668905       0.48909522      -0.80560423       0.11954800       0.00152741      -0.00347443       0.00047831
C       -5.02570598      -0.49061681      -0.96471903      -0.17489396       0.00081772       0.00031863       0.00145317
C       -6.08414103      -0.26461609      -1.78583844      -0.17510536       0.00352738      -0.00130649      -0.00189380
C       -6.17557341       0.95267598      -2.49840300       0.08074634      -0.00193820       0.00096991       0.00083359
C       -5.16462540       1.91996028      -2.34607122       0.28715411       0.00307227      -0.00365283      -0.00553066
C       -4.07473645       1.67477608      -1.48488128      -0.14972407      -0.00342037       0.00048834       0.00624456
N       -5.22750575       3.09770994      -3.02697553      -0.41154397      -0.00187845       0.00264201       0.00380552
C       -6.25863711       3.26825658      -3.80558660       0.26190072       0.00210204      -0.00113097      -0.00339276
N       -7.28896372       2.41021975      -4.02643547      -0.39951643      -0.00416324       0.00307028      -0.00165656
C       -7.23095521       1.27833007      -3.37551684       0.08065873      -0.00034323       0.00262280      -0.00356372
H       -4.95317617      -1.42219470      -0.41814591       0.13283734      -0.00329187       0.00029474      -0.00255435
H       -6.85782665      -1.00934917      -1.89970297       0.13205563       0.00074598       0.00265133      -0.00244840
H       -3.31657789       2.42844313      -1.38171469       0.13570254      -0.00003663      -0.00001699       0.00176762
H       -6.31361745       4.20213903      -4.34924909       0.06392374      -0.00543818       0.00056448      -0.00085107
H       -8.04049729       0.57259740      -3.53193691       0.08772198       0.00327373      -0.00062767       0.00148288
H       -1.10457849       0.82747493       2.48970444       0.09445727       0.00135102       0.00369500       0.00197245
H       -1.30719104      -0.75908468       1.74890906       0.07458790       0.00246120       0.00436087       0.00149355
