28
Properties=species:S:1:pos:R:3:charge:R:1:forces:R:3 1_carbanion=T (SP=-1068.502109006414,U=-1068.26961052,H=-1068.26866632,G=-1068.328879) energy=-29071.5249563645 pbc="F F F"
C       -1.01640304       2.90808824      -0.13127147      -0.17390114       0.00465456      -0.00405150      -0.00081249
S        0.22831356       1.73914631       0.51060997      -0.03218127      -0.00247744      -0.00183063      -0.00156461
C       -0.11973571       0.27030792      -0.49281870      -0.03545732      -0.00056129      -0.00155774      -0.00111053
C        1.04149206      -0.27853580       0.19039672      -0.09486996       0.00004718       0.00252981      -0.00234277
C        0.98245695      -1.05045742       1.37231754       0.25014305      -0.00075751       0.00273682      -0.00175286
N        0.91953961      -1.64097721       2.36084681      -0.39327526      -0.00116709       0.00216399       0.00117584
C        2.32873809      -0.09350623      -0.46415006       0.44976884       0.00177994      -0.00278687      -0.00252101
O        2.48960304       0.41875458      -1.54900240      -0.43746856       0.00921284       0.00224896       0.00015089
O        3.35306838      -0.55835244       0.28292486      -0.25052020       0.00012833       0.00173242      -0.00206737
C        4.64682248      -0.42891872      -0.31048960      -0.08222467      -0.00296243      -0.00041680      -0.00145238
C       -1.47339015      -0.35721388      -0.41807939       0.05957913      -0.00252134       0.00310607       0.00260361
H        0.14264827       0.54971561      -1.50536826       0.11731312      -0.00211841      -0.00118695      -0.00052252
H       -0.89491480       3.82511506       0.44143027       0.12644637       0.00164733       0.00156084       0.00257449
H       -0.85392038       3.12774538      -1.18637666       0.10039800       0.00197923      -0.00412317      -0.00072705
H       -2.02505995       2.52775319       0.01919097       0.09021551      -0.00054038      -0.00088292       0.00154249
H        5.35572685      -0.80991881       0.41669056       0.10049770      -0.00365640       0.00229474      -0.00304242
H        4.69049877      -1.00620417      -1.23185928       0.09264462       0.00317709       0.00518452      -0.00179643
H        4.84695763       0.61555773      -0.53975973       0.09326448       0.00367159      -0.00235299       0.00438137
C       -2.16930192      -0.56764809      -1.60050002      -0.13190457       0.00465907      -0.00495634       0.00219068
C       -3.43190512      -1.14472714      -1.59401285      -0.13845617      -0.00003842       0.00639472       0.00180419
C       -4.00681739      -1.51396982      -0.39189826      -0.14479581      -0.00030080      -0.00561673      -0.00425936
C       -3.32046458      -1.30336777       0.79618536      -0.12792973      -0.00774760       0.00233789       0.00041100
C       -2.06156732      -0.72860127       0.78619450      -0.10222655      -0.00251589      -0.00761903      -0.00169440
H       -1.70691871      -0.28610488      -2.53543110       0.12700365      -0.00074212       0.00237192       0.00495883
H       -3.96357608      -1.30766216      -2.51943097       0.14143342       0.00464432      -0.00230122       0.00127871
H       -4.98508958      -1.96772296      -0.37909076       0.13928026      -0.00438086       0.00240786       0.00081645
H       -3.77066720      -1.59340739       1.73335277       0.13854232      -0.00023089       0.00123532       0.00329352
H       -1.54783384      -0.56235657       1.72109946       0.11868075      -0.00288326       0.00137718      -0.00151633
