28
Properties=species:S:1:pos:R:3:charge:R:1:forces:R:3 1_TS=T (SP=-1068.465910644519,U=-1068.23450852,H=-1068.23356431,G=-1068.29430598) energy=-29071.147533648673 pbc="F F F"
C        4.34298367      -0.68981333       0.23808703      -0.13770217      -0.00134621      -0.00000286       0.00031036
C        3.56127051      -0.98215534      -0.87093868      -0.13382730       0.00115534      -0.00238714       0.00057558
C        2.22272952      -0.63518093      -0.88392235      -0.09507002      -0.00066287      -0.00098097      -0.00083608
C        1.64247348      -0.00881029       0.20854529       0.05840952      -0.00100408       0.00225737      -0.00053947
C        2.43363055       0.29402704       1.30778634      -0.13987595      -0.00170464       0.00396796       0.00339980
C        3.77821480      -0.04809922       1.32415367      -0.13290170      -0.00050186       0.00279799      -0.00098626
C        0.19075150       0.33764562       0.23682160      -0.01980053      -0.00148666      -0.00286393      -0.00343930
C       -0.79639420      -0.63353913       0.06286170      -0.01739132      -0.00030740      -0.00194764      -0.00222354
C       -0.56031238      -1.80203944      -0.70676021       0.25132257      -0.00303188       0.00053810       0.00136311
N       -0.34109253      -2.71759700      -1.36920008      -0.37827402      -0.00099801       0.00091430       0.00149784
C       -2.16372942      -0.35124279       0.50564426       0.43420371      -0.00059829       0.00228949       0.00118954
O       -2.50494167       0.61999164       1.14355796      -0.41815349      -0.00165700       0.00012091      -0.00617918
O       -3.02050994      -1.30928353       0.11906324      -0.25021407       0.00184763      -0.00132497       0.00263622
C       -4.37062722      -1.14074891       0.56488440      -0.08150413      -0.00000143      -0.00169754      -0.00084189
S       -0.06201548       1.77509669      -1.57819654      -0.14945124       0.00172139       0.00214041       0.00577361
C       -1.64795946       2.39119807      -1.10758872      -0.22417213      -0.00123679       0.00342209       0.00502913
H       -0.07170194       1.11295965       0.94634167       0.11899202       0.00050926      -0.00250302      -0.00346081
H       -1.79424182       3.35643314      -1.59349276       0.13159464       0.00043593      -0.00010287       0.00004325
H       -1.74644904       2.51447897      -0.03387446       0.09668972       0.00088414      -0.00499829      -0.00094139
H       -2.44476426       1.71966453      -1.41293825       0.09912156       0.00366552      -0.00194708      -0.00104636
H       -4.40684628      -1.09212802       1.65128953       0.09678564      -0.00310944       0.00101153       0.00287277
H       -4.79556533      -0.22518572       0.15515108       0.09105770       0.00377996       0.00143870       0.00109850
H       -4.91616352      -2.00540538       0.20210932       0.10419389      -0.00117117      -0.00067314       0.00146932
H        1.99914491       0.80156069       2.15660504       0.13563849       0.00009589       0.00367734      -0.00657336
H        4.38355689       0.18801946       2.18544506       0.14327930       0.00261549      -0.00555510       0.00245987
H        5.38779662      -0.95902238       0.25309203       0.14204615      -0.00104184       0.00012772       0.00698037
H        3.99241910      -1.48240570      -1.72463174       0.14231679       0.00265732       0.00417665      -0.00755658
H        1.60926053      -0.83692212      -1.74710030       0.13268641       0.00049178      -0.00189550      -0.00207515
