18
Properties=species:S:1:pos:R:3:charge:R:1:forces:R:3 20_TS=T (SP=-725.073220992461,U=-724.91569609,H=-724.91475188,G=-724.96008648) energy=-19726.693917699773 pbc="F F F"
N       -2.84706586      -0.25246071      -0.13301806      -0.42772049       0.00340687       0.00260863       0.00434788
C       -1.84151220       0.55322812       0.33069264       0.45135793       0.00081624      -0.00106362       0.00131484
C       -0.92515907      -0.02373591       1.28674216      -0.25634760      -0.00049250      -0.00112558      -0.00007071
C        0.28578977       0.70718432       1.50988505      -0.09224346      -0.00203548      -0.00043473      -0.00198368
O       -1.69745572       1.69410306      -0.09951731      -0.47147503      -0.00034520      -0.00034230       0.00083868
S        0.92117233      -0.43845346       0.10661750      -0.14211091       0.00279397       0.00572636      -0.00193292
C        2.71709113      -0.23678547      -0.25151672      -0.18260768      -0.00346693       0.00173314       0.00070678
H       -1.03654512      -0.99370922       1.73600536       0.12781496      -0.00195046      -0.00003826      -0.00167723
H        0.24775361       1.73513077       1.16348962       0.13252683       0.00301674       0.00073569       0.00085328
H        0.81987227       0.55218894       2.44257430       0.12128582      -0.00277867       0.00117187      -0.00006930
H        3.00043037       0.73460733      -0.66466149       0.10011594      -0.00186890      -0.00070224       0.00007048
H        3.36997805      -0.46890925       0.59270989       0.09877308      -0.00047672      -0.00523269       0.00013488
H        2.86078712      -0.99380934      -1.02240794       0.09993558       0.00364210       0.00106464      -0.00170008
C       -3.78443423       0.23761569      -1.12299063      -0.12079158       0.00516617      -0.00201358       0.00052225
H       -2.94179108      -1.17146656       0.24633539       0.29207495      -0.00631229       0.00196213      -0.00130029
H       -3.26698789       0.48707858      -2.04709547       0.08907478      -0.00142497      -0.00037659      -0.00074128
H       -4.26439550       1.14678590      -0.76828895       0.08971233       0.00270892      -0.00351081      -0.00137054
H       -4.53764776      -0.52036891      -1.32366256       0.09062456      -0.00039893      -0.00016211       0.00205632
