23
Properties=species:S:1:pos:R:3:charge:R:1:forces:R:3 22=T (SP=-518.030889799618,U=-517.82886014,H=-517.82791593,G=-517.8765626) energy=-14095.967919511357 pbc="F F F"
N       -3.15772234      -0.15528604       0.10424518      -0.39288142      -0.00580077       0.00162080       0.00308942
C       -1.91262845       0.38299570       0.04478962       0.43009511      -0.00426171       0.00059367       0.00138988
C       -0.92653098      -0.17748874       1.01440437      -0.15506150      -0.00151159      -0.00406137      -0.00334971
C        0.32319130       0.26011799       1.03282119      -0.28212819      -0.00027806      -0.00071191      -0.00263999
O       -1.63354125       1.26276378      -0.74897371      -0.46734282       0.00425349       0.00294114       0.00133722
H       -1.26992526      -0.94543529       1.69587848       0.12109543       0.00099582      -0.00384033      -0.00179614
H        0.63117031       1.02593416       0.33552021       0.16042893      -0.00275737       0.00528570       0.00507635
H        1.05284891      -0.12803331       1.73029980       0.14698640      -0.00117258      -0.00251826      -0.00623041
C       -4.22289120       0.34584758      -0.75320254      -0.03363067      -0.00444490      -0.00359532      -0.00013468
H       -3.36280085      -0.88500101       0.75866807       0.26343724      -0.00188269      -0.00107822       0.00367296
H       -3.84432394       0.37321010      -1.77219790       0.10173745      -0.00406121       0.00101712       0.00516657
H       -4.44169776       1.37803848      -0.48035972       0.09392239       0.00081854      -0.00695540       0.00002544
C       -5.45720351      -0.51081662      -0.64684055       0.02290439      -0.00016640       0.00465717      -0.00819519
C       -6.41633327      -0.25715866       0.32918986      -0.13892829       0.00779792       0.00155110      -0.00152091
C       -5.65262816      -1.57974380      -1.51570850      -0.13763283       0.00318232      -0.00321632       0.00086934
C       -7.54599751      -1.05524954       0.43686827      -0.12982200       0.00402690       0.00760039      -0.00504355
H       -6.27889237       0.57659538       1.00523449       0.12723395      -0.00024459       0.00313846       0.00265745
C       -6.78332364      -2.37713361      -1.41393934      -0.13074742       0.00038609       0.00233764       0.00131097
H       -4.91219168      -1.78678889      -2.27692840       0.12835728       0.00208715       0.00142868       0.00009460
C       -7.73199791      -2.11680131      -0.43629042      -0.13790593       0.00042084      -0.00358355       0.00473698
H       -8.28049068      -0.84744641       1.20160577       0.13617234       0.00154663       0.00283571      -0.00407409
H       -6.92241536      -3.20179945      -2.09810608       0.13613477       0.00514363      -0.00022208       0.00306734
H       -8.61204905      -2.73816185      -0.35560837       0.13757551      -0.00407774      -0.00522445       0.00049021
