29
Properties=species:S:1:pos:R:3:charge:R:1:forces:R:3 25_carbanion=T (SP=-1031.557204628478,U=-1031.30768005,H=-1031.30673584,G=-1031.3653304) energy=-28066.474436137203 pbc="F F F"
N       -2.99401824      -0.35196106      -0.04820598      -0.33668846       0.00010748      -0.00149450      -0.00104084
C       -1.98930508       0.44364118       0.47808525       0.43191877       0.00068763      -0.00223734       0.00315546
C       -0.94331243      -0.29082189       1.10046885      -0.25876102      -0.00023630       0.00291894      -0.00583140
C        0.32489281       0.38689629       1.24311499      -0.09798957      -0.00397892      -0.00057977       0.00309117
O       -1.94850231       1.66524491       0.33655332      -0.43502223       0.00276847       0.00140524      -0.00278394
S        0.66484181      -0.28415430      -0.46904239      -0.13134076      -0.00109873      -0.00056874      -0.00274760
C        2.37358345       0.13967716      -1.00058326      -0.18383430      -0.00334611       0.00494266      -0.00406955
H       -2.90949287      -1.33481953       0.12274133       0.26013151       0.00182693       0.00038494      -0.00179612
H        0.23795338       1.46892150       1.21129802       0.12421393      -0.00125918      -0.00079514      -0.00221316
H        1.01256747       0.01372604       1.99841467       0.11809617       0.00006883       0.00017516       0.00021526
H        2.55486135       1.20214245      -1.18091252       0.10091574      -0.00286940       0.00136676       0.00227139
H        3.14030041      -0.24320161      -0.32466971       0.09785932      -0.00071457      -0.00072234       0.00554021
H        2.45423600      -0.38630329      -1.95073846       0.10484567       0.00110324      -0.00142613      -0.00339040
C       -4.12383028       0.04613241      -0.76655528       0.09530541       0.00103158       0.00143055       0.00288117
C       -4.96371682      -0.95235493      -1.26619877      -0.16328509       0.00641404      -0.00005801       0.00198781
C       -6.09585000      -0.62556120      -1.97337309      -0.16934502       0.00271051       0.00132911       0.00133292
C       -6.41735506       0.71345886      -2.19640349       0.15064402       0.00090464      -0.00133368       0.00144612
C       -5.58312654       1.70855406      -1.70305585      -0.16618793      -0.00165722       0.00045878       0.00265599
C       -4.43441926       1.38393215      -0.99133384      -0.12618227       0.00302846       0.00074519      -0.00037449
H       -4.71216667      -1.99230035      -1.09596741       0.12883246      -0.00291454      -0.00148815       0.00233185
H       -6.75345598      -1.38617287      -2.36774365       0.13569856      -0.00478194      -0.00294036      -0.00061947
H       -3.76848733       2.13973245      -0.60689781       0.13592215      -0.00339379      -0.00014455       0.00357431
H       -5.81524238       2.75008230      -1.86572279       0.12890977       0.00084814       0.00235249      -0.00208672
H       -1.02843849      -1.34079838       1.32180126       0.12935205      -0.00166237      -0.00443804       0.00116779
O       -7.55875117       0.93717892      -2.90385448      -0.24230003       0.00082926       0.00148855      -0.00295082
C       -7.92938743       2.27945003      -3.14819260      -0.08152057       0.00130552      -0.00079818      -0.00312399
H       -8.84091346       2.24078194      -3.73591817       0.09560654      -0.00025978      -0.00087303       0.00571287
H       -8.12571070       2.81550144      -2.21730423       0.07736976       0.00595282      -0.00039651      -0.00006180
H       -7.16132778       2.80856431      -3.71547058       0.07683555      -0.00141549       0.00129639      -0.00427418
