30
Properties=species:S:1:pos:R:3:charge:R:1:forces:R:3 27_adduct=T (SP=-899.034076371654,U=-898.75309326,H=-898.75214905,G=-898.80927125) energy=-24463.383309643916 pbc="F F F"
N       -3.50680387       0.22042917       0.36460116      -0.42636454       0.00465970       0.00266530       0.00420754
C       -2.39785949       0.88349220       0.76514685       0.42865688       0.00597367       0.00050825       0.00310899
C       -1.61794965       0.24046212       1.89479396      -0.14828143       0.00805384      -0.00070300      -0.00039490
H       -1.67902293       0.91151634       2.75020820       0.09341215      -0.00526679      -0.00253398       0.00017969
C       -0.15073479       0.08951445       1.50347168      -0.03688306       0.00268644      -0.00286063      -0.00432909
O       -2.04193586       1.93157019       0.25580231      -0.46612704      -0.00339204       0.00183908       0.00013213
S       -0.04346994      -1.21190158       0.23661639      -0.18331628       0.00667414       0.00701959       0.00173540
C        1.58809627      -0.86391514      -0.44497598      -0.19576354      -0.00212854      -0.00123658       0.00254362
H       -2.03246039      -0.72140345       2.19900960       0.07397534       0.00260750       0.00123368      -0.00704998
H        0.17149770       1.02155059       1.04335133       0.10969740      -0.00772831      -0.00076512      -0.00154895
C        0.72836128      -0.23134599       2.70916518      -0.03606297      -0.00539044      -0.00181161      -0.00524134
H        1.63917842       0.14549631      -0.84642208       0.09070194      -0.00291879      -0.00589010       0.00215648
H        2.37620213      -1.01100712       0.28845410       0.08068787      -0.00149862      -0.00059267      -0.00452983
H        1.73297007      -1.56914708      -1.25885238       0.11605712       0.00342614       0.00070472       0.00545262
C       -4.32382603       0.70063870      -0.73301606      -0.10804088       0.00085654      -0.00031815      -0.00021085
H       -3.69778264      -0.67566986       0.76929862       0.28138682       0.00388365       0.00256718       0.00596266
H        1.77513651      -0.32774662       2.39223917       0.05896325      -0.00706476       0.00274047       0.00333374
H        0.42233590      -1.20496208       3.09463051       0.07756876      -0.00036028       0.00062129      -0.00121837
N        0.60475777       0.74582332       3.78059030      -0.24637187      -0.00650690      -0.00202761      -0.00367105
C        1.11350243       2.05115042       3.39952652      -0.12985359       0.00072043      -0.00171627       0.00123284
C        1.27045759       0.27631346       4.98043025      -0.14085443      -0.00102627       0.00294858      -0.00244481
H        0.86282975      -0.68868537       5.27343019       0.07449828       0.00332226       0.00299066      -0.00080322
H        1.09496803       0.97775754       5.79325839       0.08107926       0.00285254      -0.00063603       0.00384971
H        2.35836075       0.16769922       4.85234371       0.06078341       0.00003934      -0.00222487       0.00086897
H        0.52205538       2.48440320       2.59738875       0.07752836       0.00097481      -0.00338987       0.00264417
H        2.16426915       2.01508797       3.07755707       0.06110370       0.00029459      -0.00348302      -0.00546074
H        1.05113321       2.72448895       4.25269657       0.08335507      -0.00402835       0.00349666      -0.00007879
H       -3.76538153       0.69709390      -1.66756725       0.08681481       0.00281376       0.00442507      -0.00401643
H       -5.19869424       0.06446828      -0.83524240       0.09187863      -0.00093642      -0.00515404       0.00115887
H       -4.64346441       1.72170456      -0.54146558       0.08977064      -0.00159257       0.00158295       0.00243115
