29
Properties=species:S:1:pos:R:3:charge:R:1:forces:R:3 29_adduct_syn=T (SP=-956.833446240724,U=-956.57477351,H=-956.5738293,G=-956.62958611) energy=-26036.988589164608 pbc="F F F"
N       -2.99775800       0.14750727       0.14663876      -0.32754910      -0.00296203       0.00490507       0.00282967
C       -1.99119042       0.92351352       0.63650657       0.41972581      -0.00053698       0.00101441      -0.00153913
C       -1.03096718       0.24440412       1.61774990      -0.08631737      -0.00189519      -0.00232554      -0.00364410
C        0.37031033       0.27562839       1.01212952      -0.13055331       0.00070937       0.00013699       0.00376610
O       -1.81474965       2.08650579       0.33798759      -0.44217640      -0.00332469      -0.00432500      -0.00304331
S        0.47562662      -0.84662515      -0.40682725      -0.18029222      -0.00139051      -0.00448178      -0.00701565
C        2.12513765      -0.40834475      -0.97564914      -0.20034757       0.00309782      -0.00115861       0.00274986
H       -3.01276955      -0.80390241       0.46029547       0.24546607       0.00207175       0.00612317      -0.00101006
H        0.58820263       1.28874310       0.68293686       0.09862190       0.00321637       0.00140537      -0.00005727
H        1.10538199      -0.02870081       1.75546186       0.09183548       0.00421447       0.00041376       0.00590768
H        2.18484287       0.64815874      -1.22462151       0.09187274      -0.00178854      -0.00106059       0.00347848
H        2.88319885      -0.65189510      -0.23537775       0.09200319       0.00562527       0.00139692      -0.00111394
H        2.31515858      -0.98759361      -1.87497011       0.11625457       0.00246329      -0.00200151       0.00444695
C       -4.00822779       0.48581996      -0.78055214       0.13939266      -0.00251730       0.00301109       0.00206650
C       -4.92797162      -0.51109900      -1.10194667      -0.15732917       0.00012337      -0.00129316       0.00042623
C       -5.94885433      -0.26306651      -2.00125523      -0.14490940      -0.00005806      -0.00489249      -0.00402699
C       -6.06451080       0.98416068      -2.59717135      -0.15772666       0.00256907      -0.00058525      -0.00050620
C       -5.14628918       1.97145457      -2.27682424      -0.13785318      -0.00103037       0.00227973       0.00072389
C       -4.11845433       1.73838850      -1.37483694      -0.11445294      -0.00135935       0.00074264      -0.00080500
H       -4.83667263      -1.48809110      -0.64346471       0.12612949      -0.00633787      -0.00224516       0.00331573
H       -6.65390791      -1.04631827      -2.23826686       0.13481392      -0.00579967      -0.00532285      -0.00455941
H       -3.40671555       2.50624118      -1.13110446       0.13650744      -0.00315532      -0.00108809       0.00109492
H       -1.00806800       0.93146847       2.46482934       0.09845032       0.00107479      -0.00758217      -0.00432021
C       -1.42844222      -1.13874680       2.12192948      -0.20150106       0.00067168       0.00414138       0.00124470
H       -0.71630906      -1.45176470       2.88330145       0.07984065       0.00172039       0.00170311      -0.00548944
H       -2.41703091      -1.13003990       2.58006127       0.07240432       0.00205610      -0.00109864      -0.00494670
H       -1.40564062      -1.88850689       1.33248992       0.06859531       0.00203869       0.00553076       0.00493848
H       -5.22274296       2.94726831      -2.73422623       0.13312368       0.00125633       0.00301303       0.00055097
H       -6.85814848       1.18060573      -3.30288572       0.13597088      -0.00075305       0.00364322       0.00453778
