27
Properties=species:S:1:pos:R:3:charge:R:1:forces:R:3 30=T (SP=-703.867876260484,U=-703.6404896,H=-703.63954539,G=-703.69262941) energy=-19153.41461947595 pbc="F F F"
N       -3.19061263       0.22094006      -0.07543835      -0.34774444       0.00225115      -0.00404091       0.00034187
C       -1.86127667       0.46106029      -0.31072058       0.43737981      -0.00040657      -0.00167695      -0.00409937
C       -0.92790044      -0.15853722       0.69855829       0.00473376      -0.00356364       0.00155961      -0.00204146
C        0.37377748      -0.02476690       0.48098659      -0.31533280      -0.00214833       0.00171353      -0.00015737
O       -1.45940603       1.10933702      -1.25467627      -0.44203526      -0.00050956      -0.00051020       0.00507952
H       -3.40058662      -0.44516293       0.64358329       0.25416991      -0.00418149       0.00097790       0.00082915
H        0.72735640       0.50927580      -0.38658067       0.15757118       0.00160065       0.00279251       0.00112352
H        1.09281158      -0.44660256       1.16802988       0.14679284       0.00218765       0.00431038       0.00011194
C       -4.27966484       0.61965319      -0.87609926       0.09995899       0.00477230      -0.00194185       0.00136370
C       -5.42021296      -0.13225317      -0.83445245      -0.19683823       0.00053796       0.00445995       0.00687212
C       -4.22267147       1.78936084      -1.67880056      -0.11281185       0.00530713      -0.00331783      -0.00272499
C       -6.54341272       0.24561269      -1.59895307       0.07873131       0.00027146      -0.00563684      -0.00360948
C       -5.30639253       2.16854496      -2.41161915      -0.15588044       0.00062425      -0.00249869      -0.00046967
H       -3.31711006       2.36948219      -1.69562225       0.13764364       0.00373669       0.00238679       0.00376645
C       -7.75804072      -0.47907631      -1.62810411       0.08564625      -0.00440921       0.00027532       0.00192896
C       -6.49652149       1.40320623      -2.39622914       0.25987679      -0.00584163       0.00149017       0.00346012
H       -5.27956561       3.05840827      -3.02242270       0.13105857       0.00116731      -0.00213772      -0.00554268
C       -8.62776745       1.02649728      -3.07492711       0.25780341      -0.00212353       0.00237846       0.00306645
H       -9.48652451       1.32119049      -3.66424979       0.06840876       0.00469284       0.00416920       0.00029170
N       -7.57069204       1.78646801      -3.14056291      -0.40490550      -0.00236544       0.00128916      -0.00473097
N       -8.78538440      -0.10942682      -2.34400211      -0.39414945      -0.00438445      -0.00089325      -0.00223853
H       -7.86300076      -1.38408394      -1.03881383       0.08870272      -0.00008312      -0.00022591       0.00163907
H       -5.46223968      -1.02396494      -0.22080632       0.12222072       0.00043867      -0.00298173      -0.00392179
C       -1.48076667      -0.89001573       1.88822810      -0.20114984      -0.00033385      -0.00050450       0.00007586
H       -2.16911986      -0.26670858       2.46195376       0.07582130       0.00184187      -0.00418478       0.00349367
H       -2.01495742      -1.79694827       1.59438903       0.07453480      -0.00162509       0.00105584      -0.00321443
H       -0.67016609      -1.18707689       2.54871789       0.08979321       0.00254537       0.00169205      -0.00069381
