29
Properties=species:S:1:pos:R:3:charge:R:1:forces:R:3 7_carbanion=T (SP=-1065.612338326724,U=-1065.37194084,H=-1065.37099663,G=-1065.43039421) energy=-28993.49889885117 pbc="F F F"
C       -1.85124095       1.65981836      -0.68664645      -0.19056822       0.00235857      -0.00129686       0.00260218
H       -2.57365060       0.97078309      -0.26392843       0.08365412      -0.00064729      -0.00106737       0.00213115
H       -1.77062552       1.50166673      -1.75902257       0.08696236      -0.00112749       0.00259189      -0.00337527
S       -0.25303123       1.45762793       0.12292754      -0.14608029       0.00022407       0.00004932       0.00158204
C        1.41802107      -0.66280125       0.14717368       0.04377292       0.00029181       0.00082562      -0.00015311
C        0.19424895      -0.21028444      -0.54188832      -0.04737165       0.00129419      -0.00159020       0.00108881
H        0.39147649      -0.05794090      -1.60683505       0.08845715      -0.00161979      -0.00088725       0.00170271
C       -0.94439770      -1.18583403      -0.38522744       0.05793506       0.00088761       0.00084492       0.00060303
C       -1.43730134      -1.86120126      -1.49153999      -0.13872480       0.00132293       0.00166235      -0.00073772
C       -1.52672020      -1.38945542       0.85805678      -0.09658461       0.00196643       0.00074282       0.00089391
C       -2.50298296      -2.74203225      -1.35729300      -0.13503663       0.00330488      -0.00141867       0.00020890
H       -0.98729969      -1.70313498      -2.46147824       0.12423902      -0.00144850       0.00088513      -0.00206538
C       -2.60573077      -2.24531993       0.98641026      -0.13403852      -0.00035102       0.00280731       0.00036057
H       -1.12148300      -0.89003670       1.72701056       0.12409080      -0.00191674       0.00123886       0.00012257
C       -3.09360130      -2.93020266      -0.11999600      -0.14232320       0.00093181      -0.00142159       0.00100150
H       -2.87039238      -3.27754206      -2.22023760       0.13965173      -0.00064274      -0.00122463       0.00002961
H       -3.05500416      -2.39062377       1.95832507       0.13886461       0.00077295      -0.00148486       0.00097331
H       -3.92468079      -3.61117375      -0.01071546       0.14097233       0.00033614      -0.00269381      -0.00113216
C        1.44336557      -1.73091179       1.07230975       0.25318557      -0.00097160       0.00391870      -0.00433216
N        1.44407484      -2.60137004       1.83225234      -0.38356993      -0.00049269      -0.00378823       0.00168799
N        2.59077436      -0.05029015      -0.11253833       0.15655142      -0.00317860       0.00278460       0.00332070
C        2.82817296       1.00126343      -0.97431757      -0.07538836      -0.00155886      -0.00039012      -0.00297337
C        4.67163442       0.33795715       0.04215158       0.00459277      -0.00113011      -0.00098620       0.00244801
C        4.15957018       1.27499980      -0.90067923      -0.21300837       0.00066252       0.00131085       0.00219507
H        2.03681325       1.46535170      -1.53082040       0.12127464       0.00051303       0.00032934      -0.00122557
H        5.68309890       0.21540340       0.39151279       0.14263664       0.00210178      -0.00050189       0.00065649
H        4.68876038       2.04050957      -1.43807876       0.16552214      -0.00001860      -0.00156024      -0.00174798
N        3.72863080      -0.45075772       0.50981680      -0.29746860      -0.00133030      -0.00353231      -0.00295260
H       -2.16352382       2.68275962      -0.49891387       0.12779997      -0.00053535       0.00385276      -0.00291416
