17
Properties=species:S:1:pos:R:3:charge:R:1:forces:R:3 8_adduct=T (SP=-670.202431432085,U=-670.04908987,H=-670.04814566,G=-670.09258187) energy=-18237.36544498529 pbc="F F F"
H       -2.27565014       3.51082615       0.03831288       0.11812749      -0.00485109       0.00142790      -0.00135924
C       -1.32525286       2.98453735       0.03263337      -0.20343937      -0.00123135       0.00203404       0.00044823
S       -1.68741679       1.21905239      -0.01261742      -0.20024899       0.00344070      -0.00314473      -0.00236122
C        0.00586902       0.58589676       0.00203982      -0.11586835      -0.00021359       0.00510183       0.00169731
C       -0.04198756      -0.92741753      -0.01447382      -0.13792093      -0.00195576       0.00439631       0.00335946
C        1.34046776      -1.55657349       0.01667926       0.36381188      -0.00373056       0.00024538      -0.00817178
O        2.33952889      -0.87917555       0.03052028      -0.40552771      -0.00332176      -0.00413625       0.00122460
C        1.38589345      -3.06653870       0.03124047      -0.24049683       0.00153766      -0.00117433      -0.00256298
H        2.41560239      -3.40529287       0.00131693       0.09589776       0.00568232       0.00263873       0.00286333
H       -0.77300370       3.24568874       0.93206106       0.09425615       0.00194043       0.00496785       0.00102527
H       -0.75827114       3.29042015      -0.84323012       0.09454799       0.00377526      -0.00210960      -0.00059798
H        0.52100279       0.93642090       0.89162842       0.10602177       0.00032597       0.00093790       0.00313707
H        0.54639855       0.95765002      -0.86353208       0.10602982      -0.00207658      -0.00102093      -0.00222814
H       -0.61234928      -1.30545330       0.83696181       0.08065841      -0.00012507      -0.00439126       0.00217766
H       -0.56308901      -1.28963413      -0.90379896       0.08143343       0.00285328      -0.00027963       0.00439828
H        0.90194855      -3.44395768       0.93268916       0.08199153      -0.00240430      -0.00210269      -0.00307991
H        0.83677741      -3.47284804      -0.81827491       0.08072606       0.00035452      -0.00339065       0.00003026
