21
Properties=species:S:1:pos:R:3:forces:R:3 21_carbanion=T (SP=-1062.283572215095,U=-1062.11711394,H=-1062.11616973,G=-1062.16997221) charge=-1 spin=1 energy=-117.31773376464844 free_energy=-117.31773376464844 stress="0.0 0.0 0.0 0.0 0.0 0.0 0.0 0.0 0.0" pbc="F F F"
N       -2.54482318      -0.15366823      -0.34050635       0.00685456       0.00160253       0.00436857
C       -1.31947210       0.37322286       0.00672123      -0.00220469       0.00498334      -0.00754863
C       -0.68680982      -0.21805006       1.15889411       0.00506711      -0.00147082       0.00113834
C        0.61570818       0.28339195       1.59882578      -0.00068775       0.00250164       0.00013387
O       -0.77291392       1.26874634      -0.68005758      -0.00265533      -0.00593615       0.00405717
S        1.71798685      -1.00178294       0.86188966      -0.00005183      -0.00099411      -0.00203720
C        2.11402672      -0.17047825      -0.68714976       0.00113741      -0.00018974       0.00099003
H       -1.18841194      -1.02444978       1.69576209      -0.00359154      -0.00228338       0.00125016
H        0.86535380       1.25307075       1.14043507      -0.00040052       0.00042823      -0.00023299
H        1.19896978       0.25596665      -1.12254746      -0.00248834       0.00003287      -0.00067940
H        2.85978045       0.61682794      -0.52821251      -0.00054365      -0.00131472       0.00106027
H        2.53366635      -0.93646496      -1.35033017      -0.00084406       0.00253694       0.00255895
C       -3.31729595       0.40723870      -1.43025324      -0.00255354      -0.00202242      -0.00408122
H       -3.00578791      -0.78699726       0.30075762      -0.00117337      -0.00126384       0.00045965
H       -2.62956827       0.65217131      -2.24952386       0.00236131      -0.00145455      -0.00109169
H       -4.06021852      -0.32193679      -1.77491331      -0.00174528       0.00079296      -0.00079916
H       -3.83832712       1.33496171      -1.14706509       0.00033378       0.00325341       0.00097691
C        0.80773933       0.37796956       3.11073090       0.00146781       0.00126546       0.00081949
F       -0.11859073       1.22267535       3.64508394      -0.00039870      -0.00105723       0.00015672
F        0.65484975      -0.83761954       3.71662672       0.00132356      -0.00002524      -0.00088090
F        2.03844629       0.85520812       3.42802963       0.00079326       0.00061481      -0.00061883
