34
Properties=species:S:1:pos:R:3:forces:R:3 28_adduct=T (SP=-938.842670639807,U=-938.51666358,H=-938.51571937,G=-938.57495332) charge=0 spin=1 energy=-184.96580505371094 free_energy=-184.96580505371094 stress="0.0 0.0 0.0 0.0 0.0 0.0 0.0 0.0 0.0" pbc="F F F"
N       -3.17509863       0.51360877       0.20809020       0.00096223       0.00542395      -0.00130440
C       -2.02691043       0.65920798       0.90005845      -0.00618780      -0.00527409      -0.00384054
C       -1.26986672      -0.63134529       1.18619849       0.00290823       0.00028555      -0.00287404
H       -1.81808068      -1.19919669       1.96264536       0.00237183       0.00326300       0.00168249
C        0.19303737      -0.41685141       1.58018394       0.00108416       0.00631818       0.00732903
O       -1.63209854       1.77500082       1.30097497       0.00479984      -0.00422194      -0.00344798
S        1.26997228      -1.74515716       0.86886813       0.00088048      -0.00188906      -0.00473621
C        1.45059138      -1.15235527      -0.83120433      -0.00026763       0.00614124      -0.00159401
H       -1.32059076      -1.26447016       0.28519523      -0.00063344       0.00009750       0.00498566
H        0.54878374       0.51853158       1.12278353      -0.00185248      -0.00702013       0.00554471
C        0.49042911      -0.44209601       3.08199637       0.00282036       0.00640124       0.00146861
H        0.48213398      -1.05913997      -1.34145476       0.00187589       0.00144719       0.00238314
H        1.98754805      -0.19498462      -0.87399100      -0.00495383      -0.00218424       0.00106155
H        2.04497281      -1.91145396      -1.35422206       0.00054081      -0.00261849      -0.00124475
C       -4.01643184       1.64885159      -0.11656558      -0.00263965      -0.00467852      -0.00078648
H       -3.46695986      -0.40494738      -0.10174437      -0.00132638      -0.00132012      -0.00258426
H        1.54808247      -0.71273888       3.21168282      -0.00127289      -0.00277523      -0.00206184
H       -0.10850302      -1.21261326       3.59046377      -0.00086911       0.00172354       0.00026736
N        0.31822028       0.83237099       3.92190847       0.00254486      -0.00367465      -0.00350206
C        0.85221500       2.04305643       3.20688167      -0.00500805      -0.00173931      -0.00681596
C        1.10183653       0.62228415       5.18261298       0.00054190       0.00107374       0.00162638
H        0.72925454      -0.27663450       5.68418046       0.00218850      -0.00070594      -0.00081868
H        0.97170462       1.49401387       5.83142498      -0.00456906      -0.00479102      -0.00031594
H        2.15916663       0.49843366       4.92989619       0.00364047       0.00085024      -0.00350067
H        0.17929308       2.26562820       2.36902445       0.00039333      -0.00388031       0.00267406
H        1.87050432       1.82575891       2.86641332      -0.00340691       0.00369603       0.00218622
H        0.87194266       2.87632108       3.91743352       0.00273794       0.00132123       0.00430516
H       -3.46961742       2.37164729      -0.73393689       0.00144214       0.00723252      -0.00119071
H       -4.89545521       1.29699620      -0.66609381       0.00007641       0.00148731       0.00171681
H       -4.34373554       2.16109038       0.79716520       0.00592438      -0.00394139       0.00021645
C       -1.11887707       1.06837622       4.28744765      -0.00640002      -0.00004980       0.00510718
H       -1.66722702       1.32407917       3.37391554      -0.00405519      -0.00143102       0.00025964
H       -1.51103422       0.16423903       4.76416462       0.00218888       0.00482168      -0.00018632
H       -1.16016483       1.89959523       5.00026217       0.00352006       0.00061132      -0.00200962
