18
Properties=species:S:1:pos:R:3:forces:R:3 3_carbanion=T (SP=-837.277652818271,U=-837.13061774,H=-837.12967353,G=-837.17856014) charge=-1 spin=1 energy=-106.93717193603516 free_energy=-106.93717193603516 stress="0.0 0.0 0.0 0.0 0.0 0.0 0.0 0.0 0.0" pbc="F F F"
S       -1.93495185      -0.51941665      -0.65717881      -0.00107916       0.00161087       0.00344114
C       -3.25699000      -1.45212246       0.13365969      -0.00167899      -0.00015655      -0.00260000
H       -3.93989338      -1.76911793      -0.66446852      -0.00054266      -0.00118926      -0.00032078
H       -2.87741414      -2.34560611       0.64716998       0.00253613      -0.00128979       0.00175684
H       -3.81718567      -0.83542028       0.84974221      -0.00038317       0.00112155      -0.00381936
C       -0.90263435      -0.06467492       0.78833261      -0.00254371       0.00124767       0.00266692
H       -0.52475684      -0.98571591       1.24993853      -0.00398059      -0.00100610      -0.00005683
H       -1.53967337       0.50287154       1.48053758       0.00497775      -0.00067187      -0.00264788
C        0.22362035       0.75771681       0.25248881       0.00021511      -0.00635761      -0.00703687
C        0.02941769       2.11651554       0.01947559      -0.00025314       0.00820875      -0.00050249
N       -0.25060669       3.24808062      -0.14480208       0.00228434      -0.00290155       0.00533982
C        1.49223484       0.17225405      -0.07700037       0.00511469       0.00630227      -0.00053301
O        2.47107825       0.73487402      -0.55996896      -0.00530960      -0.00219890       0.00268014
O        1.49141444      -1.18652603       0.22291607       0.00201943       0.00120702       0.00124291
C        2.70615142      -1.88171466      -0.08692935      -0.00444986      -0.00040482       0.00194312
H        2.54234121      -2.92982538       0.19762583       0.00126451      -0.00054818      -0.00107517
H        3.55063094      -1.45805727       0.47849494       0.00434574      -0.00094654       0.00163611
H        2.93441020      -1.80426240      -1.16094852      -0.00253692      -0.00202682      -0.00211459
