17
Properties=species:S:1:pos:R:3:forces:R:3 4_adduct=T (SP=-778.56307982802,U=-778.41876069,H=-778.41781648,G=-778.46385626) charge=0 spin=1 energy=-100.8569564819336 free_energy=-100.8569564819336 stress="0.0 0.0 0.0 0.0 0.0 0.0 0.0 0.0 0.0" pbc="F F F"
C        2.34535505      -0.98218896      -0.55086817       0.00054343       0.00129759       0.00285122
H        2.60033898       0.03715282      -0.87306058       0.00014242      -0.00026754       0.00113053
H        2.06551902      -1.58392802      -1.42547519       0.00258378      -0.00101508      -0.00384361
S        1.04006486      -0.98742357       0.68918330      -0.00094913      -0.00163877      -0.00213005
C       -2.20483784      -1.88196373       0.08151429       0.00105208      -0.00444502      -0.00250778
O       -1.65378138      -2.62375714      -0.72427496       0.00000398       0.00351668      -0.00286339
C       -1.63501495      -0.49679538       0.48164962      -0.00033516       0.00030597      -0.00521624
H       -1.46258576      -0.53505287       1.57853463       0.00083628      -0.00045988       0.00240546
C       -0.30925645      -0.20899376      -0.23524603       0.00018984      -0.00633098       0.00299954
H       -0.34843094      -0.64057153      -1.24423760      -0.00384018       0.00192997      -0.00513907
H       -0.15408781       0.87645551      -0.30929064       0.00288188       0.00335574      -0.00000427
C       -2.65444509       0.52988789       0.25889477       0.00262558      -0.00581536       0.00540797
N       -3.51461374       1.30613677       0.10489214      -0.00666207       0.00597748      -0.00217598
N       -3.36287051      -2.20910122       0.72211113      -0.00169851      -0.00143453       0.00529292
H       -3.80824508      -3.07563641       0.44902462      -0.00042818       0.00181552       0.00184485
H       -3.89082503      -1.52686745       1.25518764      -0.00296688       0.00276161      -0.00107206
H        3.22735857      -1.43227070      -0.07869864       0.00602087       0.00044658       0.00302001
