28
Properties=species:S:1:pos:R:3:forces:R:3 6_carbanion=T (SP=-1081.67090567918,U=-1081.44178501,H=-1081.4408408,G=-1081.49895071) charge=-1 spin=1 energy=-181.93746948242188 free_energy=-181.93746948242188 stress="0.0 0.0 0.0 0.0 0.0 0.0 0.0 0.0 0.0" pbc="F F F"
C        0.42631073       1.95139154       1.35757126       0.00022183       0.00420445      -0.00020778
H        0.08958242       2.97107023       1.58440998      -0.00329481      -0.00411911      -0.00017419
H        1.51671408       1.90630904       1.46769045       0.00159641      -0.00045039       0.00523772
S       -0.09172667       1.64152453      -0.34641333      -0.00084113       0.00432028      -0.00056327
C        1.55868632      -0.57696812       0.13073788      -0.00154842      -0.00418964       0.00433706
C        0.33226528      -0.16627575      -0.61510048       0.00519663      -0.00485300      -0.00224608
H        0.57391768      -0.14416388      -1.68983108       0.00053053      -0.00415675      -0.00148994
C       -0.84923853      -1.10161213      -0.42129792      -0.00470046       0.00363316      -0.00196119
C       -1.26397144      -1.89088932      -1.50069391      -0.00154649       0.00192824      -0.00234443
C       -1.53087479      -1.21292216       0.79565335       0.00422177       0.00161766      -0.00167173
C       -2.34072972      -2.77549972      -1.36827527       0.00305786      -0.00682884       0.00166056
H       -0.73880957      -1.81302450      -2.45525641      -0.00053664       0.00131385       0.00033453
C       -2.60045325      -2.10024221       0.93217812      -0.00161487       0.00375245       0.00488332
H       -1.22122037      -0.60804006       1.64841264       0.00165277       0.00019422       0.00133348
C       -3.00990162      -2.88430992      -0.15031763      -0.00196177       0.00326072       0.00020511
H       -2.64797036      -3.38027481      -2.22488807      -0.00211509       0.00621712       0.00083458
H       -3.10933675      -2.17932103       1.89548625       0.00159037       0.00059967      -0.00357270
H       -3.84930914      -3.57657730      -0.04184204       0.00262690      -0.00222409      -0.00028988
C        1.51088932      -1.38722056       1.26556588      -0.00056836      -0.00371891       0.00489126
N        1.36195600      -2.02242485       2.24429923      -0.00070631       0.00550328      -0.00543112
N        2.77846487      -0.04248392      -0.21394911       0.00424999      -0.00538488      -0.00000122
C        3.09126183       0.85050207      -1.22770074       0.00132512       0.00157442       0.00185791
C        4.85568713       0.37637139      -0.16395814       0.00038183       0.00113732      -0.00200534
H        2.34133152       1.26907069      -1.89495089       0.00061743      -0.00194953       0.00124352
H        5.90381104       0.37018342       0.12753644      -0.00384238      -0.00062166      -0.00075261
N        3.93824192      -0.33532513       0.47282334      -0.00507772       0.00412829      -0.00692219
N        4.37349543       1.11529804      -1.20591537       0.00066524      -0.00235072       0.00349355
H       -0.03922880       1.25864680       2.06807021       0.00041995      -0.00253764      -0.00067918
