29
Properties=species:S:1:pos:R:3:forces:R:3 7_carbanion=T (SP=-1065.612338326724,U=-1065.37194084,H=-1065.37099663,G=-1065.43039421) charge=-1 spin=1 energy=-186.60537719726562 free_energy=-186.60537719726562 stress="0.0 0.0 0.0 0.0 0.0 0.0 0.0 0.0 0.0" pbc="F F F"
C       -1.73965490       1.95293975      -0.57856931      -0.00041585       0.00134407      -0.00435458
H       -2.53330037       1.19542899      -0.55034364      -0.00249487       0.00023657       0.00154340
H       -1.45822546       2.15195768      -1.62002088       0.00188205      -0.00241288       0.00128118
S       -0.32339744       1.44691880       0.42198604       0.00276116      -0.00014283       0.00139572
C        1.38552810      -0.66804160       0.16358696      -0.00113466      -0.00034749      -0.00080912
C        0.09122021      -0.16545324      -0.41208156      -0.00413020      -0.00268464      -0.00061853
H        0.25937104       0.08527501      -1.47216379       0.00019039       0.00129914       0.00385895
C       -1.02939145      -1.18571470      -0.31933609       0.00417129       0.00218216       0.00165429
C       -1.37938787      -1.92488941      -1.45590402      -0.00279332      -0.00148150       0.00199011
C       -1.68140843      -1.44571011       0.89292112       0.00323682       0.00001511       0.00065848
C       -2.37226604      -2.90871071      -1.38310141      -0.00153007       0.00315540       0.00056587
H       -0.86841553      -1.73406357      -2.40146397       0.00015031      -0.00013052      -0.00293994
C       -2.67078224      -2.42891646       0.96358062      -0.00178748      -0.00133072       0.00027889
H       -1.39869408      -0.87108002       1.77669849       0.00035802      -0.00096703       0.00061288
C       -3.01820023      -3.16276073      -0.17427241      -0.00061601       0.00087060       0.00083107
H       -2.63351363      -3.47442393      -2.28043797      -0.00135337       0.00035849      -0.00287229
H       -3.16287301      -2.62578097       1.91860683       0.00020872      -0.00255153       0.00127319
H       -3.79167034      -3.93318800      -0.11519114       0.00019854       0.00027972      -0.00120872
C        1.41815391      -1.72820617       1.07185253      -0.00199816       0.00045359      -0.00112502
N        1.33346652      -2.61269458       1.84070956       0.00079215      -0.00206505       0.00077690
N        2.57037911      -0.05968984      -0.16680638       0.00421757       0.00575886      -0.00473028
C        2.77722530       1.07242923      -0.93987068      -0.00064981      -0.00255267       0.00215678
C        4.69928960       0.24724047      -0.21468535      -0.00380689      -0.00532703       0.00603834
C        4.13127455       1.29126949      -0.98441461      -0.00396807      -0.00026207      -0.00229940
H        1.94157007       1.63450493      -1.34019970      -0.00009663       0.00046559       0.00037648
H        5.74986487       0.05745159      -0.00289581       0.00324509       0.00098659      -0.00076281
H        4.64694222       2.09902179      -1.50376423      -0.00362831      -0.00357498       0.00232449
N        3.77401066      -0.56727414       0.28594148       0.00554061       0.00747293      -0.00351822
H       -2.12013632       2.87939839      -0.13258188       0.00345078       0.00095229      -0.00237798
