18
Properties=species:S:1:pos:R:3:charge:R:1:forces:R:3 energy=-19729.358898920742 pbc="F F F"
C       -2.04774437       0.40612308       1.15354334      -0.14215885      -0.00155072       0.00091306       0.00028148
N       -1.02385538      -0.00946485       0.22795481      -0.37223139       0.00032428      -0.00636158       0.00174648
C       -1.20172857       0.12035546      -1.09527294       0.50931954       0.00073725       0.00359355      -0.00406327
O       -2.20986698       0.62791350      -1.59072674      -0.57303143      -0.00124884       0.00490181       0.00165104
C       -0.12418055      -0.36610262      -2.01244418      -0.14881220      -0.00186669       0.00258254      -0.00148713
C        0.95798753      -1.06777454      -1.70213652      -0.31009954       0.00545810      -0.00035578       0.00172347
H       -2.96943528      -0.15568914       1.00266218       0.07705412       0.00183055       0.00399218       0.00229240
H       -1.69037374       0.23482492       2.16611625       0.07956177       0.00259738      -0.00060548       0.00035091
H       -2.28362760       1.46327007       1.02999113       0.07946299       0.00099987      -0.00462156       0.00069996
H       -0.17687610      -0.41176701       0.63375489       0.24877313      -0.00046998      -0.00795996      -0.00397475
H       -0.31919407      -0.09501294      -3.04137457       0.10410723      -0.00347812       0.00300838      -0.00435189
H        1.65438660      -1.33043055      -2.48665533       0.12622227      -0.00121080      -0.00562686      -0.00241120
H        1.20382838      -1.40801955      -0.70404471       0.14656778       0.00062078      -0.00201912       0.00282726
S        1.51186386      -1.18574556       1.99896316      -0.79526144      -0.00161999       0.00462659       0.00075194
C        2.08522068       0.50152822       1.59897158      -0.28542596      -0.00322159       0.00258992       0.00269720
H        1.80307717       0.80321288       0.58713146       0.08083742       0.00408939      -0.00390077      -0.00173158
H        1.66250244       1.23798435       2.28390714       0.08867908      -0.00121947       0.00068781       0.00075487
H        3.17189850       0.56902278       1.65920604       0.08643555      -0.00077170       0.00455537       0.00224291
