13
Properties=species:S:1:pos:R:3:charge:R:1:forces:R:3 energy=-7804.121932288718 pbc="F F F"
C       -2.09548912       0.41722479      -0.20010767      -0.13109803       0.00023700       0.00005362       0.00214517
N       -0.66772890       0.33587892       0.02577597      -0.40425363       0.00725507      -0.00017444      -0.00208852
C        0.06912333      -0.71698021      -0.42265403       0.48273981       0.00143436      -0.00867049       0.00171898
O       -0.41322381      -1.69390076      -0.96655359      -0.48085868      -0.00086240      -0.00129376      -0.00447047
C        1.54737792      -0.62605458      -0.20682395      -0.14692037       0.00472726       0.00028693      -0.00634074
C        2.16492936       0.15937396       0.66630390      -0.28273940      -0.00353792       0.00008100       0.00400889
H       -2.44188121      -0.56733633      -0.49409139       0.10287288       0.00371349      -0.00348250       0.00218582
H       -2.34101341       1.12316386      -0.99416859       0.08743475      -0.00357029      -0.00123536      -0.00054906
H       -2.60953517       0.71731727       0.71083354       0.09135839      -0.00231455       0.00961830       0.00021290
H       -0.16986731       1.16463369       0.29314947       0.27101228      -0.00148286       0.00533755       0.00237544
H        2.09888045      -1.32281160      -0.82191102       0.12524769      -0.00019939       0.00152761       0.00124848
H        1.62928192       0.82538748       1.33032207       0.13731465       0.00327846      -0.00568159      -0.00038494
H        3.23982733       0.14296486       0.76935269       0.14788970      -0.00867856       0.00363325      -0.00006180
