35
Properties=species:S:1:pos:R:3:charge:R:1:forces:R:3 energy=-28619.184531609342 pbc="F F F"
N        3.86458694       0.49179884      -0.79437414      -0.43036249       0.00548974      -0.00248645       0.00069398
C        2.64875782       0.29718509      -0.22231213       0.43128905       0.00506340       0.00258250      -0.00032466
O        2.34022686       0.79340513       0.84411799      -0.43557104       0.00117860       0.00157109       0.00003334
C        1.71500479      -0.59107017      -1.02867352      -0.14083497       0.00328883       0.00127457      -0.00103642
C        0.39844058      -0.86719271      -0.31044434      -0.02815945       0.00233169       0.00161603       0.00037941
S       -0.42184637      -2.33000777      -1.02159124      -0.20869268      -0.00271192      -0.00468719       0.00239981
C        0.63626359      -3.63951873      -0.36838915      -0.18456647       0.00059740       0.00305831       0.00414247
C       -0.51138774       0.35719312      -0.39145785      -0.03745647       0.00087471      -0.00129632      -0.00287430
N       -1.51750383       0.42727210       0.64969554      -0.25789541      -0.00022342      -0.00022109      -0.00324128
C       -2.66805699      -0.44223513       0.40124736      -0.05522678      -0.00035854      -0.00006330      -0.00129741
C       -3.86062269       0.03756219       1.20056871      -0.02317959      -0.00189655      -0.00006872       0.00097993
O       -4.31634730       1.32091478       0.78361209      -0.30959499       0.00138875       0.00443927       0.00317826
C       -3.26218390       2.14066878       0.29155230      -0.02745283       0.00217828       0.00158894      -0.00320115
C       -1.93996087       1.80127565       0.95139702      -0.07371904      -0.00245025      -0.00172118       0.00088219
C        4.89647730       1.30434365      -0.18330398      -0.11255464       0.00247157       0.00044314       0.00114174
H        4.04467591       0.05276168      -1.67757618       0.28482524       0.00061907      -0.00552256      -0.00168306
H        2.23721188      -1.51972460      -1.25301348       0.06196541      -0.00020591      -0.00087872      -0.00422571
H        1.50869349      -0.10826263      -1.98787380       0.06432626      -0.00416322      -0.00338717      -0.00217159
H        0.60444290      -1.07490484       0.73686415       0.11892854       0.00289971       0.00203108       0.00038051
H        1.65045478      -3.58675619      -0.75527545       0.07968888      -0.00091862       0.00055455      -0.00018824
H        0.66202457      -3.61038822       0.71752908       0.08889671      -0.00181083      -0.00279469       0.00163890
H        0.19398876      -4.58109940      -0.68163364       0.11565419       0.00316572       0.00340034      -0.00230642
H        0.15377560       1.20780346      -0.26556507       0.09485573      -0.00169412      -0.00249115      -0.00067183
H       -0.93786032       0.43213905      -1.40653612       0.06542749       0.00142376       0.00098442      -0.00115089
H       -2.93661056      -0.47693794      -0.66534609       0.08155452      -0.00112318       0.00451953      -0.00096710
H       -2.42304325      -1.45850029       0.69858673       0.07924524       0.00175501       0.00122266       0.00077003
H       -3.59161746       0.06798544       2.25995758       0.07802036       0.00072436       0.00308908       0.00235772
H       -4.69801543      -0.64470985       1.08206730       0.08147163      -0.00279147      -0.00444788      -0.00234111
H       -3.17243219       2.01407696      -0.79250786       0.07350323      -0.00708427       0.00160696      -0.00403263
H       -3.54522675       3.17172531       0.48700225       0.08427406      -0.00187310      -0.00057481       0.00111249
H       -2.05420644       1.92230350       2.03139436       0.09108604      -0.00288979      -0.00382760       0.00150713
H       -1.16984552       2.50071139       0.63252493       0.08486454      -0.00378982      -0.00090404       0.00887381
H        5.80488178       0.72552265      -0.02044642       0.08494446       0.00074474       0.00057773      -0.00015871
H        4.52183491       1.64516050       0.77537235       0.09642298       0.00181942       0.00200487       0.00061146
H        5.13463407       2.17357288      -0.79612373       0.08402238      -0.00202943      -0.00119213       0.00078902
