30
Properties=species:S:1:pos:R:3:charge:R:1:forces:R:3 energy=-24463.37294671381 pbc="F F F"
N        3.13291278      -0.12336651      -0.44648502      -0.41715550      -0.00102258      -0.00469680      -0.00481735
C        1.92643951      -0.62183715      -0.79461294       0.43059337       0.00167270       0.00230896      -0.00143463
O        1.72395048      -1.13625891      -1.88202818      -0.46434349       0.00425401       0.00284536      -0.00024126
C        0.81695073      -0.45935840       0.22121022      -0.14710985       0.00015676      -0.00015954       0.00124840
C       -0.20156440       0.53535317      -0.34148630      -0.04118159      -0.00049403      -0.00004436       0.00217851
S        0.35886004       2.25585400      -0.22551799      -0.20379508       0.00158032      -0.00095609       0.00499290
C        0.27916747       2.57249962       1.54867303      -0.18210451       0.00178434       0.00265495       0.00128065
C       -1.60422552       0.32560777       0.22169658      -0.03479357      -0.00126239       0.00071150       0.00102894
N       -2.10784164      -1.01773208      -0.04054864      -0.24368347      -0.00372074       0.00370073      -0.00459380
C       -3.35468139      -1.23438246       0.66946437      -0.14176136      -0.00080770      -0.00010265      -0.00061058
C       -2.27985693      -1.27427831      -1.45953059      -0.13664451      -0.00161770      -0.00017390      -0.00365240
C        4.25594931      -0.14963228      -1.36477001      -0.10449842       0.00058701      -0.00188836      -0.00169562
H        3.21375036       0.36567578       0.42337876       0.26833344      -0.00339118      -0.00022878       0.00213377
H        1.18053037      -0.14840709       1.19932140       0.06452252      -0.00070237      -0.00195684       0.00308462
H        0.32491127      -1.42347994       0.32860338       0.09830166       0.00019814      -0.00078064      -0.00141038
H       -0.23503258       0.37689755      -1.41670455       0.12422732       0.00061000      -0.00191910       0.00227629
H        0.93118472       1.91773610       2.12288349       0.07643382      -0.00416727       0.00633859      -0.00349954
H       -0.73667611       2.49473081       1.92478772       0.08260684       0.00763990       0.00303028      -0.00015688
H        0.61896009       3.59672894       1.67760062       0.11571138      -0.00112792      -0.00291493       0.00179478
H       -1.57764662       0.47544289       1.30187995       0.07631394       0.00029286       0.00128446       0.00175636
H       -2.27783154       1.08624391      -0.19328101       0.06413257       0.00147352      -0.00028332      -0.00191943
H       -3.67990289      -2.26330739       0.53099324       0.08146115       0.00560659      -0.00453095       0.00408031
H       -4.16231647      -0.57164042       0.32217180       0.06190485      -0.00287722       0.00062338       0.00083425
H       -3.20973237      -1.06809698       1.73509861       0.07380662       0.00084080      -0.00058325       0.00031100
H       -2.75196756      -2.24506438      -1.59884086       0.08460431      -0.00010091      -0.00165853       0.00260183
H       -2.91176909      -0.51909904      -1.94953329       0.06353585      -0.00290510      -0.00360644      -0.00693321
H       -1.31714367      -1.30323516      -1.96344012       0.08110160       0.00003848       0.00250063      -0.00138089
H        5.12731079       0.27944476      -0.87712864       0.09269468      -0.00200290      -0.00140062      -0.00373178
H        4.47843677      -1.17162400      -1.66316303       0.08997166       0.00135417      -0.00376440       0.00357715
H        4.03360311       0.41645864      -2.26774487       0.08681387      -0.00189035       0.00565025       0.00289751
