24
Properties=species:S:1:pos:R:3:charge:R:1:forces:R:3 energy=-21869.893187011614 pbc="F F F"
C       -3.22231919      -1.32882650      -1.01309149      -0.25067610      -0.00460530       0.00220714      -0.00166790
C       -1.85828873      -1.60295268      -0.38977365      -0.13267705       0.00133070       0.00272295      -0.00130090
C       -0.98583513      -0.36699532      -0.18868737      -0.00173407       0.00298837       0.00043513       0.00115847
C        0.39262979      -0.68164159       0.20021968      -0.44088379       0.00181544      -0.00263439       0.00029695
C        1.46907423       0.01682186      -0.32817244       0.32275599       0.00056521       0.00040348       0.00200075
O        1.42609255       0.95279886      -1.16350899      -0.54728943      -0.00119519      -0.00492030      -0.00336245
N        2.78126463      -0.36586753       0.14233014      -0.52583373      -0.00032841       0.00200848       0.00281732
C        3.74675322       0.71673545       0.18225715      -0.13070175      -0.00184863       0.00137506      -0.00084674
H       -3.76210768      -2.26143518      -1.19398510       0.05709330      -0.00685056       0.00325539       0.00299299
H       -3.10775274      -0.81819432      -1.97024485       0.05870092      -0.00167979       0.00126687       0.00821035
H       -3.83203924      -0.69571955      -0.36965812       0.06593577       0.00019430      -0.00434349      -0.00607772
H       -1.30029498      -2.28579089      -1.03125842       0.05807206       0.00086801       0.00027102      -0.00037020
H       -1.98565372      -2.11295041       0.56889087       0.05481891       0.00190172      -0.00291712      -0.00135774
H       -0.97012174       0.22968486      -1.10383143       0.11314361      -0.00081435      -0.00101484      -0.00022139
H        0.53310125      -1.44403294       0.95657120       0.09481637       0.00239181       0.00011626      -0.00057265
H        2.68364097      -0.81824973       1.03794846       0.25099257       0.00428076       0.00071416      -0.00254091
H        4.68175763       0.35394037       0.61474315       0.06083421      -0.00379320       0.00410734       0.00241935
H        3.40933567       1.58857520       0.76089648       0.05783600      -0.00043813      -0.00256484       0.00365152
H        3.94348933       1.06535355      -0.83025857       0.07256728       0.00216785       0.00017892      -0.00057964
S       -1.89848042       0.71657817       1.04989322      -0.29989511      -0.00117601      -0.00067447      -0.00224938
C       -0.71933886       2.07463183       1.08941701      -0.20467809       0.00569723      -0.00240995       0.00140627
H       -1.10611366       2.84232500       1.75975899       0.08837064       0.00203700      -0.00236976      -0.00594799
H        0.23679052       1.70133758       1.44487055       0.09146268      -0.00553331       0.00238723      -0.00269666
H       -0.56841297       2.49064408       0.09691843       0.08696876       0.00202489       0.00239996       0.00483865
