26
Properties=species:S:1:pos:R:3:charge:R:1:forces:R:3 energy=-27462.846697681245 pbc="F F F"
C        2.94670135      -1.28175425       0.75978143      -0.10749412      -0.00247059       0.00112979       0.00117476
C        2.39847626      -1.46072128      -0.59254565      -0.51726979      -0.00154157      -0.00072809       0.00190377
C        1.07661191      -1.20304306      -0.94566122       0.28727320      -0.00023260       0.00227286       0.00177876
O        0.55217235      -1.35852444      -2.06679683      -0.55551893       0.00182222      -0.00218784       0.00294049
N        0.26158228      -0.66621475       0.12200722      -0.31011379      -0.00338703      -0.00786410       0.00496764
C       -1.04386912      -0.26249142       0.08446604       0.19706763      -0.00092701       0.00033121       0.00162113
C       -1.92704573      -0.58805015      -0.96178797      -0.17306188       0.00301620       0.00064168      -0.00505365
C       -3.24920747      -0.19120068      -0.90630645      -0.16062886       0.00260165       0.00300897      -0.00425229
C       -3.75446538       0.54413093       0.15740722      -0.18824527      -0.00223771      -0.00147534      -0.00091726
C       -2.88431232       0.88140617       1.18955934       0.09832598       0.00133035       0.00596525      -0.00438623
C       -1.55153900       0.48945318       1.15743246      -0.16282862       0.00032124      -0.00075485       0.00485352
C       -3.35480242       1.64706921       2.31554008       0.24817593       0.00149281      -0.00223872       0.00162336
N       -3.72701332       2.25579220       3.21739778      -0.48930818       0.00244505      -0.00058191      -0.00174925
H        3.94985848      -1.69771568       0.85126772       0.08582848      -0.00012888       0.00833534      -0.00007868
H        2.33056045      -1.77210853       1.52275902       0.07882291      -0.00101811      -0.00499086       0.00005488
H        3.04339005      -1.76301470      -1.40416341       0.11201172       0.00043389       0.00091699       0.00177994
H        0.78028013      -0.37888502       0.93977846       0.21779461       0.00147707      -0.00790299       0.00105795
H       -1.52196866      -1.14333654      -1.79147092       0.12920535      -0.00144356      -0.00333018      -0.00891151
H       -3.90583740      -0.46228254      -1.72139167       0.11945950      -0.00207373       0.00403012      -0.00118230
H       -4.78803807       0.84899365       0.18434099       0.12372594      -0.00381933       0.00136707       0.00449568
H       -0.88767716       0.77254371       1.96461393       0.13722824       0.00382733      -0.00051063       0.00542756
S        3.13454091       0.46812921       1.45351510      -0.25091141       0.00380338       0.00408016      -0.00521102
C        3.04325842       1.42927826      -0.06559232      -0.18618999      -0.00086039       0.00188966      -0.00001907
H        2.09451769       1.24193053      -0.55861592       0.08112975       0.00397409      -0.00373189      -0.00014018
H        3.12742698       2.48317970       0.19381119       0.10276723      -0.00278862       0.00064730      -0.00207419
H        3.85143813       1.15072389      -0.73507855       0.08275447      -0.00361490       0.00168108       0.00029701
