25
Properties=species:S:1:pos:R:3:charge:R:1:forces:R:3 energy=-37458.92377667241 pbc="F F F"
C        3.01498420       1.27739717      -1.42147423      -0.11395492       0.00111789      -0.00312927      -0.00105029
C        1.74838538       0.53279177      -1.53629982      -0.48575556      -0.00194831      -0.00105610      -0.00030587
C        0.76393977       0.66014150      -0.57448379       0.30304375      -0.00155534      -0.00522014       0.00023433
O        0.75094051       1.40656962       0.42835539      -0.49935180      -0.00190900       0.00041194      -0.00287329
N       -0.37626288      -0.21752782      -0.77490520      -0.38425034       0.00101757      -0.00445267       0.00513453
C       -1.53351709      -0.34736844      -0.06094026       0.20996936      -0.00014983      -0.00021727      -0.00303801
C       -2.47478291      -1.31451234      -0.46824324      -0.19551846       0.00173804       0.00102477      -0.00119891
C       -3.66590148      -1.47851172       0.20622397      -0.17672756       0.00569952      -0.00116508       0.00406110
C       -3.97722741      -0.69671890       1.31099702      -0.18867823      -0.00062379       0.00092774      -0.00226999
C       -3.04163219       0.24765281       1.70436325       0.03065377       0.00522525      -0.00510332      -0.00141319
C       -1.83778115       0.44397925       1.06149674      -0.09625225       0.00501688      -0.00130940      -0.00216986
Cl      -3.40955780       1.24978141       3.09917117      -0.17470066      -0.00435089      -0.00264881       0.00181373
H        2.90964100       2.11832636      -0.73191150       0.08767715      -0.00199444      -0.00239961      -0.00377032
H        3.38246855       1.66007090      -2.37438560       0.07631591       0.00178660       0.00346047       0.00178649
H        1.68944943      -0.23533442      -2.29853900       0.10889866      -0.00163099       0.00359458      -0.00450311
H       -0.27558773      -0.82229306      -1.56696579       0.24134703       0.00255998       0.00005527       0.00325905
H       -2.25232659      -1.93757598      -1.32600958       0.11011361      -0.00140596       0.00609034      -0.00172717
H       -4.36966921      -2.22941800      -0.12994121       0.11536195       0.00348977       0.00803358       0.00322224
H       -4.90465618      -0.81033851       1.84873974       0.11885281      -0.00050563      -0.00251011       0.00130960
H       -1.12334378       1.17957490       1.38759961       0.13313136      -0.00059162       0.00527158      -0.00169920
S        4.46140271       0.29166239      -0.79353541      -0.29627380       0.00089100      -0.00147816      -0.00079978
C        3.73719278      -0.17679465       0.78673740      -0.19822110      -0.00230810      -0.00304152       0.00407122
H        4.47750029      -0.73906920       1.35480499       0.09687590      -0.00156097       0.00281880       0.00054896
H        3.43826708       0.70582640       1.34632793       0.08638591      -0.00309220      -0.00240366      -0.00062276
H        2.85489140      -0.78589093       0.61199821       0.09105770      -0.00491558       0.00444690       0.00200049
