20
Properties=species:S:1:pos:R:3:charge:R:1:forces:R:3 energy=-10983.013537401117 pbc="F F F"
C        3.47863708      -0.34994139      -0.26560936      -0.12704639      -0.00109742      -0.00067456      -0.00022764
N        2.04052002      -0.49729747      -0.32344837      -0.41233650      -0.00433874       0.00039955       0.00370583
C        1.20287030       0.36377173       0.31625457       0.43891689      -0.00446279      -0.00013905       0.00483752
O        1.59147997       1.27680880       1.02449957      -0.49465120       0.00977126      -0.00061087       0.00105920
C       -0.25105343       0.12737136       0.10517667       0.03018258      -0.00505521      -0.00129830      -0.00735418
C       -0.83907113      -0.97639613      -0.35030143      -0.17977270      -0.00451030      -0.00714478       0.00146555
C       -2.33838125      -0.83175065      -0.39149868      -0.12793687      -0.00460177       0.00641742       0.00042359
C       -2.53762235       0.68752532      -0.22488834      -0.17330152       0.00207598       0.00710706       0.00257194
C       -1.25851758       1.18277737       0.47798380      -0.14954983       0.00016160       0.00127314      -0.00238129
H        3.70468153       0.35742881       0.52470729       0.10118014       0.00108906       0.00001947       0.00057003
H        3.88681396       0.03030427      -1.20280916       0.08384242      -0.00186484       0.00626277      -0.00215104
H        3.95182813      -1.30338073      -0.03752409       0.08813192       0.00607073      -0.00055978       0.00149178
H        1.64106478      -1.09185910      -1.02283679       0.26519129      -0.00128115      -0.00509172       0.00422993
H       -0.34192094      -1.90315752      -0.60588552       0.12743007       0.00240322      -0.00682664      -0.00508106
H       -2.77267474      -1.21471280      -1.31440329       0.08412620       0.00060072      -0.00121396       0.00150463
H       -2.78629139      -1.39006605       0.43434117       0.08827000       0.00836758      -0.00449595      -0.00287072
H       -3.44456308       0.93788766       0.31840585       0.07882917      -0.00028823      -0.00103887      -0.00232557
H       -2.60354378       1.14467419      -1.21140806       0.08918094      -0.00237427       0.00272530       0.00324292
H       -0.94203911       2.17162498       0.15446689       0.09111997      -0.00427172       0.00181366      -0.00001290
H       -1.37111924       1.22524213       1.56340053       0.09819338       0.00360659       0.00307539      -0.00269878
