29
Properties=species:S:1:pos:R:3:charge:R:1:forces:R:3 energy=-28068.96002710997 pbc="F F F"
C       -4.21341568      -2.48505369       0.43264623      -0.08389723      -0.00073089      -0.00178541       0.00153677
O       -2.92839589      -2.07658529       0.03476332      -0.27782905       0.00344308      -0.00179222       0.00503260
C       -2.53146615      -0.80792388       0.38860381       0.20628031       0.00029511       0.00553971      -0.00492769
C       -3.33193023       0.05545710       1.13167988      -0.23338144      -0.00021851      -0.00136403       0.00572627
C       -2.82784171       1.31889325       1.42496806      -0.19054572       0.00054485       0.00120020      -0.00920068
C       -1.58279233       1.71808981       0.99844774      -0.23444754       0.00385931      -0.00193861      -0.00387205
C       -0.77225039       0.84135462       0.24188604       0.19308770       0.00705465       0.00234003      -0.00163546
C       -1.26747543      -0.43758355      -0.04978525      -0.15123272       0.00225006       0.00619267      -0.00321190
N        0.45165171       1.28872722      -0.17630499      -0.38452852       0.00508036       0.00139180       0.00023410
C        1.50181750       0.61530384      -0.91459430       0.30325583      -0.00283542       0.00013268       0.00110416
O        1.31635589      -0.57772367      -1.23678220      -0.49157181      -0.00428485       0.00142613       0.00478767
C        2.61700640       1.40058840      -1.15218607      -0.48926920      -0.00223485       0.00094092       0.00140006
C        3.82206033       0.82674170      -1.77318017      -0.11345834       0.00196442      -0.00238765       0.00274627
H       -4.31961912      -2.50669173       1.52017725       0.06163072       0.00336513       0.00177033       0.00334029
H       -4.34433544      -3.49349349       0.04830538       0.07453398      -0.00004108      -0.00330940      -0.00151768
H       -4.99503312      -1.84467439       0.01619621       0.06178601      -0.00092360      -0.00128969      -0.00309442
H       -4.31281916      -0.22673133       1.47804110       0.11233995      -0.00639370      -0.00028176       0.00298782
H       -3.43763240       2.00272384       2.00189811       0.11110895       0.00155170      -0.00554092       0.00294440
H       -1.21780431       2.70957401       1.24055811       0.11078732       0.00038406      -0.00278785      -0.00212580
H       -0.65142582      -1.11393669      -0.61775183       0.13107653      -0.00165938       0.00008778       0.00115763
H        0.69747154       2.22097711       0.09467158       0.23912206      -0.00036605      -0.00010236       0.00314154
H        2.69938550       2.39617501      -0.73210560       0.10796639      -0.00059542       0.00284554      -0.00097694
H        4.30928994       1.49542426      -2.48407385       0.07490531       0.00713564      -0.00001139       0.00302971
H        3.58689008      -0.10802571      -2.28829785       0.08666513      -0.00333721       0.00040038      -0.00212619
S        5.20170535       0.41127110      -0.59243630      -0.30009741      -0.00407536      -0.00144327      -0.00037254
C        4.27212330      -0.73936424       0.43350923      -0.19664031      -0.00254555      -0.00006301      -0.00312525
H        4.94444139      -1.15967134       1.18043587       0.09569073       0.00039186       0.00097277       0.00326255
H        3.85215214      -1.53791081      -0.17243375       0.08556566      -0.00266894      -0.00320358      -0.00462339
H        3.45332531      -0.21275835       0.91542616       0.09109674      -0.00440946       0.00206081      -0.00162251
