24
Properties=species:S:1:pos:R:3:charge:R:1:forces:R:3 energy=-16143.893441623768 pbc="F F F"
C       -3.75507182       1.21841584       0.36321903      -0.07846008       0.00082437       0.00050033       0.00012792
O       -3.58955677      -0.16917690       0.14885110      -0.24158944       0.00340459       0.00001785      -0.00167331
C       -2.32162512      -0.63822484       0.00003038       0.17836553       0.00224190       0.00086028      -0.00125497
C       -2.19267980      -2.00900680      -0.20861805      -0.18758830      -0.00340723       0.00053355      -0.00287459
C       -0.93360375      -2.55343920      -0.36721540      -0.14643413      -0.00316553      -0.00253859       0.00316845
C        0.21720206      -1.77726607      -0.32530477      -0.15267217      -0.00088929      -0.00303775       0.00275669
C        0.07927571      -0.41328325      -0.11717646       0.13180152      -0.00053581      -0.00083784       0.00026276
C       -1.18578137       0.15676734       0.04451449      -0.21239887       0.00125651      -0.00331432       0.00289739
N        1.17304467       0.47485912      -0.05383877      -0.35608611       0.00340923      -0.00054828      -0.00112971
C        2.50833846       0.19609204      -0.17525400       0.44651270       0.00615367       0.00023242      -0.00412633
O        2.95888768      -0.91452113      -0.36796183      -0.43352559      -0.00096765      -0.00887277       0.00104835
C        3.39272323       1.39544931      -0.04985575      -0.15054457       0.00099780       0.00537799       0.00025698
C        4.70809797       1.27357402      -0.14759615      -0.27728757       0.00005943       0.00035205      -0.00311817
H       -3.36961954       1.79889230      -0.47651123       0.07696560       0.00262750       0.00007222      -0.00247550
H       -3.25876220       1.54058697       1.28004587       0.07694942       0.00255922       0.00005769       0.00179836
H       -4.82227207       1.38319438       0.45469676       0.09817650      -0.00374408       0.00130545       0.00082873
H       -3.08411672      -2.61687256      -0.24212734       0.14018698      -0.00178804       0.00186912       0.00163017
H       -0.83536291      -3.61754735      -0.52834442       0.13500589       0.00232871       0.00370454      -0.00134418
H        1.19193127      -2.20724949      -0.44754256       0.14214993      -0.00262225      -0.00525720      -0.00309830
H       -1.26271114       1.22287309       0.20512252       0.12346312       0.00426874       0.00042749      -0.00068846
H        0.92206644       1.43340738       0.10110667       0.25975198      -0.00420551      -0.00009183       0.00183328
H        2.92907545       2.36004119       0.12175711       0.12174629      -0.00298965       0.00472817       0.00156215
H        5.15108851       0.30257281      -0.31960687       0.15897152      -0.00121738       0.00344422       0.00195300
H        5.36660452       2.12663458      -0.06062946       0.14653994      -0.00460015       0.00101579       0.00165947
