30
Properties=species:S:1:pos:R:3:charge:R:1:forces:R:3 energy=-28084.869139383525 pbc="F F F"
C        2.18457925      -2.09303031      -0.46842340      -0.16043021       0.00176799       0.00147262      -0.00363699
C        3.20571859      -1.40535883       0.17668394      -0.20431003      -0.00358583      -0.00082702       0.00336643
C        2.94606400      -0.12756565       0.65603432       0.17245442      -0.00079556       0.00231374      -0.00647196
O        3.86532380       0.64337980       1.30021507      -0.24419168       0.00138110      -0.00324205      -0.00310445
C        5.15619081       0.09674117       1.49416256      -0.08565905       0.00298944      -0.00079091       0.00102690
C        1.69133826       0.45940288       0.49982314      -0.13698184      -0.00117701       0.00150222      -0.00356089
C        0.69032082      -0.24539796      -0.14763395       0.14015657      -0.00003279       0.00425748      -0.00368365
N       -0.59924817       0.28410905      -0.36156776      -0.32191738      -0.00197107      -0.00122010       0.00683239
C       -1.15741601       1.38599894       0.21832482       0.41098219      -0.00093165       0.00145575      -0.00269914
O       -0.58199756       2.10792322       1.00491150      -0.44365937      -0.00395298      -0.00096826       0.00025789
C       -2.60835483       1.63669551      -0.17679343      -0.13999622       0.00300673      -0.00056016       0.00000966
C       -3.57126806       0.55336346       0.32141312      -0.11726651      -0.00065669       0.00153745      -0.00031878
S       -3.70153143      -0.92513830      -0.72107043      -0.17826892      -0.00055144      -0.00223337      -0.00747759
C       -4.50326244      -0.19938492      -2.16399528      -0.18211879      -0.00091430       0.00214006      -0.00090419
C        0.93760034      -1.52940342      -0.63923012      -0.18289976       0.00095657       0.00104245       0.00727494
H        2.37603343      -3.08881587      -0.84111457       0.13447948      -0.00048630       0.00094012      -0.00505687
H        4.17282511      -1.86489783       0.29696181       0.13159582      -0.00520981      -0.00035383      -0.00042504
H        5.64425401      -0.12813822       0.54434100       0.07768361      -0.00022211       0.00169181       0.00070535
H        5.72731701       0.85660862       2.01647425       0.09673728       0.00771900      -0.00509271       0.00166353
H        5.12193154      -0.80776915       2.10371254       0.07776058      -0.00007176       0.00065512      -0.00021891
H        1.51024376       1.44650572       0.88373449       0.14015466      -0.00238139      -0.00332877       0.00116970
H       -1.22344581      -0.30380367      -0.89867790       0.22722149      -0.00313265       0.00429760       0.00543736
H       -2.88843240       2.58211821       0.27508611       0.09582550      -0.00053783      -0.00202991      -0.00296730
H       -2.68459337       1.73572000      -1.25867977       0.06613910       0.00170709      -0.00294021       0.00212231
H       -4.57397805       0.96510301       0.40737182       0.09374741      -0.00484443      -0.00159737      -0.00199731
H       -3.27578160       0.21545610       1.31148011       0.10979388      -0.00038524       0.00270074       0.00042238
H       -5.40072113       0.33863050      -1.87190756       0.09296411      -0.00178619       0.00110608      -0.00192841
H       -4.78267403      -1.01420065      -2.82599421       0.11887776       0.00408122      -0.00314311       0.00589256
H       -3.83913949       0.47395904      -2.69947382       0.08104133       0.00607585      -0.00268929       0.00317888
H        0.15683108      -2.08093493      -1.14503011       0.13008462       0.00394208       0.00390446       0.00509082
