28
Properties=species:S:1:pos:R:3:charge:R:1:forces:R:3 energy=-26020.668223913228 pbc="F F F"
C       -0.63503945      -0.06630424      -1.80247426      -0.15233871      -0.00536106       0.00299115      -0.00516449
N       -0.39807221       0.19757754      -0.40311549      -0.18700495      -0.00250008       0.00305716      -0.00622101
C       -1.48026157       0.42762784       0.41578430       0.17311133      -0.00138967      -0.00208901      -0.00297331
C       -1.34280122       0.50271176       1.81841320      -0.15195186       0.00094786       0.00431858      -0.00269234
C       -2.44785385       0.71097150       2.62155791      -0.17036536       0.00195217       0.00416929       0.00080727
C       -3.72412320       0.86427158       2.08961464      -0.22794561       0.00043205       0.00069273       0.00370033
C       -3.86779946       0.80207703       0.71360755      -0.17554300      -0.00196980       0.00217793       0.00349696
C       -2.77702750       0.58865174      -0.11203324      -0.18639626      -0.00271171      -0.00130267      -0.00006460
C        0.94338212      -0.13135936       0.15311025       0.31329778      -0.00004276      -0.00167235       0.00228822
O        1.43119945       0.71605028       0.93630725      -0.50601107      -0.00577894       0.00328091       0.00195424
C        1.48982391      -1.32441579      -0.25425658      -0.42955160       0.00074406      -0.00154581      -0.00083483
C        2.84733122      -1.72304402       0.17006459      -0.10569115       0.00234071      -0.00193974       0.00250386
H        0.31470965      -0.21950458      -2.30623753       0.07408237      -0.00198282       0.00053181       0.00788396
H       -1.26066919      -0.95048498      -1.96975907       0.05835516       0.00685499      -0.00408307      -0.00071025
H       -1.13211443       0.78432856      -2.27478192       0.06480172      -0.00218678       0.00575638       0.00174855
H       -0.35447648       0.40543582       2.23471736       0.12793349      -0.00008544       0.00057352      -0.00016987
H       -2.30823308       0.75762729       3.69423042       0.11193994       0.00079432       0.00065672       0.00339551
H       -4.57756343       1.02875920       2.73084040       0.12067170      -0.00391078       0.00041670       0.00109803
H       -4.84873956       0.91958903       0.26893062       0.11120995       0.00139431      -0.00090500      -0.00547130
H       -2.93715132       0.53833261      -1.17740936       0.10353065      -0.00274566      -0.00194675       0.00022797
H        0.98390966      -1.95710916      -0.96777714       0.11057916       0.00425451      -0.00708838      -0.00523222
H        3.16062715      -1.16872946       1.05754408       0.08423232       0.00706084       0.00244188      -0.00084163
H        2.93284187      -2.78785589       0.38421383       0.07377785      -0.00072263      -0.00314807      -0.00488927
S        4.17283942      -1.43636482      -1.09693556      -0.30535573       0.00790402       0.00121912      -0.00272560
C        3.98462769       0.35535400      -1.20293747      -0.19932660       0.00042154      -0.00279085       0.00054665
H        2.97155766       0.58658816      -1.52124611       0.08966395       0.00352437      -0.00194659       0.00868269
H        4.71015737       0.74025532      -1.91991718       0.09463419      -0.00701930      -0.00109424       0.00410674
H        4.14843835       0.81715032      -0.23221818       0.08566038      -0.00021836      -0.00073199      -0.00445058
