28
Properties=species:S:1:pos:R:3:charge:R:1:forces:R:3 energy=-26020.881160087207 pbc="F F F"
C        2.81595172      -1.05982093      -1.25968292      -0.12046050       0.00125034       0.00161969      -0.00034443
C        2.06250110      -0.89342892      -0.00515586      -0.50157726      -0.00106131      -0.00056919       0.00008500
C        1.22365707       0.19126734       0.19179950       0.29510543       0.00093649      -0.00144831      -0.00051062
O        0.96964210       1.10402039      -0.63822761      -0.47298726       0.00345320      -0.00078485      -0.00052337
N        0.57569895       0.29815911       1.47197100      -0.50085777      -0.00082197      -0.00067083      -0.00191155
C       -0.67037988       1.03558496       1.52799056      -0.03380136       0.00065222      -0.00155003       0.00051303
C       -1.88802433       0.33521620       0.95602919       0.06957569       0.00283365      -0.00204558      -0.00094761
C       -3.06265889       0.26990720       1.69820089      -0.15862870       0.00126906       0.00093460       0.00036391
C       -4.19955094      -0.35364713       1.20022406      -0.16500258      -0.00034676      -0.00044658       0.00023289
C       -4.17583483      -0.92844219      -0.06127319      -0.17483434       0.00087918       0.00460369      -0.00128362
C       -3.00988105      -0.86654947      -0.81243579      -0.14657681       0.00239925      -0.00045699       0.00064415
C       -1.87659961      -0.24067896      -0.31499043      -0.10997767       0.00252205       0.00350089      -0.00161879
H        2.87552645      -2.09720983      -1.59276008       0.07545669       0.00453565       0.00365813      -0.00159149
H        2.37478268      -0.46580540      -2.06414310       0.08853458      -0.00152029       0.00108730       0.00047026
H        2.30796470      -1.54829101       0.82053613       0.11439054       0.00081950       0.00248165      -0.00101202
H        0.52936426      -0.60410132       1.91843399       0.25801057      -0.00029771       0.00061368      -0.00179695
H       -0.51182877       1.97106979       0.99108623       0.07893975       0.00025794      -0.00116941      -0.00158377
H       -0.88856098       1.28972395       2.56829766       0.05195732       0.00331106       0.00430388       0.00153918
H       -3.09146936       0.71022619       2.68724514       0.10763185       0.00104311       0.00095813       0.00044589
H       -5.10012003      -0.39264129       1.79813939       0.11785449      -0.00451298      -0.00284249       0.00045416
H       -5.05762947      -1.41796973      -0.45183206       0.11983215      -0.00040244      -0.00104810      -0.00063144
H       -2.97253194      -1.31120081      -1.79753286       0.11343390      -0.00518902      -0.00090566       0.00254117
H       -0.97540201      -0.19651111      -0.91140503       0.12874246       0.00158365      -0.00263324      -0.00024931
S        4.60800452      -0.55059231      -1.19823496      -0.30386794      -0.00274856       0.00505460       0.00555309
C        4.32884140       1.16661617      -0.72373630      -0.20682475      -0.00645580      -0.00384680      -0.00010656
H        3.68862587       1.66599338      -1.44748864       0.08577172      -0.00778098      -0.00443464      -0.00089609
H        5.29109340       1.67567186      -0.66898779       0.09559208       0.00236287      -0.00032302       0.00375127
H        3.82834035       1.19162705       0.24038683       0.09456790       0.00102888      -0.00364011      -0.00158636
