29
Properties=species:S:1:pos:R:3:charge:R:1:forces:R:3 energy=-26036.98988771028 pbc="F F F"
C        4.94068185       0.21555685      -0.32656449      -0.16229138      -0.00125513       0.00154048      -0.00261100
C        4.41000968       1.34535711       0.27898448      -0.14125067       0.00242903      -0.00008941       0.00014215
C        3.04618807       1.44347182       0.48995964      -0.15503509       0.00239815      -0.00298674       0.00068995
C        2.19067266       0.41402254       0.09838867       0.14600363      -0.00040217      -0.00063854      -0.00147022
N        0.81807964       0.59887489       0.35608688      -0.36506912      -0.00461462       0.00038563      -0.00309069
C       -0.23957783      -0.21600957       0.05160076       0.41496807      -0.00747437      -0.00290459       0.00491641
O       -0.12781528      -1.28095151      -0.51491611      -0.41976550       0.00291872      -0.00223353       0.00566421
C       -1.58589821       0.34854276       0.47818910      -0.13450006      -0.00963220       0.00091409       0.00050011
C       -2.67659303      -0.71509414       0.48392273      -0.02418666      -0.00475124       0.00080825       0.00285116
S       -4.32409818       0.04947230       0.61064610      -0.21230607       0.00422587       0.00290210      -0.00136257
C       -4.49631663       0.71075206      -1.06079225      -0.20007631      -0.00040225       0.00040890      -0.00003670
C       -2.51996163      -1.69874644       1.63629560      -0.20188963       0.00182646      -0.00318606      -0.00249591
C        2.71786911      -0.72211176      -0.50945396      -0.11536075       0.00233654      -0.00126643      -0.00017988
C        4.08760748      -0.80586758      -0.71468393      -0.13392921       0.00161124       0.00227246      -0.00199000
H        6.00483180       0.13407998      -0.49328468       0.13555117      -0.00447833       0.00120365       0.00031707
H        5.05968989       2.15189074       0.58781382       0.13394928       0.00176821       0.00002858       0.00059232
H        2.63288406       2.32518942       0.96352206       0.12750693      -0.00439918      -0.00418794      -0.00241177
H        0.59602025       1.46101846       0.81861714       0.25817209      -0.00244989      -0.00022714       0.00150931
H       -1.49899922       0.80607507       1.46536117       0.07630287       0.00231157       0.00368593      -0.00337896
H       -1.83823716       1.15203327      -0.21488225       0.06712657       0.00228503       0.00416988      -0.00120082
H       -2.63516612      -1.25578007      -0.45764770       0.11190320       0.00131665       0.00431494       0.00376736
H       -5.50395885       1.11197019      -1.13068011       0.11900172      -0.00119925       0.00119294      -0.00060148
H       -4.37978365      -0.07458728      -1.80360330       0.09429964       0.00521404       0.00008491       0.00349679
H       -3.78857677       1.51156398      -1.26116921       0.08579583      -0.00012234      -0.00177593       0.00135018
H       -2.54677577      -1.17436669       2.59209692       0.07276357       0.00233935       0.00008729      -0.00543759
H       -1.57237436      -2.22786218       1.55813090       0.07894342       0.00356559      -0.00111841      -0.00072830
H       -3.32798308      -2.42742609       1.62867760       0.07726604       0.00105084      -0.00142974      -0.00212326
H        2.06106848      -1.51739656      -0.81088446       0.13367997       0.00424879      -0.00172966      -0.00140075
H        4.48795367      -1.69049633      -1.18916943       0.13242646      -0.00066540      -0.00022587       0.00472275
