25
Properties=species:S:1:pos:R:3:charge:R:1:forces:R:3 energy=-13559.427800206937 pbc="F F F"
C        5.00999305       0.57475591      -0.25283503      -0.12396699      -0.00576391      -0.00140885       0.00031813
N        3.77167693      -0.08975103       0.09591062      -0.42485905      -0.00108376      -0.00309054      -0.00107422
C        2.56203982       0.52532377      -0.00307553       0.46986243       0.00252740       0.00117552      -0.00530707
O        2.43948933       1.68231760      -0.36720868      -0.48164359      -0.00384881       0.00005800      -0.00268092
C        1.40236568      -0.33535640       0.37009206      -0.17704891       0.00921203      -0.00013637       0.00285188
C        0.16664881       0.13253796       0.27367298      -0.08475262       0.00480201      -0.00403952      -0.00547667
C       -1.07034206      -0.62066636       0.63986155      -0.01220397      -0.00165804       0.00468488       0.00012841
N       -2.07269562      -0.55178784      -0.40242126      -0.26570970      -0.00007315      -0.00935110       0.00158049
C       -2.68151922       0.76801450      -0.64504736      -0.10920545       0.00909774      -0.00404296      -0.00010533
C       -4.03561111       0.05852211      -0.81366148      -0.20560369      -0.00190359       0.00047166       0.00290145
C       -3.38458480      -1.12384535      -0.07472511      -0.12707326      -0.00789581      -0.00239355      -0.00279446
H        4.75628715       1.57888852      -0.57558410       0.09898750       0.00280606      -0.00219623       0.00354682
H        5.52037569       0.05870381      -1.06648746       0.08390702      -0.00152603       0.00643549       0.00197176
H        5.68350201       0.63650931       0.60225897       0.08417791      -0.00625190       0.00135963       0.00033657
H        3.79269533      -1.04681424       0.39396694       0.28411704      -0.00062517       0.00321547      -0.00384807
H        1.60226190      -1.34205532       0.71629361       0.11091895       0.00379263      -0.00320302      -0.00259348
H        0.03515208       1.13484069      -0.11572633       0.13786978       0.00045771       0.00043796       0.00421366
H       -1.46578633      -0.20928064       1.58496133       0.05970299      -0.00521936      -0.00420308       0.00277303
H       -0.83441342      -1.66941946       0.82349539       0.07774749      -0.00307307       0.00701975       0.00421747
H       -2.28928499       1.31106789      -1.50153570       0.10449187       0.00478080       0.00081005      -0.00224880
H       -2.64896358       1.41293163       0.24238810       0.09233047       0.00025267       0.00056692      -0.00058536
H       -4.91291814       0.52170399      -0.37170840       0.09853657       0.00290168       0.00362532      -0.00087385
H       -4.21841512      -0.18407913      -1.85696113       0.10803920      -0.00014858       0.00266793       0.00097652
H       -3.55429961      -2.12808245      -0.45644312       0.10663325       0.00128922       0.00074203       0.00336302
H       -3.58683830      -1.11256061       1.00231769       0.09474471      -0.00284855       0.00079369      -0.00159094
