19
Properties=species:S:1:pos:R:3:charge:R:1:forces:R:3 energy=-9945.279836380987 pbc="F F F"
C       -3.40270592       0.28525184      -0.58026036      -0.22766747       0.00480525      -0.00096361       0.00139513
C       -2.41555791      -0.33529450       0.40943470      -0.10262394       0.00808060       0.00125879       0.00295065
C       -1.05598588       0.27577880       0.31130182      -0.08058346       0.00233780      -0.00353816       0.00722712
C        0.06756085      -0.39153106       0.07981729      -0.18644814       0.00048127      -0.00263851      -0.00069179
C        1.37299712       0.32076404       0.02378158       0.43845561      -0.00401305      -0.00595474       0.00272188
O        1.47513174       1.52688026       0.16752936      -0.47738585       0.00090762      -0.00175247      -0.00077705
N        2.45028571      -0.48157019      -0.19997171      -0.42536730      -0.00380050       0.00357808       0.00180254
C        3.80107089       0.03683987      -0.25555104      -0.12735406      -0.00192323      -0.00262809      -0.00051693
H       -3.46363792       1.36278445      -0.43502683       0.07268252      -0.00363071       0.00165936      -0.00141292
H       -3.08300272       0.10314060      -1.60396567       0.07606088       0.00403873       0.00167282      -0.00032173
H       -4.40059247      -0.13112199      -0.45342660       0.07112264       0.00164262      -0.00407843      -0.00054704
H       -2.78493863      -0.18629573       1.42695347       0.07850706      -0.00023167       0.00330709      -0.00333283
H       -2.34502021      -1.41119417       0.25131029       0.08159395       0.00068036       0.00620880      -0.00287779
H       -0.98711827       1.35170491       0.43341385       0.13928795      -0.00177377      -0.00520985      -0.00283940
H        0.05447227      -1.46545883      -0.06539886       0.10994728      -0.00520036       0.00147323      -0.00010416
H        2.30044158      -1.46811594      -0.29737369       0.28646499      -0.00173127       0.00823026       0.00126402
H        3.73722359       1.11860440      -0.20887536       0.10055322      -0.00293508      -0.00410195       0.00113850
H        4.40250687      -0.31640132       0.58329079       0.08536648       0.00160109       0.00256505      -0.00308041
H        4.29106009      -0.25122347      -1.18529963       0.08738766       0.00066310       0.00091278      -0.00199788
