25
Properties=species:S:1:pos:R:3:charge:R:1:forces:R:3 energy=-22908.221055998103 pbc="F F F"
C       -2.65278679       1.38425185       1.13631387      -0.13912535      -0.00498260      -0.00350256      -0.00398562
N       -1.42643974       0.70356950       0.80429003      -0.38196576       0.00184639       0.00234377      -0.00037658
C       -1.42146716      -0.23837065      -0.14621713       0.44266519       0.00114144       0.00138160       0.00228710
O       -2.43674059      -0.58557756      -0.75577428      -0.56435800      -0.00481407       0.00452674       0.00005781
C       -0.12765379      -0.90051521      -0.48065091       0.07276241       0.00200333      -0.00303776       0.00305428
C        1.10544766      -0.64683007      -0.04710530      -0.15850492       0.00219536       0.00129004       0.00000778
C        2.11405386      -1.56490328      -0.69961672      -0.13100272       0.00503234       0.00437079       0.00510268
C        1.23769314      -2.66798713      -1.31632160      -0.17558996       0.00126002       0.00151361       0.00242134
C       -0.14460330      -2.01651746      -1.49871386      -0.15199669       0.00027502       0.00267195      -0.00275250
H       -3.39158409       0.69056159       1.53829139       0.07629553       0.00183140       0.00049417       0.00276191
H       -2.44048044       2.14988651       1.87840335       0.07840037       0.00130741      -0.00629705       0.00183621
H       -3.08442301       1.84627414       0.24867165       0.07820508      -0.00147346       0.00505567      -0.00314826
H       -0.58192768       0.99154691       1.30759519       0.24783364       0.00146289      -0.00214198       0.00453111
H        1.38855027       0.12611099       0.66030347       0.13478965      -0.00003615       0.00003693       0.00800008
H        2.67367206      -1.02029988      -1.46548121       0.06764385      -0.00276955       0.00201643      -0.00242563
H        2.84263352      -1.95256564       0.01164106       0.06270035       0.00504320      -0.00194413       0.00200794
H        1.15613006      -3.49351673      -0.60732025       0.07307949      -0.00620148      -0.00281761       0.00452046
H        1.64901122      -3.06674264      -2.24194663       0.06083649      -0.00172189       0.00149148      -0.00533316
H       -0.27676579      -1.60500450      -2.50289520       0.08029930       0.00010175      -0.00168758      -0.00124862
H       -0.97477227      -2.69706066      -1.32256743       0.07546496      -0.00004873       0.00098629      -0.00534853
S        0.99287601       2.04155112       2.55273968      -0.79983515      -0.00165179       0.00081409      -0.00184607
C        0.95151592       2.97396399       0.98378756      -0.29120371       0.00129842      -0.00188793      -0.00162575
H        0.00861294       3.50773258       0.84616377       0.07695595      -0.00003472      -0.00663212       0.00142709
H        1.75631495       3.70735201       0.94256259       0.08842110      -0.00046559      -0.00227121      -0.00811736
H        1.06995463       2.31551419       0.11839593       0.07722896      -0.00059936       0.00322556      -0.00180845
