22
Properties=species:S:1:pos:R:3:charge:R:1:forces:R:3 energy=-28922.533360802583 pbc="F F F"
N        1.58030829      -0.21228348       0.32902038      -0.39215335      -0.00588619       0.00267330      -0.00694673
C        1.02428198       0.04299420      -0.88344998       0.42879444      -0.00611955       0.00486157      -0.00525867
O        1.66972465       0.31722039      -1.87414098      -0.46102569       0.00678861      -0.00544291       0.00247562
C       -0.50052525      -0.01217052      -0.95659879      -0.07761574      -0.00497623       0.00320456       0.00420203
S       -1.17329160       1.67520052      -0.82760502      -0.15267056       0.00770617      -0.00284811      -0.00542077
C       -0.49924173       2.22450017       0.75044725      -0.19018427       0.00009771       0.00162078       0.00124717
C       -1.15769782      -1.01868046      -0.00928297      -0.10416903      -0.00096764      -0.00308054       0.00184348
C       -2.52484461      -1.48099967      -0.46133417       0.31788430      -0.00270712      -0.00107007       0.00092162
F       -3.44155226      -0.50763144      -0.45690356      -0.12716840      -0.00439217      -0.00074234      -0.00535123
F       -2.48996190      -1.99883835      -1.70167237      -0.13280860       0.00274095       0.00047537       0.00052513
F       -2.97205613      -2.45124745       0.36147089      -0.15199324       0.00218407      -0.00258342       0.00404787
C        3.01280640      -0.12946215       0.54564562      -0.11233390      -0.00666635      -0.00000341       0.00043119
H        1.00003523      -0.47853417       1.10325538       0.25579220       0.00208124       0.00186639      -0.00545345
H       -0.71599287      -0.28008078      -1.98641829       0.13487718       0.00323497      -0.00033662       0.00712308
H       -0.91127108       3.21740703       0.90900503       0.12833095      -0.00198444       0.00210981       0.00078610
H       -0.80888732       1.59587953       1.58204183       0.08456927      -0.00125807       0.00477261       0.00461655
H        0.58224154       2.29717270       0.71552153       0.08640377       0.00161689      -0.00115943       0.00252673
H       -1.27430380      -0.61437374       0.99515970       0.08399966       0.00249381       0.00194889      -0.00047684
H       -0.54369554      -1.91788517       0.05103195       0.10051487       0.00051729      -0.00490286      -0.00447746
H        3.40689363      -1.07911585       0.90419665       0.09098685       0.00101065      -0.00270806      -0.00392464
H        3.25181688       0.65215444       1.26573440       0.08589584       0.00719172      -0.00061039       0.00216351
H        3.47955867       0.11189732      -0.40337090       0.10407344      -0.00270675       0.00195518       0.00440019
