27
Properties=species:S:1:pos:R:3:charge:R:1:forces:R:3 11_TS=T (SP=-976.163685209415,U=-975.93375631,H=-975.9328121,G=-975.98893792) energy=-26559.084038342848 pbc="F F F"
C        3.41077158      -1.10917276      -1.15789499      -0.14143838      -0.00063250      -0.00248402      -0.00005576
C        2.06078912      -0.85406054      -1.00194435      -0.12444197       0.00112689       0.00517862      -0.00144250
C        1.56528150      -0.36770465       0.20301807       0.04820126       0.00055942       0.00678765      -0.00262208
C        2.45583215      -0.10471626       1.23800946      -0.15056536      -0.00062905      -0.00178392       0.00128387
C        3.81058632      -0.36030492       1.08981828      -0.13170266       0.00066709      -0.00056228       0.00131490
C        4.28862100      -0.86644146      -0.10784593      -0.13910641      -0.00159637      -0.00355546       0.00118122
C        0.13736141      -0.08646425       0.39250334      -0.03278768      -0.00168214       0.00467837       0.00101773
C       -0.87640437      -0.78910695      -0.20001782      -0.14984262      -0.00084298       0.00057751       0.00122241
C       -2.25914693      -0.59732401       0.22504893       0.46856987      -0.00449196      -0.00281540       0.00391973
O       -2.63194817       0.14657112       1.10145229      -0.42493320       0.00001753      -0.00265841      -0.00617154
O       -3.10504226      -1.34870382      -0.49955419      -0.27685359      -0.00367914      -0.00133806      -0.00183958
C       -4.48261391      -1.25335557      -0.12117472      -0.09119189      -0.00334981      -0.00145722       0.00171834
S       -0.37945108       1.53329758      -1.52428379      -0.13575706      -0.00265047      -0.00322033      -0.00130149
C       -1.70883506       2.31271803      -0.66008149      -0.26439068       0.00620496       0.00451951      -0.00022864
H       -0.10995501       0.57923333       1.21208523       0.12511262      -0.00057784       0.00212656       0.00200380
H       -0.68477783      -1.48438367      -1.00131098       0.13008863       0.00099256       0.00095789      -0.00172362
H       -1.59085949       3.39274164      -0.74057321       0.12303349       0.00728016      -0.00407754       0.00400261
H       -2.67836751       2.03726842      -1.06265110       0.10785337       0.00280512       0.00176951      -0.00667255
H       -1.73474224       2.06722256       0.39884581       0.09493830      -0.00110980      -0.00139466       0.00125227
H       -5.01312113      -1.94219563      -0.76909973       0.10322847       0.00236798      -0.00152917       0.00126261
H       -4.61005667      -1.53074976       0.92280301       0.09458171      -0.00150362      -0.00343219       0.00240932
H       -4.84825232      -0.23836726      -0.26553458       0.08749963       0.00011740      -0.00001804       0.00207881
H        2.07247316       0.30295013       2.16341878       0.13121879      -0.00159917      -0.00119191      -0.00037599
H        4.49336249      -0.16341108       1.90300526       0.14139551       0.00149538       0.00264170       0.00053646
H        5.34390622      -1.06545355      -0.22551567       0.13878185      -0.00068832       0.00013119      -0.00198053
H        3.78576282      -1.48935386      -2.09750508       0.13973814       0.00023115      -0.00101497      -0.00013924
H        1.37357915      -0.97652668      -1.82624907       0.12876986       0.00116700       0.00316520      -0.00064995
