17
Properties=species:S:1:pos:R:3:charge:R:1:forces:R:3 12=T (SP=-402.176835701162,U=-402.0347386,H=-402.03379439,G=-402.07646735) energy=-10943.755615375234 pbc="F F F"
C        2.04618711       0.46016851       0.00032438      -0.05813551       0.00023795      -0.00044112      -0.00286229
C        1.07880541      -0.45963118      -0.00551640      -0.10975732      -0.00054813       0.00344978       0.00026378
C       -0.36393508      -0.19669210      -0.00233118       0.09668147       0.00019967      -0.00288297       0.00015423
C       -1.23985569      -1.28386635      -0.00267436      -0.14992410      -0.00218829      -0.00240959      -0.00054888
C       -0.90178908       1.08967802       0.00005963      -0.13613383       0.00729905       0.00082609      -0.00090206
C       -2.61153931      -1.09461556      -0.00151072      -0.12969796      -0.00272302      -0.00052707       0.00236809
H       -0.83470950      -2.28623754      -0.00365317       0.13163172      -0.00188082      -0.00370976      -0.00059396
C       -2.27315834       1.28068674      -0.00015377      -0.13223442       0.00606531      -0.00016788       0.00367546
H       -0.24518950       1.94641239       0.00206655       0.12719567       0.00353988       0.00564136      -0.00321067
C       -3.13325470       0.19050705      -0.00041816      -0.14296338      -0.00007396       0.00232722       0.00020555
H       -3.27490649      -1.94631980      -0.00088773       0.13923486      -0.00140589      -0.00345841      -0.00174241
H       -2.67358474       2.28346037       0.00048138       0.13808818      -0.00003900      -0.00332678       0.00076621
H       -4.20302455       0.34281319       0.00069679       0.13952293      -0.00220873      -0.00038418      -0.00133899
C        3.43420498       0.11071034      -0.00542247       0.25473315      -0.00168698       0.00380395       0.00170586
N        4.55506474      -0.14513053      -0.00982034      -0.41394231      -0.00264353      -0.00229048      -0.00009942
H        1.36419635      -1.50448621      -0.01366970       0.12386320       0.00080129       0.00755424       0.00125572
H        1.83197947       1.51646086       0.00915343       0.12183774      -0.00274496      -0.00400407       0.00090378
