36
Properties=species:S:1:pos:R:3:charge:R:1:forces:R:3 16H=T (SP=-838.405627895221,U=-838.08328855,H=-838.08234434,G=-838.14387136) energy=-22815.101274186094 pbc="F F F"
N       -3.26058393      -0.26027833      -0.19787029      -0.35729638       0.00044752      -0.00161037       0.00045006
C       -1.98714980       0.21650698       0.00043242       0.41854838      -0.00157950       0.00463890       0.00341868
C       -1.30932631      -0.40175307       1.14591431      -0.22168048       0.00685536      -0.00331007      -0.00313027
C       -0.05386253      -0.02310357       1.47927410      -0.20249571      -0.00484245       0.00117929       0.00262619
O       -1.44771508       1.08897399      -0.67830624      -0.48140854      -0.00067911      -0.00205733      -0.00145137
H       -1.83560314      -1.12819557       1.75459113       0.10864740       0.00161744       0.00099154       0.00110198
H        0.47296175       0.65127556       0.81848042       0.13592623       0.00069838      -0.00303740      -0.00300205
C        0.60435785      -0.40710520       2.73043517      -0.00528800      -0.00045108       0.00149492       0.00199921
C       -4.26613295       0.17720018      -1.07543085       0.03981364       0.00087928      -0.00223644       0.00227470
C       -5.47155871      -0.49134010      -1.07174509      -0.23180439       0.00018500       0.00302083       0.00244460
C       -6.52215582      -0.08544750      -1.91750953       0.04925302       0.00129723      -0.00337599      -0.00272851
C       -6.33725087       1.01465321      -2.77775272       0.22770175      -0.00164586      -0.00171630      -0.00162997
C       -5.09013916       1.68068716      -2.76505837      -0.17525256      -0.00065748       0.00250104       0.00127640
C       -4.07209277       1.28233533      -1.94238027      -0.15405124      -0.00100339      -0.00151285      -0.00025846
H       -5.61101953      -1.33840718      -0.41093561       0.11845744      -0.00084059       0.00154748      -0.00398936
H       -3.12322672       1.78813834      -1.93667720       0.13235036      -0.00151352       0.00219763      -0.00177513
H       -3.53405030      -1.02685122       0.39043729       0.25862792       0.00028475       0.00324115       0.00012587
H        1.68595801      -0.49156884       2.69993678       0.08280855       0.00361261      -0.00116024       0.00011989
H        0.17939342      -1.31272141       3.15335792       0.07624077       0.00191043       0.00144306      -0.00008954
N        0.33247210       0.68240871       3.84262073      -0.09881093      -0.00057635      -0.00351106       0.00377201
C        1.03506310       1.95208834       3.55754191      -0.06740233      -0.00266457      -0.00242206      -0.00317356
C        0.60527175       0.19390132       5.20517375      -0.06763873      -0.00034291      -0.00098901       0.00558640
H        0.03931513      -0.71428113       5.38546150       0.08836282      -0.00184322      -0.00056489       0.00062596
H        0.31641188       0.95314936       5.92514327       0.10181999       0.00058073       0.00130140       0.00359114
H        1.66742806      -0.01362512       5.29331230       0.08938260       0.00289135      -0.00288467       0.00072548
H        0.72575420       2.29648537       2.57655194       0.07757866      -0.00223634       0.00153037      -0.00422698
H        2.10381329       1.75833609       3.55785340       0.08656417       0.00171383       0.00127590      -0.00448105
H        0.77886222       2.68795856       4.31435527       0.10239002      -0.00124322       0.00152872       0.00194827
N       -7.33742154       1.43072120      -3.60536440      -0.43226266      -0.00114507      -0.00008448       0.00085674
C       -8.45735375       0.76232643      -3.55707821       0.21166077      -0.00058796       0.00285551       0.00260194
N       -8.75010531      -0.30674632      -2.77302311      -0.42874926       0.00005940      -0.00206069       0.00010892
H       -9.25285865       1.09034220      -4.21391693       0.05407643       0.00088976      -0.00077223       0.00091441
C       -7.79288574      -0.70979593      -1.97743979       0.06532274      -0.00052857       0.00227729       0.00003274
H       -8.00539492      -1.56365008      -1.34242513       0.07648975       0.00203436       0.00154530      -0.00303548
H       -4.96865824       2.52107004      -3.43374669       0.11912377      -0.00011181      -0.00226226      -0.00200999
H       -0.67064041       0.84123305       3.71472377       0.20299414      -0.00146485       0.00099837      -0.00162047
