29
Properties=species:S:1:pos:R:3:charge:R:1:forces:R:3 17_TS=T (SP=-1102.787714358178,U=-1102.54847165,H=-1102.54752744,G=-1102.6067896) energy=-30005.36744556688 pbc="F F F"
N       -2.98606196       0.17836795       0.12449030      -0.34314993       0.00070019      -0.00025423      -0.00179361
C       -1.88539800       0.97792743       0.43534485       0.41671658      -0.00193376       0.00408761       0.00096137
C       -1.00277725       0.41443224       1.40018784      -0.25703475       0.00495662       0.00219340      -0.00309660
C        0.34586011       0.91141601       1.39826157      -0.08691484       0.00128093      -0.00100540      -0.00389961
O       -1.63680167       2.02729801      -0.14647616      -0.41597340      -0.00162456      -0.00426659       0.00263132
S        0.54386630      -0.47790622       0.08967153      -0.14146331       0.00305400      -0.00099156       0.00319213
C        2.25280631      -0.65435113      -0.57889869      -0.17642222       0.00273353      -0.00407651       0.00046309
H       -1.26451335      -0.43875830       2.00197209       0.13168643      -0.00117389       0.00314278      -0.00345176
H        0.46059159       1.88354863       0.92938887       0.12987013      -0.00142480      -0.00139150       0.00205814
H        0.94572485       0.76347882       2.29173267       0.12694964      -0.00274605      -0.00240841       0.00134091
H        2.61725084       0.20049646      -1.15376335       0.10429876      -0.00313305       0.00372029       0.00132122
H        3.00484227      -0.93655788       0.16110387       0.10325919      -0.00018439      -0.00487034       0.00145015
H        2.10761896      -1.48989173      -1.26229511       0.10229333      -0.00046009       0.00181832      -0.00167350
C       -4.02445355       0.48054851      -0.75149658       0.12513329      -0.00097921       0.00075471      -0.00237930
C       -5.04465375      -0.50432106      -0.89968425      -0.17719962      -0.00415190       0.00411465       0.00624029
C       -6.09304994      -0.27636825      -1.72614398      -0.17654493      -0.00020712      -0.00278900       0.00144566
C       -6.17280696       0.93914077      -2.44824942       0.07737398      -0.00287931      -0.00177606       0.00314707
C       -5.15812798       1.90410345      -2.30857239       0.27147707      -0.00361275      -0.00063880       0.00164066
C       -4.06916639       1.66397431      -1.44513794      -0.16533025       0.00105213      -0.00124737      -0.00426429
N       -5.22211700       3.07644526      -3.00470073      -0.41195670       0.00117080       0.00051899       0.00033521
C       -6.25301323       3.24012679      -3.78118047       0.26562303       0.00117333       0.00280479       0.00207188
N       -7.28679691       2.38129437      -3.98711277      -0.40151253       0.00410857       0.00401945       0.00277877
C       -7.22924011       1.25807955      -3.32312628       0.07999635       0.00528635      -0.00062636      -0.00629730
H       -4.97246401      -1.43302112      -0.34968707       0.13339683      -0.00006278       0.00306578       0.00201008
H       -6.87363260      -1.01343418      -1.84315579       0.13109107       0.00158689      -0.00278351       0.00102480
H       -3.27577961       2.38183083      -1.31929942       0.14176461      -0.00275017       0.00102972       0.00153678
H       -6.30855942       4.16788717      -4.33642767       0.06226844      -0.00752855      -0.00133697      -0.00345805
H       -8.04230290       0.55339049      -3.46737542       0.08640499       0.00188028      -0.00150402      -0.00170809
H       -3.07331950      -0.66805979       0.65315385       0.26389891       0.00586955       0.00069578      -0.00362801
