41
Properties=species:S:1:pos:R:3:charge:R:1:forces:R:3 18H_TS=T (SP=-1276.678743033517,U=-1276.31597438,H=-1276.31503017,G=-1276.38481393) energy=-34741.261931552166 pbc="F F F"
N       -2.65050640       0.16394268       1.71355179      -0.35607770      -0.00082523       0.00350926       0.00169389
C       -1.55167824       0.59330591       2.44311226       0.19505191       0.00115842       0.00347581      -0.00257265
C       -0.46950325      -0.17811496       2.65859833      -0.28339589      -0.00297623       0.00105049      -0.00058136
C        0.81113565       0.37415578       3.21900089       0.00918374      -0.00349410      -0.00004469      -0.00066714
O       -1.69008045       1.84060131       2.92066745      -0.33751249       0.00429484       0.00486477      -0.00065097
S        2.14544304      -0.78046563       2.78036086      -0.18637371       0.00240620      -0.00025086       0.00078521
C        3.56528726       0.31296486       2.97636132      -0.19933812      -0.00494821       0.00203961       0.00430429
H       -0.49863267      -1.23436377       2.41624474       0.12918155       0.00323078      -0.00194559       0.00108459
H        1.02597480       1.33657837       2.74850986       0.09434448      -0.00057920      -0.00171937      -0.00417461
C        0.75393388       0.61602339       4.73419526      -0.04114735      -0.00309583       0.00405695       0.00214695
H        3.46063017       1.20159936       2.35721628       0.08814172      -0.00153298       0.00080818       0.00156997
H        3.71303804       0.60622881       4.01374466       0.08275858      -0.00093586      -0.00125006      -0.00450148
H        4.44218995      -0.23833298       2.64620387       0.12035896       0.00425409      -0.00311956       0.00101431
C       -3.70213469       0.93104842       1.23205693       0.11505347      -0.00077446      -0.00212621       0.00268088
C       -4.92187890       0.23659623       0.97419260      -0.18316869       0.00041988       0.00074630      -0.00394340
C       -6.00395783       0.88577897       0.47492473      -0.18227638      -0.00022895      -0.00018848       0.00169952
C       -5.93530365       2.27294198       0.18574481       0.08491082      -0.00278211       0.00155672      -0.00422989
C       -4.72756430       2.96108162       0.42443082       0.32562158      -0.00241175      -0.00153648       0.00686253
C       -3.61527173       2.27574411       0.95396036      -0.16481653      -0.00136313      -0.00129678      -0.00346592
N       -4.62613691       4.29234878       0.14430655      -0.42004946      -0.00306174      -0.00011653      -0.00254280
C       -5.69201972       4.86742188      -0.34008681       0.25262821       0.00461764      -0.00199112       0.00607431
N       -6.90103993       4.30727249      -0.60250875      -0.41330755       0.00275647       0.00093799      -0.00256054
C       -6.99954299       3.02943107      -0.33675235       0.07607542       0.00203699       0.00001439       0.00573065
H       -4.97997801      -0.82156697       1.19691509       0.12921442       0.00182224       0.00189141      -0.00138835
H       -6.92521341       0.35017133       0.29458889       0.12657931       0.00253495      -0.00210666      -0.00091013
H       -2.70862153       2.82984673       1.11277723       0.12334093      -0.00166163      -0.00071856       0.00317125
H       -5.61982542       5.92349287      -0.56653156       0.05598403      -0.00007158      -0.00629017       0.00538896
H       -7.95561582       2.55564085      -0.53715051       0.08219430       0.00727469       0.00027927      -0.00118249
H       -2.68318337      -0.81938849       1.52360904       0.27830511      -0.00344252       0.00142277       0.00264802
H        1.75227193       0.71151475       5.16948582       0.06658502      -0.00014360      -0.00127665      -0.00105185
H        0.27726618      -0.25226408       5.18253913       0.08528805       0.00154916       0.00233563      -0.00106208
N       -0.02656103       1.81637615       5.06191930      -0.24147385      -0.00116548       0.00282380       0.00134627
C        0.80070294       3.02010375       5.01938140      -0.11449993       0.00043890      -0.00179062      -0.00447341
C       -0.66814355       1.69133521       6.36338728      -0.12117302      -0.00070658      -0.00018092      -0.00430193
H       -1.32511548       0.82578008       6.34924865       0.07526343      -0.00192704       0.00717411      -0.00022065
H       -1.25882784       2.57990017       6.57000940       0.08589870       0.00327771      -0.00576339      -0.00626542
H        0.06249631       1.55646502       7.16936344       0.06941334      -0.00005567       0.00268054      -0.00056987
H        1.53958252       3.03639869       5.82746067       0.07321276      -0.00275741      -0.00143499      -0.00043846
H        0.17009833       3.90057770       5.11285336       0.08757883      -0.00144104      -0.00072747       0.00562440
H        1.32961589       3.07038232       4.07150038       0.06678156       0.00247372      -0.00209479       0.00073077
H       -1.11393422       1.92494693       3.72413054       0.26566058      -0.00216492      -0.00369848      -0.00280224
