16
Properties=species:S:1:pos:R:3:charge:R:1:forces:R:3 21=T (SP=-623.994264445643,U=-623.87027489,H=-623.86933068,G=-623.91652) energy=-16981.65333123189 pbc="F F F"
N       -3.17359117      -0.13451748      -0.09325997      -0.42216855      -0.00445568      -0.00187893       0.00195862
C       -1.97586000       0.46938762       0.08925105       0.44687054       0.00077294       0.00449210      -0.00606450
C       -1.06985943      -0.22224791       1.06026889      -0.12509820       0.00479814      -0.00105403       0.00177596
C        0.13183863       0.27013135       1.31023950      -0.10233755       0.00569749       0.00317529       0.00686065
O       -1.66126552       1.49134554      -0.48939762      -0.46683583      -0.00074339      -0.00210455       0.00100765
H       -1.41318898      -1.12259474       1.55028292       0.12267159      -0.00552972      -0.00145502       0.00202719
H        0.47845087       1.16874794       0.81789598       0.16377570      -0.00668050      -0.00077429      -0.00106717
C       -4.15930996       0.43691742      -0.98910133      -0.12763184      -0.00051756       0.00200989      -0.00413811
H       -3.38072955      -0.97341596       0.41341369       0.29592597      -0.00438685      -0.00333790       0.00443454
H       -3.74004505       0.54618396      -1.98593622       0.09732173      -0.00114494      -0.00328956      -0.00182239
H       -4.46123009       1.42399692      -0.64626639       0.09617613      -0.00066997       0.00020509       0.00002158
H       -5.02821235      -0.21402577      -1.02879721       0.09796670       0.00232511       0.00581325      -0.00378743
C        1.08575056      -0.36054875       2.27292352       0.34699377       0.00074878      -0.00216505       0.00157337
F        1.44458617       0.50107530       3.24314886      -0.14671770       0.00511660       0.00221275      -0.00268278
F        2.22168654      -0.74464185       1.66047484      -0.14633866       0.00135419       0.00513291       0.00178932
F        0.56727447      -1.44616483       2.87239260      -0.13057373       0.00331497      -0.00698236      -0.00188630
