29
Properties=species:S:1:pos:R:3:charge:R:1:forces:R:3 22_adduct=T (SP=-956.835975788976,U=-956.57684113,H=-956.57589692,G=-956.63260676) energy=-26036.966058905226 pbc="F F F"
N       -2.99253970       0.23750694       0.46107132      -0.37512705       0.00171428       0.00182216       0.00004999
C       -1.96809023       1.04647344       0.82443945       0.40093359      -0.00125020      -0.00000474       0.00197423
C       -0.89816027       0.41717940       1.70360686      -0.14857893      -0.00109667       0.00026136       0.00006259
C        0.42867859       0.36497320       0.96204359      -0.12197671       0.00082773       0.00210624       0.00182605
O       -1.88070254       2.20788453       0.46883862      -0.46873417      -0.00075520      -0.00339020       0.00123008
S        0.37666989      -0.96227179      -0.26673866      -0.18965855       0.00086698       0.00312285       0.00152472
C        1.98939090      -0.69983445      -1.02375471      -0.20031294      -0.00321112      -0.00014614       0.00060376
H       -2.94668918      -0.73512873       0.70118891       0.25471422      -0.00130927       0.00221932       0.00064983
H        0.60257317       1.32015832       0.46873065       0.10413697      -0.00073551      -0.00023182      -0.00370438
H        1.24783085       0.17317157       1.65270646       0.09360481       0.00263025      -0.00276103      -0.00034806
H        2.06857710       0.29551516      -1.45450210       0.09234428       0.00143730      -0.00212150      -0.00060136
H        2.79885210      -0.85202752      -0.31347842       0.09252021       0.00052912       0.00385477      -0.00412724
H        2.08778217      -1.42918724      -1.82298331       0.11604907       0.00140916      -0.00069865       0.00228254
C       -4.04380971       0.67709059      -0.44743810      -0.02293874       0.00275435      -0.00050490       0.00188391
H       -0.79557682       1.05730827       2.57915114       0.09327518      -0.00128988      -0.00102478      -0.00002337
H       -1.18977253      -0.57563322       2.04596612       0.07488249      -0.00053395       0.00017324      -0.00036485
H       -3.64918618       0.73532933      -1.46290182       0.08424693      -0.00069273      -0.00360246       0.00212800
H       -4.33289067       1.68414532      -0.16076960       0.10051581       0.00081452      -0.00168733      -0.00163613
C       -5.21238107      -0.26793450      -0.39854868       0.03929749       0.00133014       0.00332636      -0.00074529
C       -6.33213576       0.02205310       0.37196487      -0.13501343       0.00347879      -0.00205438       0.00453562
C       -5.17436257      -1.46400078      -1.10793028      -0.13528518       0.00023947       0.00264177       0.00114354
C       -7.39762456      -0.86505324       0.42980086      -0.13248946       0.00135812      -0.00039932      -0.00197916
H       -6.36906360       0.94772031       0.92895392       0.12755200      -0.00300584       0.00158234      -0.00281997
C       -6.23722952      -2.35197733      -1.05253300      -0.13082847       0.00081272       0.00044008      -0.00239497
H       -4.30581802      -1.69934887      -1.70899517       0.12319291      -0.00215370      -0.00026448      -0.00036527
C       -7.35175902      -2.05405275      -0.28159706      -0.14019215       0.00009252      -0.00020428      -0.00132802
H       -8.26205380      -0.62732054       1.03259558       0.13431546       0.00077475      -0.00182067      -0.00023313
H       -6.19296582      -3.27677825      -1.60858333       0.13341358      -0.00240164      -0.00257612       0.00092964
H       -8.18010325      -2.74578465      -0.23496731       0.13614091      -0.00263527       0.00194286      -0.00015412
