27
Properties=species:S:1:pos:R:3:charge:R:1:forces:R:3 23=T (SP=-632.622578293537,U=-632.38520978,H=-632.38426557,G=-632.43896527) energy=-17214.349041836147 pbc="F F F"
N       -3.18185142      -0.11316264       0.11058317      -0.38690820       0.00091383       0.00229967       0.00219166
C       -1.90683544       0.34906496       0.06474797       0.42741978       0.00054050       0.00111505      -0.00091950
C       -0.95814137      -0.29392306       1.02000110      -0.15487774       0.00014175      -0.00182963      -0.00058917
C        0.30864472       0.08893992       1.06836088      -0.28295696      -0.00022396      -0.00141206       0.00008044
O       -1.57323330       1.22916244      -0.70771922      -0.46902868      -0.00738795       0.00197878      -0.00456730
H       -1.34038949      -1.07470666       1.66504877       0.12079820      -0.00171034      -0.00229788      -0.00096326
H        0.65615861       0.87115071       0.40882846       0.16020407       0.00063380      -0.00143633       0.00205865
H        1.01284016      -0.36194675       1.75402569       0.14644033       0.00162017       0.00055516      -0.00268170
C       -4.21381493       0.46665542      -0.73502222      -0.03320416       0.00141006       0.00040479       0.00319926
H       -3.44086835      -0.82672898       0.76413034       0.26282978      -0.00403243       0.00102658      -0.00230889
H       -3.81660015       0.53477983      -1.74468020       0.10218204      -0.00103501       0.00397959       0.00579095
H       -4.41270848       1.48870071      -0.41091060       0.08992727       0.00597862       0.00145400       0.00016990
C       -5.47207405      -0.35977062      -0.68398173       0.02192458       0.00390400      -0.00113568      -0.00340736
C       -6.37818125      -0.20089651       0.36363736      -0.15944616       0.00825316      -0.00106073       0.00008698
C       -5.73010446      -1.30143809      -1.66503328      -0.16109002       0.00112204      -0.00766750       0.00344157
C       -7.52015856      -0.97858280       0.41274662      -0.14469223       0.00384916       0.00493907      -0.00101145
H       -6.18793426       0.53560387       1.13086045       0.12820818      -0.00759939       0.00382745       0.00043032
C       -6.88355299      -2.08451305      -1.61593248       0.17256276      -0.00342652       0.00052600      -0.00117999
H       -5.03744055      -1.45370416      -2.48166141       0.13222630      -0.00274144       0.00349477       0.00002562
C       -7.78687478      -1.92440527      -0.57205422      -0.17494740       0.00331576      -0.00484178       0.00647787
H       -8.22016916      -0.85579029       1.22617086       0.13569960      -0.00391794      -0.00055898      -0.00504371
H       -8.68360077      -2.52156193      -0.51761885       0.13374159      -0.00036266      -0.00238151      -0.00033726
O       -7.03566406      -2.97690524      -2.63300944      -0.24190712       0.00447435      -0.00205059      -0.00096164
C       -8.16970000      -3.82106027      -2.59160759      -0.08334813       0.00413482       0.00026994       0.00251644
H       -8.10360131      -4.45755181      -3.46754423       0.09863731      -0.00351002       0.00590826       0.00104332
H       -8.17024569      -4.44328147      -1.69548346       0.07984629      -0.00779175      -0.00168890       0.00273118
H       -9.09694586      -3.24771428      -2.63351614       0.07975882       0.00344671      -0.00341789      -0.00627298
