26
Properties=species:S:1:pos:R:3:charge:R:1:forces:R:3 26_TS=T (SP=-917.162769175536,U=-916.93176676,H=-916.93082255,G=-916.98441124) energy=-24953.560305859493 pbc="F F F"
C       -1.96097339       0.64591045       0.71417599       0.43228194       0.00217138       0.00376352      -0.00389869
C       -1.11910596      -0.46826165       1.03964403      -0.24119438      -0.00231684       0.00136756       0.00234902
C        0.16348283      -0.13783456       1.59355883      -0.09518842      -0.00021429       0.00198910      -0.00228447
O       -1.80321495       1.75482890       1.22617851      -0.49781206      -0.00294764      -0.00366025      -0.00015013
S        0.63107174      -0.04196578      -0.25257551      -0.14606225      -0.00662433      -0.00554061      -0.00440851
C        2.41390535       0.31178606      -0.52746822      -0.17679518      -0.00071340       0.00243753       0.00522516
H       -1.31837469      -1.49608175       0.80044097       0.11792732       0.00151438      -0.00028196      -0.00044624
H        0.23007704       0.84060818       2.05935355       0.12974694       0.00126264       0.00353961       0.00445225
H        0.69735355      -0.92212966       2.12142244       0.12025927       0.00215886      -0.00254572      -0.00344638
H        2.74972754       1.28324942      -0.15451384       0.09935135       0.00496677      -0.00134633      -0.00121241
H        3.08849761      -0.46342108      -0.15459173       0.09875723       0.00127286       0.00188840      -0.00150906
H        2.47060129       0.32628405      -1.61638855       0.10020266       0.00099242      -0.00128849       0.00181979
C       -3.83533352       1.53697942      -0.57926432      -0.07392197      -0.00155016      -0.00103897       0.00144715
C       -3.22131824      -0.77975121      -0.95468731      -0.05094462      -0.00195962      -0.00434712       0.00168855
C       -4.91117344       0.85184486      -1.40262792       0.03513012      -0.00218754      -0.00378361      -0.00154576
H       -3.33547621       2.32788827      -1.14169886       0.09215613       0.00298005       0.00392388       0.00129696
H       -4.23173641       1.97123597       0.33420096       0.11089823      -0.00239960       0.00715367       0.00322715
C       -4.17018078      -0.30484769      -2.05179550      -0.15409124       0.00237134      -0.00224655       0.00143567
H       -3.72407727      -1.49286965      -0.29513497       0.09058272      -0.00155985      -0.00269953      -0.00057513
H       -2.32618721      -1.24231013      -1.36958620       0.07847806       0.00097296       0.00289396      -0.00110488
H       -5.35621703       1.53154829      -2.13138651       0.08121552      -0.00541457      -0.00253670      -0.00240767
H       -4.83915492      -1.09206635      -2.39219123       0.08261698       0.00178261       0.00365419      -0.00179210
H       -3.59270639       0.05706885      -2.90002500       0.08929099       0.00070177      -0.00131587       0.00269060
N       -2.90217581       0.46246493      -0.26335283      -0.18528342       0.00003963      -0.00391515      -0.00094738
O       -5.89901652       0.38202077      -0.49283127      -0.47654584       0.00394204       0.00105736      -0.00048544
H       -6.58025867      -0.06489372      -0.99729411       0.33894384       0.00075785       0.00287818       0.00058170
