29
Properties=species:S:1:pos:R:3:charge:R:1:forces:R:3 27_TS=T (SP=-898.49317369622,U=-898.22735779,H=-898.22641358,G=-898.28225757) energy=-24445.11242167721 pbc="F F F"
N       -3.08387249       0.02992025       0.11311665      -0.43710023       0.00066745       0.00329749       0.00069932
C       -1.91139160       0.65402262       0.46107619       0.45763984       0.00243227       0.00252047       0.00016428
C       -0.92312528      -0.13216359       1.14518587      -0.26096752      -0.00249023      -0.00319450       0.00053252
C        0.38444087       0.48290397       1.30418162      -0.02117957       0.00264978       0.00147966      -0.00425809
O       -1.72189073       1.83400131       0.16516063      -0.47363612       0.00295674      -0.00720602       0.00567102
S        0.78343017      -0.47484193      -0.18479276      -0.08535589       0.00053516       0.00164167       0.00295675
C        2.59804084      -0.21199198      -0.35165481      -0.18318848      -0.00255194      -0.00261718       0.00074417
H       -1.07144487      -1.11166822       1.56816803       0.12887625      -0.00148646      -0.00482117      -0.00295048
H        0.36621830       1.54453437       1.07960741       0.12135453      -0.00737997       0.00420611      -0.00280643
C        1.11414460       0.10401055       2.58011469      -0.01626178      -0.00049072      -0.00163728      -0.00024906
H        2.84680055       0.84561852      -0.43890451       0.09393619       0.00495796       0.00104601       0.00122303
H        3.13766000      -0.64138701       0.49296265       0.08507929      -0.00286466      -0.00262165      -0.00303964
H        2.89853031      -0.72428518      -1.26327049       0.11230087       0.00665553       0.00334088      -0.00444201
C       -4.06601282       0.70458339      -0.71310767      -0.11901558      -0.00007740      -0.00080344       0.00131304
H       -3.12226459      -0.96523279       0.18548171       0.28805253      -0.00352560      -0.00541833      -0.00085564
H        2.07536740       0.63584547       2.68428322       0.05708928      -0.00846249       0.00216178       0.00055225
H        1.33729096      -0.96091495       2.50767675       0.06776002       0.00455530      -0.00221571       0.00519361
N        0.27500657       0.32459634       3.73753249      -0.24550590       0.00271593       0.00298239      -0.00054793
C       -0.01660285       1.73706724       3.94238270      -0.13319820       0.00350348      -0.00136751      -0.00143109
C        0.84245483      -0.27023952       4.93170026      -0.13928173       0.00135643       0.00280064       0.00278083
H        1.03529498      -1.32723129       4.75716563       0.07375181       0.00203014       0.00233052       0.00445944
H        0.13328506      -0.18803497       5.75243631       0.08000319      -0.00470706       0.00176849      -0.00270259
H        1.78248858       0.20994165       5.24129218       0.06140409       0.00240049       0.00151236       0.00250743
H       -0.58977306       2.13941158       3.10951239       0.08428584       0.00289589       0.00035424       0.00359724
H        0.89539303       2.33795219       4.06442953       0.06217193      -0.00043714      -0.00201284       0.00274257
H       -0.61921560       1.85560691       4.84099436       0.08147672       0.00092420      -0.00454232      -0.00614060
H       -3.75834078       0.75842688      -1.75874730       0.07952505      -0.00770031       0.00404821       0.00041757
H       -5.01782859       0.18356534      -0.64823602       0.08915113      -0.00263741       0.00267727      -0.00215139
H       -4.17764556       1.72015348      -0.34641666       0.09083243       0.00357497       0.00028938      -0.00397974
