23
Properties=species:S:1:pos:R:3:charge:R:1:forces:R:3 29=T (SP=-518.032317172856,U=-517.83104558,H=-517.83010137,G=-517.87790366) energy=-14096.118885401065 pbc="F F F"
N       -3.21605517      -0.02654194      -0.06464385      -0.34545782      -0.00027800      -0.00032844       0.00337723
C       -1.92978199       0.44059835      -0.02883613       0.44751075      -0.00343918       0.00047494       0.00556905
C       -1.04829157      -0.25696832       0.97658577       0.01275402      -0.00168420      -0.00025071       0.00072399
C        0.21099940       0.14979068       1.06581478      -0.32234547       0.00386808      -0.00536554      -0.00088683
O       -1.51798159       1.33838484      -0.73548277      -0.45178929      -0.00150921      -0.00028412       0.00081856
H        0.57065305       0.94436197       0.43166868       0.15560214      -0.00393265      -0.00316109       0.00547039
H        0.88824668      -0.30839191       1.77229033       0.14477192       0.00787351      -0.00218585      -0.00155101
C       -4.28910998       0.42529775      -0.85763594       0.12610322      -0.00123974      -0.00274198      -0.00081366
C       -5.50189924      -0.24928340      -0.72486984      -0.16459014      -0.00112851       0.00315486      -0.00022007
C       -6.60819133       0.14089919      -1.45857782      -0.14240795       0.00029493       0.00764373      -0.00011610
C       -6.52017704       1.21162916      -2.33597928      -0.15718558       0.00075825      -0.00037305      -0.00413170
C       -5.31234077       1.87845738      -2.46867200      -0.13872266      -0.00162758       0.00179322       0.00007009
C       -4.19506870       1.49732699      -1.74040615      -0.12332089       0.00056146       0.00372538       0.00285220
H       -5.57806064      -1.08552920      -0.04031571       0.12619454       0.00087267      -0.00443995       0.00417485
H       -7.54115624      -0.39211766      -1.34262291       0.13662294       0.00123268      -0.00003303      -0.00146148
H       -3.25874396       2.01382936      -1.84258527       0.14098729       0.00203059       0.00095900      -0.00354561
H       -3.43286710      -0.78731252       0.55046442       0.24960209       0.00106081       0.00403592       0.00469938
H       -5.23021745       2.71340519      -3.14988659       0.13576357      -0.00642306      -0.00375270      -0.00071411
H       -7.38304806       1.52067336      -2.90741767       0.13764517      -0.00122576      -0.00255046      -0.00571850
C       -1.60138394      -1.35978285       1.83453268      -0.20295747      -0.00043760       0.00119875      -0.00057510
H       -2.42468095      -1.01005901       2.46138628       0.07367657      -0.00148336      -0.00233303      -0.00378854
H       -1.96477911      -2.19758308       1.23514142       0.07343619       0.00407346       0.00085749      -0.00169068
H       -0.82443345      -1.73993625       2.49341823       0.08810683       0.00178222       0.00395673      -0.00254180
