26
Properties=species:S:1:pos:R:3:charge:R:1:forces:R:3 2_TS=T (SP=-1009.273091542553,U=-1009.0592529,H=-1009.0583087,G=-1009.11650183) energy=-27460.1947241909 pbc="F F F"
C        4.36913250      -0.71241476       0.15571422      -0.13748287      -0.00193794      -0.00312397      -0.00310370
C        3.55237949      -0.76333616      -0.96529387      -0.13280755       0.00144832      -0.00218374      -0.00278411
C        2.22299651      -0.39404478      -0.87073726      -0.09622741       0.00125391      -0.00251763      -0.00238355
C        1.68718346       0.02127132       0.33927814       0.06228277       0.00153489      -0.00122544      -0.00034415
C        2.51505672       0.08977353       1.45060209      -0.14036864       0.00398623       0.00336121       0.00529861
C        3.84888722      -0.28271257       1.36164725      -0.13205843       0.00522627      -0.00213785      -0.00148178
C        0.24612903       0.38431822       0.46628668      -0.01901968      -0.00515752       0.00016399      -0.00433490
C       -0.74033013      -0.53550672       0.14331251      -0.02966841      -0.00729197      -0.00241222      -0.00076673
C       -0.46610435      -1.67609177      -0.65025893       0.24211662      -0.00154592       0.00354538       0.00485505
N       -0.27960104      -2.60449132      -1.30638524      -0.38011011      -0.00250901      -0.00084599      -0.00556462
C       -2.14544674      -0.24788690       0.49219453       0.40648457      -0.00394079      -0.00273742       0.00193936
O       -2.46918220       0.71292620       1.16737218      -0.44395381      -0.00086969       0.00020093      -0.00084750
N       -3.07280959      -1.11202565      -0.00183698      -0.61332524      -0.00048713       0.00028578       0.00079048
S       -0.03599759       2.18884926      -1.03137478      -0.15763921       0.00178463      -0.00187454      -0.00834024
C       -1.75423034       2.08641437      -1.40528241      -0.21911027      -0.00359716       0.00098128       0.00216075
H        0.00163104       1.02219471       1.30443221       0.12842192       0.00303625      -0.00094896       0.00318585
H       -1.99586754       2.90427677      -2.09257986       0.12991439       0.00101806       0.00470970       0.00083051
H       -2.37328997       2.18082621      -0.51532503       0.10955740       0.00189956       0.00294858       0.00556314
H       -2.00564710       1.14211199      -1.88643120       0.08875751       0.00195227      -0.00698882      -0.00200798
H        2.11794624       0.43851409       2.39256355       0.13587506      -0.00370035       0.00500629       0.00585277
H        4.47898948      -0.23587963       2.23573923       0.14316499       0.00506265       0.00291843       0.00093877
H        5.40554480      -1.00480679       0.08596687       0.14196843      -0.00010197       0.00120875       0.00633052
H        3.94790592      -1.09571219      -1.91321028       0.14189099       0.00735509       0.00242603      -0.00357698
H        1.58239598      -0.41923952      -1.73856673       0.13191199      -0.00797896      -0.00146989       0.00257087
H       -2.80835604      -2.00037619      -0.38224408       0.29702252      -0.00041868       0.00189547      -0.00463890
H       -4.01285908      -0.99550190       0.33393194       0.34240249       0.00397818      -0.00118575      -0.00014190
