13
Properties=species:S:1:pos:R:3:charge:R:1:forces:R:3 3=T (SP=-398.951601568867,U=-398.84836953,H=-398.84742532,G=-398.88863552) energy=-10856.831930978378 pbc="F F F"
C        2.27747344      -0.17001691       0.00430559      -0.24474172      -0.00362643      -0.00026061       0.00082053
C        0.97376532      -0.42200280      -0.00243617       0.05099689      -0.00219649      -0.00132336       0.00613726
C        0.47083730      -1.76642597      -0.00275107       0.25061145      -0.00061018      -0.00029635      -0.00184648
N        0.09435853      -2.85070845      -0.00320210      -0.38627073       0.00336829      -0.00014781       0.00058278
C        0.00268876       0.71623907      -0.00754798       0.46099874       0.00409603       0.00033722      -0.00447004
H        2.61803186       0.85525632       0.00471077       0.16204390       0.00062313      -0.00478619      -0.00102728
H        2.99471070      -0.97548775       0.00990178       0.16123295      -0.00267857       0.00617678      -0.00188805
O       -1.25361210       0.27406208      -0.00566935      -0.24449067       0.00350315       0.00089282      -0.00049010
O        0.32651634       1.87354813      -0.01255652      -0.43031690       0.00498588      -0.00088085       0.00152019
C       -2.26177547       1.29803988      -0.01032337      -0.08790263       0.00001266       0.00067106       0.00244145
H       -3.21225343       0.77744533      -0.00405470       0.10613040      -0.00349442       0.00262522      -0.00470007
H       -2.15714924       1.92477673       0.87063165       0.10086180      -0.00020914       0.00100217       0.00534221
H       -2.16080332       1.91321769      -0.89997482       0.10084651      -0.00377362      -0.00401007      -0.00242220
