33
Properties=species:S:1:pos:R:3:charge:R:1:forces:R:3 30_adduct_anti=T (SP=-1142.669452045735,U=-1142.38473602,H=-1142.38379181,G=-1142.4458211) energy=-31094.27069147608 pbc="F F F"
N       -3.14602187      -0.09091066      -0.09016669      -0.35885650      -0.00126119       0.00107029       0.00300955
C       -2.27412974       0.50587916       0.78151767       0.40984398      -0.00469836      -0.00166710       0.00434904
C       -1.12574508      -0.39569458       1.22463834      -0.07104203       0.00028299      -0.00009566       0.00034704
C        0.05868910      -0.11395404       0.29557675      -0.11317486       0.00148517       0.00074349      -0.00083848
O       -2.36458594       1.65784064       1.14518047      -0.41682202      -0.00031414      -0.00269173       0.00310385
S        1.36845234      -1.32801413       0.58088850      -0.18172669      -0.00244205      -0.00025513       0.00069490
C        2.54017188      -0.76509558      -0.67162189      -0.20132637       0.00110760       0.00085655      -0.00101014
H       -0.24926111      -0.18548457      -0.74938845       0.07561338      -0.00254050      -0.00329252      -0.00019076
H        0.43907454       0.89101415       0.47343305       0.10189825      -0.00126549       0.00375997      -0.00421811
H        2.10898333      -0.83086731      -1.66687521       0.09537843      -0.00152016       0.00153813      -0.00058040
H        2.86498767       0.25353941      -0.47840404       0.09498518      -0.00020735       0.00136961       0.00148867
H        3.40243761      -1.42343551      -0.61666016       0.11956672      -0.00212761      -0.00083202      -0.00024805
H       -2.89058132      -1.01007170      -0.39895229       0.25541139       0.00440683      -0.00065311       0.00673708
C       -0.79150080      -0.12674985       2.68517302      -0.21675204      -0.00045862       0.00083516      -0.00031809
H       -0.48316912       0.90805921       2.80923176       0.08728293       0.00361047      -0.00261348      -0.00158592
H       -1.66132249      -0.29848982       3.31511400       0.08211439      -0.00037105       0.00205662       0.00031048
H        0.01487338      -0.77756071       3.01361478       0.07317217      -0.00003526       0.00247087      -0.00364713
C       -4.28266699       0.45775472      -0.71258994       0.09705909       0.00328985      -0.00019257      -0.00085823
C       -4.76414829      -0.17574530      -1.82640347      -0.18885137       0.00308459       0.00137005      -0.00208650
C       -4.94434673       1.60395851      -0.20071043      -0.11755373       0.00429782      -0.00353044      -0.00121313
C       -5.92507049       0.29835403      -2.46701488       0.09900514      -0.00295301      -0.00143845       0.00824264
C       -6.07069050       2.06701224      -0.81220088      -0.15320797       0.00050898      -0.00274212       0.00231604
H       -4.54668154       2.09360611       0.67154886       0.13226524      -0.00461624      -0.00077678      -0.00119979
C       -6.49466416      -0.29432637      -3.61952201       0.08553094       0.00288160       0.00170337       0.00447514
C       -6.59490105       1.42656798      -1.95965556       0.27478668       0.00261270       0.00568273      -0.00321603
H       -6.58689259       2.93615153      -0.43167981       0.12791659      -0.00114704      -0.00572157      -0.00400514
C       -8.14142967       1.25601637      -3.60888716       0.25771058       0.00101024       0.00049467      -0.00461954
H       -9.03863243       1.62314980      -4.08976536       0.06498398      -0.00396580       0.00497099       0.00049891
N       -7.57686478       0.16260822      -4.18808157      -0.39937162       0.00126681      -0.00421681       0.00262261
N       -7.72485420       1.89889238      -2.55489057      -0.40903077       0.00094485       0.00407709      -0.00465090
H       -4.24627726      -1.04153346      -2.21857689       0.12228704      -0.00145772      -0.00149221       0.00004552
H       -6.02854473      -1.16682223      -4.06498980       0.08544497      -0.00068083       0.00132449      -0.00223508
H       -1.41429380      -1.44138903       1.10099713       0.08545899       0.00127199      -0.00211224      -0.00151958
