32
Properties=species:S:1:pos:R:3:charge:R:1:forces:R:3 5_adduct_syn=T (SP=-1088.235892384227,U=-1087.96275984,H=-1087.96181563,G=-1088.02217515) energy=-29612.96988931838 pbc="F F F"
C       -1.43821812       2.13984157      -0.23014523      -0.19888400      -0.00171143      -0.00033052       0.00165940
H       -2.39262309       1.62909844      -0.16971341       0.08423838      -0.00630377       0.00094598       0.00164410
H       -1.16037536       2.29874560      -1.26784909       0.09308565       0.00396709       0.00266936       0.00148509
S       -0.17219010       1.21595231       0.65673268      -0.14020139       0.00720742       0.00295001       0.00441831
C        0.92164736      -1.26111104       0.09601078      -0.00236831       0.00254928       0.00079624      -0.00073688
C       -0.20582677      -0.30159514      -0.34765034      -0.06556857      -0.00184143       0.00072006      -0.00076472
H        0.03677154      -0.00692305      -1.36507899       0.09098270      -0.00353461       0.00507729      -0.00160841
C       -1.56333325      -0.96093715      -0.36562045       0.04372119      -0.00482595       0.00256827      -0.00185483
C       -2.10269016      -1.37018045      -1.58236775      -0.14020711      -0.00046694       0.00125596      -0.00340164
C       -2.29026169      -1.16515629       0.80470109      -0.10917883      -0.00243242      -0.00409041      -0.00226345
C       -3.35495923      -1.96662236      -1.63072702      -0.13566373       0.00055506      -0.00152343       0.00273873
H       -1.54102364      -1.21712084      -2.49480088       0.12461174       0.00174369       0.00020781      -0.00404462
C       -3.53988353      -1.76014315       0.75566522      -0.12864830       0.00029320      -0.00496112      -0.00167942
H       -1.86997521      -0.85887589       1.75230014       0.12630503      -0.00376871      -0.00476101      -0.00319786
C       -4.07404077      -2.16197671      -0.46191286      -0.14385350       0.00058458      -0.00118241       0.00150624
H       -3.76977798      -2.28189347      -2.57780737       0.13926074       0.00238515       0.00009030       0.00486790
H       -4.09217448      -1.91645526       1.67123091       0.13895665       0.00525002       0.00159089      -0.00214251
H       -5.04777569      -2.62928833      -0.49979940       0.14003874       0.00237222       0.00107521       0.00296104
C        2.30642970      -0.68949043      -0.14592081       0.05751961       0.00136215       0.00281876      -0.00216352
C        2.83724166      -0.70200613      -1.42842162      -0.14379832       0.00086498      -0.00188905      -0.00064071
C        3.07824378      -0.14462355       0.86626301      -0.11592862      -0.00093996       0.00308539       0.00001329
C        4.10035134      -0.17209844      -1.64168736       0.06450739      -0.00173870       0.00239608      -0.00029242
H        2.28134930      -1.12139644      -2.25442454       0.12291531       0.00224331      -0.00154989      -0.00017780
C        4.33046793       0.36326216       0.54853309       0.06776326       0.00096861      -0.00431857      -0.00059252
H        2.71999116      -0.11110238       1.88401744       0.13431196       0.00138329      -0.00249775       0.00147448
N        4.84649042       0.35879678      -0.67674389      -0.37671584      -0.00219986      -0.00112586       0.00017148
H        4.52925173      -0.17157393      -2.63576234       0.10310472      -0.00161501      -0.00422045       0.00270936
H        4.94180945       0.79613258       1.33005604       0.10178889      -0.00107963      -0.00173039      -0.00104601
C        0.76011140      -1.68934335       1.48709920       0.24190031       0.00310662       0.00352766       0.00408093
N        0.63466089      -2.01848795       2.57770923      -0.40148124      -0.00299539      -0.00088964       0.00145648
H        0.82094841      -2.15679634      -0.51955156       0.10097380       0.00040298      -0.00076976       0.00001552
H       -1.51709837       3.10431616       0.26216101       0.12651174      -0.00178604       0.00406551      -0.00459536
