23
Properties=species:S:1:pos:R:3:charge:R:1:forces:R:3 energy=-14095.92546592826 pbc="F F F"
C        3.91574345      -0.67192201      -0.11050109      -0.28342935      -0.00238090      -0.00273277      -0.00434285
C        3.26192893       0.42465013      -0.47221102      -0.15888944       0.00228772       0.00238103       0.00142412
C        2.04832983       0.96945946       0.21664689       0.46349743       0.00115093       0.00313305      -0.00071450
O        1.71869021       2.13087025       0.05843222      -0.46441537      -0.00180268       0.00236273       0.00540280
N        1.36649545       0.10541376       1.02333719      -0.39567369       0.00300987      -0.00350339      -0.00368914
C        0.10226440       0.48136497       1.63856445      -0.03236165       0.00321790      -0.00185384      -0.00184472
C       -1.09989581       0.12285836       0.79374890       0.02624411      -0.00405274       0.00600039       0.00173165
C       -1.96312332      -0.89660033       1.17686998      -0.14926404       0.00172183       0.00006482      -0.00169311
C       -3.05359326      -1.23474210       0.38650998      -0.13818142       0.00066988       0.00212439       0.00217696
C       -3.29092009      -0.54974653      -0.79479381      -0.14684780       0.00140417      -0.00060492       0.00260479
C       -2.43563401       0.47398585      -1.17938544      -0.13828586      -0.00338898      -0.00061273      -0.00249944
C       -1.34476089       0.80935832      -0.39291179      -0.11802892      -0.00136051      -0.00278874      -0.00414260
H        4.79244644      -1.00714487      -0.64426577       0.15105018       0.00155000      -0.00115266       0.00276112
H        3.61753123      -1.26017382       0.74639329       0.13943522       0.00219554       0.00452579      -0.00240224
H        3.59645768       1.03663602      -1.29875797       0.12629333       0.00240734       0.00259769       0.00572340
H        1.52166989      -0.87248983       0.85731908       0.25973618      -0.00330287      -0.00633028      -0.00559576
H        0.02937520      -0.00173021       2.61161615       0.08663788       0.00016687       0.00049481       0.00022274
H        0.13624875       1.55613612       1.80471553       0.10346675       0.00017904      -0.00333912      -0.00348869
H       -1.77940423      -1.43065646       2.09993000       0.12800522      -0.00717668       0.00407914       0.00323544
H       -3.71619974      -2.03179081       0.69303740       0.13732792       0.00035847       0.00072279      -0.00001538
H       -4.13894354      -0.81083902      -1.41166651       0.13810319       0.00320074       0.00018259       0.00395376
H       -2.61011898       1.01670390      -2.09721259       0.13569088      -0.00144270      -0.00231834      -0.00360718
H       -0.68096466       1.60355572      -0.70190578       0.12988931       0.00138760      -0.00343274       0.00479947
