29
Properties=species:S:1:pos:R:3:charge:R:1:forces:R:3 energy=-26036.961914380314 pbc="F F F"
C       -3.96425790       1.11401987      -1.26340216      -0.14722580       0.00298910       0.00270246      -0.00248078
C       -3.35084133       2.06259026      -0.46094872      -0.13689487       0.00187833       0.00027216       0.00156099
C       -2.38477594       1.67480715       0.45779632      -0.14734861      -0.00073979      -0.00540680       0.00335013
C       -2.02284989       0.34052659       0.58500202       0.03878425       0.00583834      -0.00366368       0.00078189
C       -0.96824587      -0.09150270       1.57103531      -0.02484014       0.00707685       0.00037207      -0.00047549
N        0.30466235      -0.34867655       0.92269661      -0.36322740       0.00137077      -0.00109487       0.00050426
C        0.89527135      -1.56768058       0.89562755       0.40399003      -0.00207467       0.00007942      -0.00287066
O        0.41850410      -2.53951065       1.45348821      -0.47478101      -0.00269500       0.00157106      -0.00113576
C        2.20569500      -1.65786012       0.11535748      -0.14018825      -0.00234291       0.00122484       0.00370110
C        3.31688380      -0.73277265       0.62201970      -0.12337846       0.00067635      -0.00002033      -0.00183707
S        3.20658062       0.99589809       0.08740934      -0.17351305      -0.00443434       0.00371290      -0.00261935
C        3.55416833       0.79555675      -1.66995464      -0.18377116      -0.00034874      -0.00163468      -0.00171661
C       -2.64032309      -0.60550518      -0.22672531      -0.12375423      -0.00480343       0.00019911       0.00427771
C       -3.60689387      -0.22172156      -1.14276946      -0.13858771      -0.00310328       0.00025140       0.00016665
H       -4.71650290       1.41093905      -1.97951095       0.13661176      -0.00068605       0.00147090       0.00003875
H       -3.62101261       3.10488097      -0.55022191       0.13491610      -0.00274614       0.00165706       0.00024647
H       -1.90411061       2.41745457       1.08066885       0.12524411      -0.00639107      -0.00132575      -0.00024012
H       -0.83635127       0.67592692       2.33332041       0.08152369       0.00119520      -0.00266335       0.00162194
H       -1.26484960      -1.00938007       2.07314642       0.10321455       0.00065629       0.00603315       0.00035368
H        0.76123953       0.41643850       0.45104621       0.22553484      -0.00223530      -0.00253721      -0.00025686
H        2.53619329      -2.68807514       0.20091456       0.09711250       0.00216177       0.00525545       0.00068830
H        2.00962716      -1.45181490      -0.93645500       0.06820905       0.00151460      -0.00470750       0.00473464
H        4.28254830      -1.10893275       0.29117441       0.09411050       0.00490651       0.00297311       0.00004777
H        3.33049339      -0.72041250       1.70910028       0.10965461       0.00382533      -0.00250414      -0.00260435
H        3.65464062       1.79129080      -2.09245640       0.11924464       0.00016404      -0.00167469       0.00064090
H        2.74948428       0.27682629      -2.18471649       0.08211429       0.00028265      -0.00367523       0.00035603
H        4.48538207       0.25547418      -1.81730499       0.09414640      -0.00051727      -0.00007830       0.00216109
H       -2.36006173      -1.64608196      -0.13542787       0.12960263      -0.00165863       0.00183927      -0.00131674
H       -4.07885919      -0.96952671      -1.76369971       0.13349670       0.00023925       0.00137094      -0.00767801
