59
Properties=species:S:1:pos:R:3:charge:R:1:forces:R:3 energy=-54155.48767531139 pbc="F F F"
F       -8.32817131       4.51409812       1.09708024      -0.13114515      -0.00187904       0.00249319       0.00002523
C       -7.24673931       3.75065309       0.86939944       0.12042660       0.00089625       0.00385461       0.00057440
C       -6.06689903       4.33894378       0.44352044      -0.01274421      -0.00012244       0.00158351      -0.00384119
C       -4.96008788       3.54291096       0.21270263      -0.14275053      -0.00164088      -0.00202483       0.00138128
C       -5.03115793       2.16538099       0.40774184       0.11113808      -0.00003005      -0.00127402       0.00318144
C       -6.21773824       1.58313104       0.83363498      -0.11169017      -0.00056593      -0.00193805       0.00034540
C       -7.32314957       2.38864464       1.06293817      -0.14744078       0.00150919       0.00320672      -0.00119665
N       -3.84615322       1.44913639       0.14789613      -0.32334363       0.00254424      -0.00127235      -0.00420718
C       -3.55204438       0.12013268       0.27887952       0.31800407       0.00295916      -0.00243067       0.00264429
N       -4.47782638      -0.73295594       0.64786782      -0.38079089      -0.00039390       0.00101285      -0.00127915
C       -4.10971217      -2.02722065       0.77126738       0.23255563      -0.00143225      -0.00129999       0.00137706
N       -2.93677524      -2.54893089       0.57594604      -0.42528453       0.00022653       0.00337889      -0.00104623
C       -1.95536724      -1.67522897       0.18705100       0.19927274       0.00247436      -0.00037103      -0.00174456
C       -2.20528206      -0.31347923       0.00451617       0.01137441       0.00110305      -0.00214732       0.00840772
C       -1.15468542       0.53652035      -0.42388610      -0.15450145      -0.00425776       0.00138625      -0.00237619
C        0.09365424       0.03253269      -0.64475466       0.06265499      -0.00161601      -0.00217930       0.00527024
C        0.35374441      -1.35120417      -0.42296715       0.13178243       0.00285680      -0.00351476      -0.00099297
C       -0.65560771      -2.18200724      -0.02995150      -0.17597103       0.00346229      -0.00056954      -0.00178623
O        1.65838276      -1.70083814      -0.61585747      -0.23740034       0.00124867      -0.00338716      -0.00411563
C        2.11585114      -3.05204920      -0.70607583       0.07859154       0.00009137      -0.00100518      -0.00458141
C        1.45449399      -3.92958392      -1.77006899      -0.03563526      -0.00209758      -0.00403192      -0.00024984
O        1.82021856      -5.23306564      -1.37114162      -0.28300640       0.00114755      -0.00048636      -0.00527645
C        1.64693724      -5.28444962       0.04487945      -0.03915581      -0.00021053       0.00089861      -0.00308513
C        2.02870422      -3.89303988       0.57891820      -0.14655016       0.00050157       0.00274973      -0.00557439
N        1.18594847       0.79500475      -1.08769583      -0.29833740       0.00030998      -0.00240392      -0.00004123
C        1.26536388       2.15247145      -1.25987514       0.45103690      -0.00400051       0.00295131       0.00023715
O        0.29919472       2.89516970      -1.23197877      -0.46706003      -0.00672765       0.00285659       0.00366778
C        2.62355562       2.68234861      -1.54844931      -0.17478046       0.00190297      -0.00065967       0.00024544
C        3.76455435       2.32507103      -0.96479239      -0.12506974       0.00179102      -0.00368308       0.00332780
C        3.91029997       1.36003638       0.17722251       0.00368621       0.00212763      -0.00095603       0.00447811
N        5.18299616       1.50607466       0.86273724      -0.25477174      -0.00203635      -0.00342792       0.00354746
C        6.26381207       0.89448703       0.10978994      -0.14045882      -0.00282736       0.00076562       0.00316815
C        5.11443008       0.97358548       2.20883618      -0.14776023       0.00276769       0.00302543       0.00173599
Cl      -5.98224559       6.04840846       0.20451498      -0.04372986       0.00270241      -0.00123434      -0.00097996
H       -4.04008414       4.00705512      -0.11935199       0.13050397      -0.00202466      -0.00302341      -0.00058685
H       -6.25508342       0.51889865       0.97882850       0.11869374      -0.00048357      -0.00495514      -0.00006502
H       -8.25909238       1.96572798       1.39670579       0.15174022      -0.00144700       0.00180999      -0.00299892
H       -3.09308654       2.03664699      -0.14548960       0.25443918       0.00172308       0.00290341      -0.00069978
H       -4.90065411      -2.70185769       1.07329567       0.06090742      -0.00330752      -0.00015002       0.00511652
H       -1.29117012       1.58756216      -0.59566645       0.13385521      -0.00475072       0.00537336      -0.00153227
H       -0.51565097      -3.23845892       0.12270874       0.12329499       0.00108238       0.00516172       0.00493613
H        3.15892768      -2.93505995      -0.98036121       0.08726235       0.00122798      -0.00140864       0.00068880
H        1.83472149      -3.73675954      -2.76880030       0.09540606      -0.00357455      -0.00003987       0.00522923
H        0.36966207      -3.80920356      -1.77754412       0.07919630       0.00142828       0.00191261      -0.00111801
H        2.27756705      -6.08118436       0.42400170       0.10066774       0.00245560       0.00321636       0.00280044
H        0.60582675      -5.52316533       0.27410441       0.07849991      -0.00224948       0.00138585      -0.00032901
H        2.98349459      -3.90085054       1.09772940       0.09272894      -0.00337852      -0.00421483      -0.00233544
H        1.29040965      -3.49553834       1.26787644       0.07257009       0.00637240      -0.00179707       0.00406606
H        2.00510861       0.24586670      -1.27931633       0.22805516       0.00222869      -0.00126022      -0.00679018
H        2.60126065       3.49655884      -2.25861698       0.12038880       0.00084372       0.00282467      -0.00089335
H        4.67657211       2.80460739      -1.29769705       0.12281550       0.00159378      -0.00611590      -0.00102515
H        3.78678214       0.32609002      -0.18527303       0.06592980       0.00305639       0.00710552       0.00050961
H        3.09079521       1.51790257       0.88152604       0.09523177      -0.00145269      -0.00673215      -0.00463908
H        6.15078832      -0.19609556       0.03357460       0.06649131      -0.00282426       0.00166735      -0.00376732
H        6.29929466       1.29017075      -0.90337481       0.07828211      -0.00075434       0.00188220       0.00278754
H        7.21414693       1.10880036       0.59303365       0.08778290      -0.00133810      -0.00061394      -0.00023748
H        4.36746771       1.52522853       2.77495329       0.08330883       0.00012840      -0.00329859      -0.00221545
H        4.84716523      -0.09365437       2.23329444       0.06320966       0.00185416       0.00886821       0.00225112
H        6.07704743       1.09578824       2.70089100       0.08759317       0.00080698      -0.00036427      -0.00039166
