41
Properties=species:S:1:pos:R:3:charge:R:1:forces:R:3 energy=-25952.727221940513 pbc="F F F"
N        3.85015023       0.51226581       0.42974466      -0.22521913       0.00089305      -0.00075517      -0.00052138
C        3.53122054       1.48146561       1.46600888      -0.06912703      -0.00444678      -0.00095605       0.00032583
C        2.27102681       1.05495979       2.21285948      -0.12740101      -0.00369600      -0.00323063       0.00183600
C        1.18359508       0.74893749       1.22226861      -0.02753523      -0.00276944       0.00479202      -0.00220576
C        1.45801981       0.45828487      -0.11449011       0.19938856       0.00359553      -0.00321186       0.00000529
N        0.51586068       0.18592439      -1.00322218      -0.40910089       0.00269586       0.00509971      -0.00105849
C       -0.75288479       0.20091801      -0.56194517       0.44660774       0.00084788      -0.00093122       0.00082210
N       -1.14215846       0.46476485       0.69690237      -0.35224321      -0.00576798       0.00098305      -0.00167943
C       -0.16676411       0.73096838       1.54915522       0.04799977      -0.00499756       0.00406441      -0.00348743
N       -1.67969241      -0.07525743      -1.51004198      -0.40822276      -0.00109346       0.00269487       0.00076659
C       -3.11529104      -0.23365820      -1.33543988       0.03667893      -0.00225237       0.00510674       0.00350817
C       -3.49652067      -1.36224708      -0.37959069      -0.14508511       0.00156803       0.00191680      -0.00109068
C       -5.00222355      -1.61210618      -0.49514545      -0.03179332       0.00099777      -0.00241536      -0.00009685
O       -5.72411802      -0.43547600      -0.84883971      -0.29318461       0.00177460      -0.00313873       0.00628709
C       -5.15804385       0.72002592      -0.25419894      -0.02640109       0.00071431       0.00028783       0.00019797
C       -3.80883045       1.06014057      -0.88878974      -0.15628374      -0.00288922       0.00568518      -0.00027029
C        2.87254023       0.46313261      -0.64305136      -0.05979218       0.00196107      -0.00190454       0.00008633
C        4.57704912      -0.58345728       0.81061175       0.46128634      -0.00188655       0.00272780      -0.00120276
O        4.95420973      -0.74368996       1.95838234      -0.48293319      -0.00472120       0.00070370       0.00290605
C        4.92432719      -1.59290178      -0.23337625      -0.15473817       0.00440392       0.00002474       0.00077503
C        5.47442780      -1.29062257      -1.39751926      -0.29100507       0.00076134      -0.00289839       0.00013962
H        3.37273595       2.44718262       0.98625827       0.08670983      -0.00805804      -0.00033845       0.00210668
H        4.37896298       1.55219200       2.13512125       0.10539172       0.00006496       0.00055843      -0.00444245
H        1.96268051       1.84816600       2.89495216       0.08310506      -0.00177039      -0.00305379       0.00419574
H        2.50485807       0.17558419       2.81408445       0.09629473       0.00757681      -0.00475748      -0.00392433
H       -0.48753094       0.94608619       2.56346948       0.08105314       0.00228145       0.00242630      -0.00269188
H       -1.27384389      -0.33381812      -2.38860569       0.27598006       0.00061875       0.00208425      -0.00189567
H       -3.48777667      -0.49952026      -2.32514531       0.10191158       0.00018606       0.00058153       0.00427507
H       -2.93978232      -2.26282212      -0.62830886       0.07832853      -0.00296347      -0.00113637       0.00137739
H       -3.21823462      -1.07556655       0.63304885       0.08838560      -0.00008862       0.00288692      -0.00060287
H       -5.21218020      -2.33273092      -1.28396614       0.08071941      -0.00067750      -0.00404673      -0.00129314
H       -5.39275560      -2.01124469       0.44553729       0.07535509       0.00218630       0.00729788       0.00335346
H       -5.87176027       1.52554716      -0.39697133       0.08864765       0.00047021      -0.00165790       0.00171064
H       -5.03569097       0.56097114       0.82605264       0.07090415       0.00079963      -0.00741042      -0.00379790
H       -3.17724802       1.57583714      -0.17033477       0.07790755       0.00461187      -0.00533089       0.00229704
H       -3.93414072       1.71245176      -1.75260690       0.09010512       0.00048364       0.00191300      -0.00598828
H        3.02940070      -0.40861564      -1.26737779       0.09033833      -0.00174961       0.00015039      -0.00264992
H        2.98974417       1.34437063      -1.27813963       0.08175901       0.00207599      -0.00264426       0.00102424
H        4.79021243      -2.61565021       0.09149320       0.12649281       0.00201734      -0.00121961      -0.00007917
H        5.64171827      -0.26355224      -1.69468780       0.14066234       0.00025406       0.00071465       0.00049929
H        5.78501445      -2.05910701      -2.08897571       0.14805269       0.00598660      -0.00166214       0.00048347
