25
Properties=species:S:1:pos:R:3:charge:R:1:forces:R:3 energy=-17077.62885018977 pbc="F F F"
C        4.09915223       0.51714608       0.88131732      -0.28092852      -0.00103159       0.00153965       0.00032879
C        3.00019266       0.55780362       0.14223800      -0.15490913      -0.00363029       0.00318232       0.00268845
C        2.09762356      -0.62999925       0.12535687       0.42688811       0.00122485      -0.00239882      -0.00308113
O        2.44834471      -1.69482791       0.60352221      -0.46772859       0.00071738      -0.00048753      -0.00003214
N        0.86842404      -0.48454303      -0.45844856      -0.20698246      -0.00077269      -0.00037160       0.00154113
C        0.24318765       0.78535571      -0.77594226      -0.06105678      -0.00268683      -0.00325782      -0.00027309
C       -1.20055164       0.82630157      -0.33601805       0.22424194       0.00121736       0.00181981       0.00430764
N       -1.80550659       2.00539564      -0.45815917      -0.40384740       0.00086576       0.00195208      -0.00263376
C       -3.07692976       2.05998109      -0.08478337       0.27026820       0.00200028       0.00182089       0.00128578
H       -3.57398885       3.01637062      -0.18275148       0.06801774      -0.00143495      -0.00185472       0.00378999
N       -3.80733240       1.06098166       0.39739249      -0.38765308      -0.00359322       0.00299213      -0.00326996
C       -3.18205002      -0.10501281       0.50986699       0.07940704      -0.00233855       0.00290305       0.00125866
C       -1.85329920      -0.29771075       0.15979361       0.01152410      -0.00100325       0.00102811      -0.00160397
C       -1.15241054      -1.62376905       0.28205868      -0.13683137       0.00072318      -0.00104239      -0.00246831
C        0.03953920      -1.65618033      -0.66712276      -0.07054500       0.00383686      -0.00001922      -0.00203241
H        4.32900101      -0.37140425       1.45202775       0.16247904       0.00399110       0.00042978       0.00105893
H        4.78838898       1.34860644       0.92373942       0.14969333       0.00342276      -0.00014600       0.00324836
H        2.77408468       1.41823145      -0.46907540       0.11945279       0.00247846       0.00156242      -0.00456731
H        0.75508937       1.61320666      -0.29499482       0.09527119      -0.00192563      -0.00561266      -0.00166612
H        0.26479543       0.97195159      -1.85324476       0.08999152      -0.00288182       0.00068432       0.00101047
H       -3.77106076      -0.93139821       0.89335267       0.09040403       0.00176218      -0.00130580       0.00168392
H       -0.79267890      -1.77170561       1.30161909       0.10085203      -0.00024741       0.00361576       0.00101713
H       -1.83869494      -2.44003960       0.05606136       0.08392110      -0.00146221      -0.00171817      -0.00335181
H        0.64542009      -2.53567341      -0.50266231       0.10940029      -0.00071861      -0.00302411       0.00325292
H       -0.31192608      -1.65665018      -1.70059092       0.08866981       0.00148717      -0.00229240      -0.00149290
