58
Properties=species:S:1:pos:R:3:charge:R:1:forces:R:3 energy=-52354.191676112394 pbc="F F F"
Cl      -6.64473690      -0.29951127       0.80408011      -0.05866493       0.00510067      -0.00021429      -0.00087859
C       -5.27920233       0.76678134       0.76009621      -0.08028864      -0.00018732       0.00168870       0.00254321
C       -4.00269783       0.33878120       0.39877444       0.17320281       0.00007816      -0.00026251       0.00538667
N       -3.00638988       1.22861522       0.33956043      -0.28917104      -0.00280484       0.00188596      -0.00680258
C       -3.25828863       2.48377314       0.65634717       0.43530655       0.00311872      -0.00068429       0.00673809
N       -4.45471731       2.98101794       1.00893512      -0.39595556       0.00113780      -0.00037484      -0.00092717
C       -5.44667137       2.11135241       1.05631092       0.06329846       0.00024374       0.00087660       0.00406628
N       -2.26192855       3.41286411       0.62263754      -0.31459308       0.00343983      -0.00104877      -0.00527609
C       -0.89192388       3.25006403       0.39505744       0.05760295       0.00461785       0.00293956       0.00772747
C       -0.14784801       4.41347738       0.13000083       0.09319180      -0.00251984       0.00334448      -0.00522223
C        1.20645912       4.32630460      -0.10942463      -0.18714905      -0.00313792      -0.00183901       0.00038316
C        1.86787650       3.09959640      -0.06417231      -0.13357456      -0.00067990       0.00002887       0.00536111
C        1.14646289       1.96015665       0.22971573       0.11272167      -0.00295181       0.00098908      -0.00033979
C       -0.23496754       2.04177506       0.45025593      -0.14887613      -0.00107406      -0.00007731       0.00117643
N        1.69705118       0.66141909       0.31259640      -0.32272485      -0.00347940       0.00142428       0.00096972
C        3.00639751       0.26772565       0.21854863       0.43967509      -0.00040633       0.00558398      -0.00419125
O        3.94494071       1.03419448       0.12174251      -0.47411415       0.00421487       0.00240947      -0.00038352
C        3.25203113      -1.20422766       0.24874742      -0.13283381      -0.00065745       0.00331566       0.00414852
C        2.33467238      -2.12286682      -0.01858040      -0.10660667      -0.00017740       0.00241773      -0.00209631
C        2.49111953      -3.61676597       0.07601829       0.00504213      -0.00338662      -0.00190631       0.00055450
N        3.77152277      -4.18942243       0.41378963      -0.27847326      -0.00248314      -0.00560229       0.00038361
C        4.21296003      -3.94556914       1.77202690      -0.14210023       0.00217975      -0.00004670      -0.00281081
C        4.79871004      -4.01195488      -0.59200482      -0.14201902      -0.00124029       0.00267496       0.00234577
O       -0.88103530       5.56822933       0.14466460      -0.22138257      -0.00182718       0.00340767       0.00059804
C       -0.20607858       6.77653163      -0.14974595      -0.07351474       0.00265894      -0.00061898       0.00019720
C       -3.65338513      -1.03095714       0.05607389      -0.00685463       0.00085177      -0.00131131       0.00143379
C       -2.63237749      -1.38509151      -0.83661748       0.07428918      -0.00145268      -0.00302810      -0.00215117
N       -2.58821068      -2.75809832      -0.82885589       0.12255218      -0.00476074      -0.00410701      -0.00300001
N       -3.49575370      -3.30338796       0.00829607      -0.36810863       0.00209912      -0.00429959       0.00608467
C       -4.13069612      -2.27107474       0.52931780       0.01702443      -0.00253978      -0.00230882      -0.00250213
C       -1.71931075      -3.48127774      -1.60057938      -0.04164224       0.00142438      -0.00085755       0.00189507
C       -0.86326824      -2.81752706      -2.41079072      -0.13936281       0.00468180       0.00002794       0.00391858
C       -0.86989014      -1.39735338      -2.44877823      -0.10558679       0.00069196      -0.00036590      -0.00319538
C       -1.73464058      -0.68306889      -1.67476377      -0.11787435       0.00342371      -0.00062026       0.00098429
H       -6.42027949       2.48634973       1.33935602       0.09385804      -0.00318653       0.00127826      -0.00386269
H       -2.58351437       4.35461465       0.75517458       0.26562807       0.00123384      -0.00332768      -0.00623287
H        1.78196014       5.21082975      -0.33322590       0.13371682       0.00057759      -0.00708504       0.00195488
H        2.92530794       3.04738706      -0.24704474       0.14066857      -0.00093086       0.00103910      -0.00189775
H       -0.80937893       1.15713312       0.67320827       0.12000936       0.00266823      -0.00226065       0.00302797
H        1.03190282      -0.04312172       0.57368670       0.23315923      -0.00506771       0.00092648      -0.00003756
H        4.28277560      -1.43239672       0.46579557       0.11960888       0.00127423       0.00052501       0.00002820
H        1.35743632      -1.81897232      -0.36190584       0.09405676      -0.00278948       0.00486843       0.00433973
H        2.16647103      -4.03688182      -0.87813853       0.06879701       0.00000616       0.00323360      -0.00281387
H        1.75512118      -3.97230717       0.79970273       0.07352363      -0.00341007      -0.00152186       0.00225894
H        4.46657884      -2.90100079       1.97482958       0.06596897       0.00096732      -0.00076730      -0.00017879
H        3.42489952      -4.24021682       2.46312326       0.08025606      -0.00015957       0.00654284      -0.00719292
H        5.09061491      -4.55413015       1.97900967       0.08737440      -0.00185303      -0.00185106       0.00170476
H        5.65730282      -4.63189018      -0.34226762       0.08774639      -0.00274652      -0.00036334      -0.00205912
H        4.41322640      -4.33481189      -1.55752081       0.07983249      -0.00089531       0.00247231       0.00375487
H        5.14270702      -2.97866287      -0.69630704       0.06626658       0.00379943       0.00289276      -0.00271121
H        0.21970506       6.76063675      -1.15416969       0.08014829       0.00315993      -0.00575008       0.00124623
H        0.57777220       6.98378811       0.58022077       0.08013091       0.00214871      -0.00200974       0.00002702
H       -0.95940677       7.55605211      -0.09400540       0.09504690       0.00062198      -0.00481859       0.00043682
H       -4.90935275      -2.45272970       1.24760929       0.12078304      -0.00148899       0.00030079      -0.00123635
H       -1.78411369      -4.55320053      -1.50990453       0.13780575      -0.00159084       0.00092479       0.00308654
H       -0.18216329      -3.37561163      -3.03358374       0.12864873      -0.00074110       0.00164632      -0.00348479
H       -0.18883715      -0.89240352      -3.11635047       0.12152236       0.00212447      -0.00106095      -0.00539496
H       -1.77099007       0.39454713      -1.66642688       0.11300728       0.00208099       0.00072239      -0.00188378
