44
Properties=species:S:1:pos:R:3:charge:R:1:forces:R:3 energy=-60256.10287882774 pbc="F F F"
Cl      -4.26233472       2.95800189      -4.22174994      -0.12465182      -0.00124838      -0.00363196       0.00835166
C       -3.64619473       1.63344568      -3.25404950       0.02015921      -0.00049720       0.00231157      -0.00145699
C       -2.32657307       1.25001241      -3.39768756      -0.14414467      -0.00110790      -0.00010868       0.00035799
C       -1.84414113       0.19717868      -2.63161713      -0.13566969      -0.00006728       0.00140190      -0.00093694
C       -2.66563055      -0.47406728      -1.73300574       0.06403240      -0.00382253      -0.00189722       0.00404230
C       -3.98561923      -0.05655961      -1.60628152      -0.12054531      -0.00346935      -0.00341149      -0.00143232
C       -4.48629899       0.99110896      -2.36202671      -0.13810208       0.00322441       0.00012724       0.00083585
C       -2.09953548      -1.56536006      -0.86131202      -0.00712670       0.00071472      -0.00162946       0.00201412
C       -1.87551057      -1.06996702       0.51517791      -0.54166305      -0.00274368       0.00422806      -0.00039996
S       -0.54550196      -1.46923747       1.41001008       0.47212663      -0.00000022       0.00062439      -0.00166520
O       -0.84646629      -2.09664020       2.68559407      -0.42824751       0.00242359      -0.00171660      -0.00222135
O        0.48414352      -2.14509734       0.61810302      -0.38513926       0.00008757      -0.00004056      -0.00021255
N        0.14960240       0.03974934       1.85482783      -0.29108608       0.00175794       0.00045110      -0.00014325
C        0.29943173       0.93599784       0.70611591      -0.02260524      -0.00041925       0.00090845       0.00099675
C        1.33261663       1.99381357       1.02297015      -0.05363695      -0.00009534       0.00158054      -0.00043322
N        2.63999072       1.36395568       1.21145470      -0.18510093      -0.00321130      -0.00400116      -0.00295061
C        2.63018125       0.03262005       1.81999659      -0.05969784       0.00075154      -0.00121036       0.00089768
C        1.36264801      -0.10069788       2.65371509      -0.04461733       0.00088294       0.00122826       0.00111910
C        3.73872588       1.98198372       0.73162931       0.48001269      -0.00492179      -0.00660832      -0.00247660
O        3.73028248       3.13417798       0.31636601      -0.52551842       0.00023105      -0.00319269       0.00123638
C        5.01601269       1.18551178       0.71674643      -0.13052554      -0.00631641      -0.00197688       0.00004962
C        6.15375871       1.77201898       0.37976802      -0.31728232      -0.00061467       0.00025937       0.00455137
H       -1.69184485       1.77318261      -4.09833603       0.12544933       0.00452260       0.00087817      -0.00134000
H       -0.81120925      -0.10587516      -2.72992669       0.11199422       0.00222718      -0.00166666      -0.00306894
H       -4.62063190      -0.56127972      -0.89144094       0.11063591      -0.00098588      -0.00013799      -0.00181727
H       -5.51375277       1.30568559      -2.25513337       0.12661095       0.00396378      -0.00208871      -0.00123082
H       -1.16522485      -1.90306135      -1.31033481       0.10317393      -0.00100001      -0.00304396       0.00144709
H       -2.73188190      -0.74842284       1.09768399       0.16253375      -0.00261431       0.00100004      -0.00116355
H       -0.66282835       1.39221525       0.49932066       0.06711051      -0.00180233       0.00537153       0.00822282
H        0.58441912       0.38686268      -0.19917268       0.07985845       0.00208246       0.00259895      -0.00103080
H        1.03357679       2.53854775       1.92132550       0.07267161      -0.00122800       0.00699854      -0.00277633
H        1.42583787       2.70786136       0.21700460       0.09302019       0.00081579       0.00373839      -0.00144374
H        3.49329474      -0.07884573       2.47379921       0.08174244       0.00200264       0.00132929       0.00060132
H        2.65145245      -0.75335391       1.06219037       0.08469384       0.00328607       0.00208511      -0.00164547
H        1.37085252       0.67628584       3.42352272       0.07759136       0.00044587      -0.00332698       0.00343096
H        1.33827610      -1.06350407       3.15303701       0.08682349      -0.00039789       0.00230989      -0.00472816
H        4.99212719       0.13440449       0.95973493       0.10641662       0.00000297       0.00105106      -0.00636226
H        6.15234418       2.82030062       0.11350320       0.15255582       0.00057559      -0.00291151      -0.00110319
H        7.08643479       1.22572916       0.35320943       0.13573356      -0.00218644      -0.00337407       0.00388156
S       -3.21826747      -3.06709005      -0.98902734      -0.23415883       0.00609173      -0.00073340       0.00291266
C       -2.31198723      -4.13704000       0.13573174      -0.20748551       0.00299387      -0.00054524      -0.00666466
H       -1.25800978      -4.17221792      -0.12636227       0.08494411      -0.00629276       0.00188228       0.00589272
H       -2.73924503      -5.13657613       0.06621832       0.11125541       0.00662204       0.00318396       0.00056213
H       -2.39601860      -3.76291351       1.14894989       0.08585876      -0.00066367       0.00170707      -0.00270005
