39
Properties=species:S:1:pos:R:3:charge:R:1:forces:R:3 energy=-55077.456097989445 pbc="F F F"
C       -4.14145984       0.72597520       0.91595522      -0.12479931       0.00002292      -0.00177579      -0.00002698
C       -3.10854506      -0.16160968       0.64917310      -0.11173224       0.00299161       0.00284080      -0.00194948
C       -2.29911180      -0.00416607      -0.47043958       0.07102352       0.00022637      -0.00517518      -0.00356804
C       -1.18736961      -0.98015012      -0.75231579      -0.02202372       0.00530499       0.00202692      -0.00216264
S       -1.27423625      -1.69027621      -2.42969531      -0.17883205       0.00283705      -0.00332575       0.00691470
C       -2.95030940      -2.34312040      -2.36901241      -0.19633259      -0.00326581      -0.00032080       0.00011348
C        0.19103061      -0.35496802      -0.60838119      -0.11566941      -0.00038535       0.00316273       0.00620310
S        0.44173320       0.24825199       1.06541719       0.53966832       0.00292459       0.00028424      -0.00094598
O       -0.01296380       1.60389656       1.14106620      -0.34522641       0.00872532      -0.00192660      -0.00389545
O       -0.07537200      -0.75259211       1.95337571      -0.36781898       0.00557965       0.00480135      -0.00031922
N        2.05657435       0.27774292       1.24173845      -0.19792430      -0.00134013      -0.00293913      -0.00017761
C        2.77404886      -0.99396823       1.42941911      -0.03711903      -0.00477799       0.00143501       0.00396625
C        3.93011231      -1.06731448       0.45350664      -0.02946482      -0.00858224      -0.00305686       0.00273278
N        4.89320509      -0.00655024       0.74352105      -0.54166228      -0.00866948      -0.00221301       0.00224804
H        5.50351284       0.12786092      -0.04578999       0.30405724      -0.00506049       0.00044707       0.00385795
C        4.25144878       1.25249228       1.13608121      -0.03632656       0.00033347       0.00219668       0.00031780
C        2.82337094       1.36988472       0.63408559      -0.03545168      -0.00099846      -0.00614835       0.00163212
C       -2.53069929       1.07958091      -1.31007802      -0.10786660      -0.00030045      -0.00354495       0.00090583
C       -3.55540839       1.97447323      -1.05645871      -0.12672314       0.00683523       0.00451820       0.00472795
C       -4.35745325       1.78775635       0.05760319      -0.00962619      -0.00119186      -0.00328028      -0.00179408
Cl      -5.64822417       2.91067210       0.38029918      -0.08179920      -0.00224140      -0.00195525       0.00021388
H       -4.76620864       0.60807024       1.78835399       0.13792053       0.00069149       0.00092826       0.00120458
H       -2.90705191      -0.97220296       1.33575125       0.12619433       0.00027207       0.00249534      -0.00677181
H       -1.27435174      -1.80467558      -0.05182751       0.10020880       0.00091877       0.00488725      -0.00581544
H       -3.07240188      -3.01254003      -1.52222375       0.08865605      -0.00190716      -0.00409140      -0.00206226
H       -3.11480263      -2.90118565      -3.28604620       0.12228657      -0.00117841       0.00042348      -0.00314176
H       -3.66555234      -1.53050227      -2.30876364       0.08545725      -0.00900908      -0.00162585      -0.00194358
H        0.33553422       0.49851780      -1.26748535       0.09165953      -0.00531459      -0.00462566       0.00153161
H        0.96944095      -1.09267264      -0.80128486       0.07565946      -0.00143569       0.00754933       0.00391250
H        2.07273709      -1.80879531       1.28298583       0.08074171       0.00443974      -0.00314015       0.00062752
H        3.14860877      -1.05967000       2.45120766       0.09692332       0.00468329       0.00308676      -0.00102803
H        4.41661047      -2.03582096       0.53818722       0.08856439       0.00722596       0.00442203       0.00124928
H        3.51703243      -0.99691645      -0.56257331       0.06710558       0.00553011       0.00421450      -0.00206706
H        4.21996454       1.32812399       2.22578336       0.09000728       0.00152178      -0.00214974       0.00192312
H        4.83854091       2.09296502       0.77375161       0.08669306      -0.00054580       0.00406452      -0.00878357
H        2.82349957       1.31481752      -0.46173918       0.06431928      -0.00106941      -0.00200766       0.00324242
H        2.37120371       2.30954791       0.92793300       0.09554902      -0.00175273      -0.00742988      -0.00351058
H       -1.90789525       1.22006780      -2.18311375       0.11592200      -0.00529554       0.00234365       0.00045338
H       -3.73476024       2.81480498      -1.71007994       0.13778134       0.00325809       0.00460421       0.00198544
