23
Properties=species:S:1:pos:R:3:charge:R:1:forces:R:3 energy=-13064.034981559756 pbc="F F F"
O       -1.80395698      -0.03561260       1.88166233      -0.45557904      -0.00272390      -0.00195468       0.00027306
C       -2.01755280      -0.58550427       0.58841025      -0.02925727      -0.00071354      -0.00014304      -0.00207057
H       -3.03132413      -0.37474905       0.24185419       0.08123787      -0.00142139       0.00084099       0.00290985
C       -1.00774827      -0.07722122      -0.44703256       0.10732479      -0.00435026       0.00428439      -0.00443446
N        0.30356794      -0.29124452       0.16815003      -0.37729663      -0.00737618      -0.00566768       0.00192652
C        1.49065144       0.01142464      -0.41342163       0.45440757      -0.00551870      -0.00084148      -0.00773297
O        1.59755410       0.42262403      -1.55821107      -0.45020893       0.00690604      -0.00358808      -0.00530496
C        2.67970891      -0.21324191       0.46497830      -0.15966754      -0.00513295       0.00342396      -0.00007060
C        3.90278401       0.03082119       0.01976480      -0.28617594       0.00292870       0.00018646       0.00399839
C       -1.15229720      -0.89059967      -1.73031509      -0.22549774      -0.00315444      -0.00120331      -0.00047486
C       -1.24142894       1.40660306      -0.73678329      -0.22022431       0.00043839       0.00540616      -0.00042426
H       -1.94997742       0.91090574       1.84104731       0.31568047       0.00829778      -0.00321113       0.00293010
H       -1.91524419      -1.66311740       0.70229482       0.08047699       0.00530919       0.00158572       0.00744751
H        0.27885373      -0.42403264       1.16407576       0.25437263      -0.00341203      -0.00235810       0.00049061
H        2.50930606      -0.58509718       1.46830358       0.11878079       0.00114438       0.00336023      -0.00060101
H        4.77607254      -0.12901577       0.63623625       0.14723222       0.00402067       0.00183584       0.00541571
H        4.04430849       0.39875371      -0.98732592       0.15754738       0.00457307      -0.00115932      -0.00095962
H       -2.15685908      -0.76300250      -2.13285042       0.07620659       0.00195716       0.00028161      -0.00261812
H       -0.98915739      -1.94862200      -1.53194587       0.07951726       0.00220100      -0.00225317      -0.00459897
H       -0.42727459      -0.56154263      -2.46714337       0.08553310      -0.00442376       0.00171664       0.00328459
H       -1.13658069       2.00354260       0.17031522       0.07863674      -0.00183133      -0.00000100       0.00479986
H       -0.51528442       1.76329940      -1.45963047       0.08615966      -0.00079833      -0.00102202      -0.00297884
H       -2.24449639       1.55778760      -1.13497072       0.08079334       0.00308025       0.00048153      -0.00120698
