26
Properties=species:S:1:pos:R:3:charge:R:1:forces:R:3 energy=-24966.5044567479 pbc="F F F"
C       -2.98099039       0.67822696       2.05667931      -0.14557448      -0.00181082      -0.00192885       0.00249717
C       -1.84422320       0.76699131       1.27429134      -0.15083608      -0.00119286       0.00476610       0.00288016
C       -1.37657197      -0.34563980       0.57558457       0.13803780      -0.00068945       0.00317488       0.00266089
N       -0.21516922      -0.16590857      -0.20304313      -0.32120088       0.00290809      -0.00255271       0.00373327
C        0.55889150      -1.11296394      -0.80740360       0.40984309      -0.00301595      -0.00169601      -0.00767021
O        0.33136871      -2.30398077      -0.77391877      -0.44739789       0.00190352      -0.00231239      -0.00094312
C        1.78414866      -0.55637723      -1.52212812      -0.14158720       0.00192633       0.00355358       0.00015565
C        2.82914722       0.02809238      -0.56544419      -0.11854942      -0.00085396       0.00178682       0.00156376
S        2.54179958       1.73660741      -0.02947087      -0.17982699       0.00193184      -0.00744690      -0.00248861
C        2.80313566       2.58946574      -1.59632314      -0.18263771      -0.00209551      -0.00308966       0.00130718
C       -2.06606642      -1.55095000       0.66183629      -0.11658722      -0.00073553       0.00146353      -0.00308742
C       -3.20773620      -1.62275640       1.44771420      -0.13952467       0.00218813      -0.00009531       0.00154857
C       -3.67261357      -0.52134216       2.14893848      -0.16130792      -0.00159344      -0.00216870       0.00072720
H       -4.55946190      -0.59505101       2.76049861       0.13597667      -0.00471771       0.00033507      -0.00331563
H       -3.32708381       1.54739601       2.59734370       0.13506970      -0.00171532       0.00113843      -0.00376783
H       -1.30942165       1.70571458       1.20617251       0.12770286       0.00688631       0.00336624       0.00161100
H        0.15802047       0.77365468      -0.19598559       0.22593935       0.00019228      -0.00132732       0.00126058
H        2.23085761      -1.38806171      -2.05594932       0.09636030      -0.00256189       0.00043335       0.00209744
H        1.47928257       0.19479039      -2.24875371       0.06612495      -0.00091086       0.00303923      -0.00008338
H        3.80918145       0.00616693      -1.03634470       0.09409903      -0.00319361       0.00361791       0.00378493
H        2.88934543      -0.57771453       0.33509417       0.11118006       0.00816350      -0.00168140      -0.00274456
H        2.00614049       2.38498266      -2.30632602       0.08123216      -0.00270254      -0.00590282       0.00135333
H        2.81848649       3.65494950      -1.38504114       0.11912112       0.00002116       0.00202735      -0.00224578
H        3.75600075       2.30459998      -2.03341544       0.09324462      -0.00031952       0.00319977      -0.00096291
H       -1.70460583      -2.41044437       0.12653522       0.13734582      -0.00115765      -0.00345481       0.00117930
H       -3.73682803      -2.56281073       1.51042311       0.13375299       0.00314517       0.00175519      -0.00105129
