40
Properties=species:S:1:pos:R:3:forces:R:3 16_carbanion=T (SP=-1276.223899613215,U=-1275.87533897,H=-1275.87439476,G=-1275.94409203) charge=-1 spin=1 energy=-246.70127868652344 free_energy=-246.70127868652344 stress="0.0 0.0 0.0 0.0 0.0 0.0 0.0 0.0 0.0" pbc="F F F"
N       -3.19075330      -0.08672436      -0.03973093      -0.00329290       0.00166735      -0.00424418
C       -1.89004304       0.46371299       0.12010571       0.00165279       0.00098819       0.00304735
C       -0.98836309      -0.32453920       0.85850319      -0.00180984       0.00011683      -0.00278173
C        0.38252081       0.16361277       1.04870449       0.00118471       0.00265735       0.00014946
O       -1.61789450       1.59989913      -0.34389782      -0.00189729      -0.00295128       0.00324532
S        1.41816917      -0.57350428      -0.30433827       0.00030760       0.00105710      -0.00341815
C        2.88303121       0.48004251      -0.28510439      -0.00298351      -0.00372989      -0.00063061
H       -1.29393910      -1.27556768       1.29459029       0.00062289      -0.00004475       0.00346588
H        0.40070006       1.25168643       0.85742027       0.00034472       0.00004238      -0.00018770
C        0.98967153      -0.22642633       2.40452330       0.00250897      -0.00730957      -0.00159839
H        2.62286797       1.53232572      -0.45452075      -0.00147445       0.00174356       0.00283044
H        3.45824143       0.38960973       0.64526128      -0.00076365       0.00146457       0.00228055
H        3.51402572       0.13944572      -1.11642733       0.00089486      -0.00111532      -0.00212240
C       -4.26928160       0.47092360      -0.69880358       0.00277166      -0.00130322       0.00060980
C       -5.55734182      -0.02220601      -0.43999684      -0.00173502       0.00218435      -0.00163074
C       -6.68305676       0.50172690      -1.10370830      -0.00160778      -0.00215834      -0.00094880
C       -6.50964829       1.55292660      -2.06099744      -0.00256866       0.00177667      -0.00304279
C       -5.19406298       2.03462904      -2.31745612       0.00080672       0.00135478       0.00019324
C       -4.10304800       1.51390142      -1.66275764      -0.00000480       0.00217184      -0.00065762
H       -5.69524573      -0.81368074       0.29838530       0.00248413      -0.00103569       0.00537671
H       -3.08454597       1.87046729      -1.83235375      -0.00180137      -0.00042942      -0.00109508
H       -3.35460150      -0.96376308       0.44326439       0.00226563      -0.00655841       0.00210559
H        2.00352099       0.22351023       2.49171494       0.00154036      -0.00120947       0.00022468
H        1.14427414      -1.31741159       2.41367147      -0.00002670       0.00005504      -0.00012916
N        0.14819663       0.12114262       3.54317892      -0.00396830       0.00237536      -0.00070630
C       -0.33856328       1.49481246       3.55490569      -0.00011930       0.00025496       0.00112126
C        0.75557535      -0.26621688       4.80750472       0.00295648       0.00592878      -0.00329532
H        1.03149738      -1.32858524       4.78577475      -0.00126770      -0.00228947       0.00091192
H        0.04588282      -0.11606119       5.63168218      -0.00327101      -0.00159009       0.00023058
H        1.67178280       0.30908092       5.04636821      -0.00106960      -0.00009621      -0.00110530
H       -0.92783161       1.70777362       2.65262754       0.00511666       0.00128099      -0.00190817
H        0.47468370       2.24463678       3.61705669       0.00353191      -0.00010218      -0.00029750
H       -0.99126731       1.64188007       4.42594767      -0.00059080       0.00331309       0.00591854
H       -5.10234491       2.83043256      -3.05788687      -0.00035815       0.00283438      -0.00092316
N       -7.57261603       2.07840063      -2.70857237      -0.00208214      -0.00052854      -0.00099605
C       -8.78755105       1.60209102      -2.43963953       0.00050944       0.00439659      -0.00284573
N       -9.06037630       0.61034602      -1.54892678       0.00543609      -0.00469757       0.00691042
H       -9.63480579       2.03775782      -2.97138955      -0.00203556       0.00089777       0.00034410
C       -8.03658258       0.07907262      -0.90468727       0.00185113       0.00610712      -0.00672650
H       -8.25715440      -0.71900962      -0.18884845      -0.00205808      -0.00751960       0.00232562
