11
Properties=species:S:1:pos:R:3:forces:R:3 8=T (SP=-231.397677515062,U=-231.3012336,H=-231.30028939,G=-231.33438998) charge=0 spin=1 energy=-63.91776657104492 free_energy=-63.91776657104492 stress="0.0 0.0 0.0 0.0 0.0 0.0 0.0 0.0 0.0" pbc="F F F"
C       -0.60405106      -1.91862281       0.00120172       0.00036851      -0.00389518       0.00532995
C        0.35241846      -0.98767318       0.00127243      -0.00514223      -0.00051083      -0.00495143
C       -0.00648345       0.47000897      -0.00437094       0.00253415       0.00549829      -0.00735475
O       -1.16592174       0.87193972      -0.01164357       0.00381476      -0.00399053       0.00580180
C        1.17710364       1.43078519      -0.00507580      -0.00114264       0.00378899      -0.00048217
H        1.41436517      -1.24185606       0.00298612       0.00490454      -0.00265891       0.00043478
H       -0.37730516      -2.98758338       0.00337629       0.00143194      -0.00334302      -0.00298405
H       -1.65873050      -1.63529774      -0.00086181      -0.00468269       0.00439250       0.00049593
H        0.82129590       2.46427167      -0.00448669      -0.00546298       0.00021523       0.00391908
H        1.80136213       1.24089041       0.88026830       0.00008206       0.00242288      -0.00000003
H        1.79340455       1.24246694      -0.89614212       0.00329474      -0.00191937      -0.00020911
