64
Properties=species:S:1:pos:R:3:charge:R:1:forces:R:3 energy=-64295.07403231373 pbc="F F F"
C        2.21978893      -1.18702978      -2.24554689       0.05733462      -0.00314276       0.00186583      -0.00129437
N        1.76762686      -0.91069200      -1.03062510      -0.34806868      -0.00403195       0.00402844      -0.00012975
C        2.66447605      -0.35981436      -0.21016688       0.42959300       0.00156805      -0.00147568       0.00238946
N        2.32901053      -0.00003170       1.06596126      -0.30555591       0.00322028       0.00410261       0.00331461
C        1.12516170      -0.07540675       1.76273323       0.05780387      -0.00031992      -0.00243115       0.00464933
C       -0.05205831      -0.58604964       1.26612329      -0.15609859      -0.00284914      -0.00073331      -0.00163703
C       -1.20736265      -0.61981361       2.05406500       0.13059194      -0.00336668      -0.00148632      -0.00009590
N       -2.36415858      -1.18831540       1.46918098      -0.33470610      -0.00053911      -0.00023152      -0.00081466
C       -3.66149206      -0.91547458       1.76441116       0.41076902       0.00029665      -0.00341792      -0.00661180
O       -4.02934832      -0.14594566       2.62927817      -0.44041783       0.00041727       0.00409660       0.00421355
C       -4.68733921      -1.60733602       0.87758331      -0.13570783       0.00122462      -0.00222380       0.00128166
C       -5.22647741      -0.57265847      -0.11900901      -0.05305619      -0.00015274      -0.00107392       0.00549535
S       -4.03248907      -0.22633850      -1.44579988      -0.17896827      -0.00185929      -0.00431968       0.00073808
C       -4.08691857      -1.74644325      -2.41861511      -0.17645709      -0.00223557       0.00127499       0.00420353
C       -6.65281272      -0.94801458      -0.56820664      -0.03171428      -0.00252574       0.00255066      -0.00202354
N       -7.42858091       0.00503908      -1.32588920      -0.27790079      -0.00329296      -0.00263371      -0.00597465
C       -7.19352987       0.05326563      -2.75468788      -0.13520207      -0.00130095       0.00354194      -0.00577419
C       -7.47848903       1.32336949      -0.72430217      -0.13620164      -0.00065632      -0.00305872      -0.00278291
C       -1.18757740      -0.14491395       3.34578440      -0.14007989       0.00044871       0.00419764      -0.00153958
C        0.00159114       0.37701134       3.85617976      -0.18737294       0.00115707      -0.00008098       0.00121315
C        1.13994401       0.42025128       3.08392569       0.08962498       0.00404470      -0.00582138       0.00655938
O        2.35043675       0.91191810       3.48764380      -0.22061105       0.00163279       0.00209361       0.00263774
C        2.40362508       1.56431619       4.74246730      -0.07368957       0.00187617      -0.00087939       0.00060393
N        3.93331144      -0.09308279      -0.49745965      -0.34191248       0.00205778       0.00478850       0.00129328
C        4.40939405      -0.41339626      -1.70382400       0.16830589       0.00364982       0.00516051      -0.00041157
C        5.81225829      -0.15226395      -1.94718127       0.00069139       0.00320901       0.00480288      -0.00325092
C        6.72592012      -0.69219548      -2.87859267       0.01144413       0.00309347      -0.00237443       0.00047129
N        7.94331721      -0.20728142      -2.74857329      -0.37559080       0.00144741       0.00165338      -0.00624168
N        7.85531126       0.66793700      -1.72205594       0.12565967       0.00086091      -0.00304954      -0.00256288
C        8.91114335       1.40230583      -1.26555694      -0.04566397      -0.00247718      -0.00364418      -0.00071840
C        8.71421360       2.24659333      -0.22763103      -0.15342025      -0.00465682      -0.00327172      -0.00164427
C        7.42674438       2.35364558       0.36564143      -0.11745949      -0.00043717      -0.00092979       0.00523567
C        6.38020901       1.61489779      -0.09590811      -0.13714352       0.00016950       0.00052317       0.00191276
C        6.59387269       0.73635584      -1.18964300       0.10353658       0.00185565       0.00218309      -0.00117929
C        3.52023151      -0.95784141      -2.64165795      -0.07892938       0.00157180       0.00049188       0.00097645
Cl       3.96398313      -1.30380961      -4.28637886      -0.06582809       0.00134503      -0.00321326      -0.00723504
H        1.51246915      -1.61118883      -2.94508097       0.09172036      -0.00026209      -0.00905646      -0.00335955
H        3.09327015       0.39361342       1.58461904       0.25973636       0.00736209       0.00469714       0.00016756
H       -0.06408598      -0.95053156       0.25209712       0.12383987      -0.00125276      -0.00216477      -0.00553614
H       -2.20920998      -1.65523934       0.59331452       0.23863879       0.00240267       0.00410837      -0.00104529
H       -5.48947955      -1.93134036       1.53437531       0.08914544       0.00498408       0.00036319      -0.00088982
H       -4.27868738      -2.47791912       0.36943915       0.06253840      -0.00144934       0.00019896       0.00083349
H       -5.27897171       0.37760723       0.41345760       0.12477721      -0.00306693       0.00114424      -0.00012509
H       -3.38216278      -1.59833154      -3.23373176       0.11869433      -0.00014982       0.00758532       0.00252565
H       -3.77896012      -2.62211332      -1.85205383       0.07655135       0.00158699      -0.00474402       0.00057252
H       -5.07154978      -1.91581042      -2.84368371       0.08281846       0.00023973      -0.00155574       0.00412755
H       -7.19860022      -1.13693319       0.35822998       0.08166454      -0.00390970      -0.00351831      -0.00008579
H       -6.62425038      -1.89208748      -1.11217311       0.07238635       0.00248809       0.00333290      -0.00275479
H       -7.99809888       0.61150583      -3.23278858       0.08853731      -0.00430962      -0.00135928      -0.00176502
H       -7.21139136      -0.95699150      -3.16239652       0.07475626      -0.00516594      -0.00261783       0.00011290
H       -6.24414587       0.52516974      -3.02862963       0.06611525       0.00263210       0.00587833       0.00182202
H       -7.70170851       1.23786210       0.33945778       0.07743386      -0.00014992       0.00165712       0.00056338
H       -6.54234759       1.88753619      -0.83081537       0.06846204      -0.00173339       0.00017914      -0.00441753
H       -8.27273180       1.90649446      -1.18817278       0.09031953       0.00248717      -0.00383289       0.00201974
H       -2.07954989      -0.16533198       3.94609167       0.13591318       0.00386239       0.00544691       0.00145564
H        0.00764296       0.74755217       4.86832941       0.13330853       0.00104686       0.00330281      -0.00144325
H        3.42323388       1.92133461       4.84476936       0.09383057       0.00080448       0.00081355       0.00172146
H        2.18339513       0.87692443       5.55988162       0.07957966       0.00297946      -0.00091135      -0.00080755
H        1.71878629       2.41254261       4.77826342       0.07891659      -0.00212164      -0.00687447       0.00227431
H        6.54923507      -1.43692720      -3.63229105       0.11803303      -0.00099597      -0.00386136       0.00381053
H        9.84307671       1.24581266      -1.78374162       0.13940758       0.00028920       0.00043601       0.00273503
H        9.54178994       2.83119667       0.14119139       0.14104351      -0.00673483      -0.00131437      -0.00380535
H        7.29032468       3.03230561       1.19406570       0.13500619      -0.00348601       0.00123522       0.00452640
H        5.38968350       1.64763896       0.32865161       0.11922697       0.00031933       0.00042775       0.00150130
