63
Properties=species:S:1:pos:R:3:charge:R:1:forces:R:3 energy=-51770.8619067614 pbc="F F F"
C       -0.92686231      -5.52852765      -1.05318134      -0.07711507       0.00167635       0.00053269      -0.00178292
O       -1.15803887      -4.21779776      -0.59775949      -0.23184085       0.00543686      -0.00126372       0.00027850
C       -0.04194554      -3.45923819      -0.30605685       0.08221525      -0.00029942       0.00290461       0.00265153
C        1.23848861      -3.96040148      -0.17946039      -0.21772425      -0.00036897       0.00178311      -0.00007803
C        2.28049902      -3.10446474       0.17005144      -0.21656983       0.00086245      -0.00080465       0.00112149
C        2.04679066      -1.75355934       0.40160851       0.13247629      -0.00086670      -0.00350951       0.00665184
N        3.11001481      -0.91998386       0.70846837      -0.31248909       0.00054256      -0.00047436       0.00199658
C        3.05462702       0.26100042       1.51194575       0.30006999      -0.00131384       0.00031696       0.00486393
C        4.26554859       0.93325307       1.73145231      -0.50611448      -0.00179800       0.00398346       0.00062263
C        5.59748108       0.59472303       1.20404903      -0.02393006       0.00148961       0.00106126       0.00015220
C        5.79919383       0.55472875      -0.32919214      -0.03810466      -0.00138814      -0.00054186       0.00191464
N        5.48121229       1.78146582      -1.04353061      -0.30956703       0.00228372      -0.00522735      -0.00579018
C        4.06011187       1.97872717      -1.30108382      -0.13093077      -0.00076978      -0.00289350       0.00285101
C        6.06670448       2.95209414      -0.41633121      -0.13815543      -0.00072024      -0.00156447      -0.00377745
O        1.95312039       0.62270551       1.97072435      -0.51407832      -0.00500388       0.00020073      -0.00092970
C        0.74565064      -1.25402844       0.26592352      -0.13000879       0.00029574       0.00110290       0.00331934
C       -0.28475827      -2.09119006      -0.10781866       0.06917161       0.00036146       0.00136825      -0.00410702
N       -1.61659772      -1.67573799      -0.26653336      -0.31703871      -0.00128338      -0.00619146      -0.00005153
C       -2.14995897      -0.44797744      -0.50641769       0.43870977       0.00296909      -0.00187261       0.00193200
N       -1.36583159       0.62260784      -0.67085914      -0.35143328      -0.00095987       0.00103767      -0.00264424
C       -2.00310957       1.75765478      -0.89378443       0.04633941      -0.00256078       0.00291131       0.00314557
C       -3.37834100       1.87621353      -0.94392717      -0.20859209      -0.00203003      -0.00244669       0.00517893
C       -4.11790551       0.70747376      -0.76039229       0.17864433      -0.00035866      -0.00400317      -0.00046121
C       -5.57360445       0.67231052      -0.78824594       0.00442279      -0.00255926      -0.00150807      -0.00163557
C       -6.49797545       1.69136600      -0.58357560       0.14824872      -0.00331466       0.00038351       0.00414684
C       -6.47777866       3.05266989      -0.19350700      -0.16408260       0.00304624       0.00281844       0.00024359
C       -7.64572368       3.75085523      -0.10697597      -0.14351670      -0.00141664      -0.00166452      -0.00324343
C       -8.88795686       3.11807843      -0.38600573      -0.17900150      -0.00315568      -0.00356680      -0.00193319
C       -8.91898552       1.81078511      -0.72350204      -0.04726915      -0.00545826       0.00051440      -0.00226989
N       -7.74078064       1.12194765      -0.80369796       0.17409064      -0.00171953       0.00405783      -0.00866734
N       -7.65744832      -0.18588918      -1.10557551      -0.41191661       0.00387730       0.00343918       0.00482355
C       -6.35887988      -0.45313930      -1.08035738      -0.01218431       0.00245151       0.00081582       0.00190444
N       -3.49067545      -0.46158203      -0.58274862      -0.38033187       0.00371965      -0.00200792      -0.00182395
H       -0.49985986      -6.16088979      -0.27157788       0.07106791      -0.00169230       0.00064521      -0.00601362
H       -1.90021785      -5.92327266      -1.33145797       0.08280178      -0.00035497       0.00122264       0.00245935
H       -0.27040624      -5.54031048      -1.92563364       0.07040182       0.00333596      -0.00309266       0.00182861
H        1.44467983      -5.00739960      -0.34081819       0.12452882       0.00024337       0.00495674       0.00067792
H        3.28233105      -3.50273282       0.28046929       0.11959011       0.00409385       0.00177882      -0.00071128
H        4.01436677      -1.36530684       0.66952224       0.21995530       0.00133919       0.00577095      -0.00566948
H        4.17779724       1.75594784       2.43067220       0.10446531       0.00369239      -0.00253999      -0.00058572
H        6.32523680       1.30684283       1.59665438       0.09477931      -0.00032501       0.00271909      -0.00062211
H        6.85303372       0.32972187      -0.51505702       0.06553991      -0.00484809       0.00018535      -0.00405366
H        5.21048229      -0.25205846      -0.75501927       0.07647667       0.00181799       0.00213626      -0.00139342
H        3.94133955       2.79249256      -2.02108204       0.07844522       0.00038521      -0.00620000       0.00254424
H        3.49028526       2.21113800      -0.39722344       0.07637490      -0.00250486       0.00044579      -0.00149715
H        3.63945951       1.07233692      -1.73252077       0.06826735       0.00338526       0.00163104       0.00186787
H        5.57980100       3.21283743       0.53315710       0.05974598       0.00207591      -0.00255418      -0.00028362
H        5.98531096       3.80655196      -1.08957091       0.07879873      -0.00324389       0.00096755       0.00014506
H        7.12211061       2.76777499      -0.20575328       0.07066811      -0.00225153       0.00323410       0.00296812
H        0.56254818      -0.21746812       0.48403009       0.15962014      -0.00410367       0.00064443      -0.00173402
H       -2.29399815      -2.41577614      -0.28750308       0.25697583      -0.00199012      -0.00742792      -0.00399597
H       -1.37904263       2.63072865      -1.03692469       0.07451790      -0.00258523       0.00341767      -0.00116602
H       -3.83994520       2.81792852      -1.18092628       0.10231242      -0.00050875       0.00033480       0.00398876
H       -5.53421302       3.50483792       0.06187610       0.10705512       0.00807684       0.00530379      -0.00169524
H       -7.63419422       4.79027211       0.18298310       0.12530157       0.00194692      -0.00020543      -0.00111998
H       -9.81209525       3.67272663      -0.32144645       0.13067187       0.00409754       0.00587002       0.00429530
H       -9.80823899       1.23851287      -0.93944748       0.12631093      -0.00349049       0.00042445       0.00181565
H       -6.00712311      -1.45248880      -1.27321757       0.10601632      -0.00036304      -0.00521392      -0.00345015
S        6.30654157      -1.09550906       1.74582826      -0.24236581      -0.00010712      -0.00169665       0.00042862
C        5.53598858      -1.31292589       3.36333985      -0.19404303       0.00122601      -0.00136307      -0.00199186
H        5.91652340      -2.23543713       3.80225604       0.11068224      -0.00335886      -0.00540675      -0.00013471
H        5.77177673      -0.47489752       4.01343348       0.08429361       0.00522896       0.00342491       0.00106442
H        4.45850875      -1.36971642       3.24177204       0.07835042      -0.00088276       0.00089496       0.00343183
