27
Properties=species:S:1:pos:R:3:charge:R:1:forces:R:3 energy=-26457.90691264197 pbc="F F F"
O        1.10608319       0.38814956      -1.74129181      -0.50289327      -0.00207682      -0.00345691      -0.00506716
C        1.22642737       0.95089889      -0.62717629       0.30942905      -0.00470067      -0.00250596      -0.00232580
C        2.30495685       1.68905263      -0.16578068      -0.48935619      -0.00678041       0.00054262      -0.00053973
C        3.53144417       1.79928741      -0.97089749      -0.11448415       0.00222419      -0.00138059       0.00434205
N        0.14389843       0.81495463       0.31199736      -0.38415974      -0.00164531       0.00116304      -0.00114815
C       -1.06508850       0.16144043       0.18793323       0.16799994      -0.00124879       0.00509592      -0.00155720
C       -1.48051883      -0.49312850      -0.98101282      -0.14447136       0.00428325       0.00040568       0.00168784
C       -2.72410652      -1.10243505      -1.03239057      -0.16728875       0.00164158       0.00455241       0.00089928
C       -3.59847223      -1.08843106       0.04719664       0.12731022       0.00088930       0.00003491       0.00063358
N       -4.85736347      -1.75275442      -0.02320109      -0.72413778      -0.00582558      -0.00673585       0.00281162
C       -3.18526995      -0.45797003       1.21148234      -0.19012232       0.00662869      -0.00224834       0.00031516
C       -1.94478894       0.15379222       1.27998360      -0.19898649       0.00621360       0.00172079       0.00225291
H        2.34070388       2.04905910       0.85591886       0.10724062       0.00338334      -0.00144462       0.00375335
H        3.33206917       1.54413210      -2.01477034       0.08632626       0.00383057       0.00795096       0.00111041
H        3.98742476       2.78988393      -0.93992577       0.07306307      -0.00070426       0.00141981       0.00091054
H        0.33117580       1.22909094       1.20383615       0.23966576      -0.00288007       0.00162294      -0.00273582
H       -0.80347147      -0.49905629      -1.81711681       0.12036034       0.00122742      -0.00468855      -0.00078582
H       -3.03156008      -1.60972979      -1.94037650       0.11005280       0.00730792       0.00002564       0.00170733
H       -5.54246444      -1.29854475       0.56152590       0.29538071       0.00103187       0.00820992       0.00391581
H       -5.20375272      -1.76936417      -0.97064915       0.29347977      -0.00382573      -0.00415387      -0.00182777
H       -3.84341830      -0.45123208       2.07315715       0.11031524      -0.00021400      -0.00544519      -0.00621187
H       -1.63932305       0.64127422       2.19909422       0.10541775      -0.00148775       0.00673509       0.00122937
S        4.93529114       0.69086374      -0.44513657      -0.30552542      -0.00054260      -0.00319236       0.00073048
C        4.05402257      -0.86882359      -0.62790359      -0.19656564      -0.00565957      -0.00784755      -0.00154568
H        3.66458044      -0.97143620      -1.63749899       0.08567122       0.00268065       0.00540432      -0.00178124
H        4.74219952      -1.68581337      -0.41390164       0.09413806      -0.00328073       0.00214474       0.00183765
H        3.21527305      -0.88974550       0.06196545       0.09214056      -0.00047019      -0.00392886      -0.00261069
