25
Properties=species:S:1:pos:R:3:charge:R:1:forces:R:3 energy=-24950.591555297862 pbc="F F F"
O        0.60072244       1.23343100      -0.88759780      -0.50783521       0.00296231      -0.00834465       0.00010530
C        0.74756233      -0.00923119      -0.85045967       0.31478235       0.00448748      -0.00477811      -0.00476067
C        1.81961225      -0.75736938      -1.30512908      -0.47518978       0.00510982      -0.00272341      -0.00402203
C        3.02300861      -0.10633482      -1.85299146      -0.11229710      -0.00236640       0.00153070      -0.00337410
N       -0.30741227      -0.79824904      -0.24597994      -0.38419619       0.00410810      -0.00012582       0.00433028
C       -1.50604771      -0.42065878       0.30384552       0.21115460      -0.00062854       0.00288148       0.00272914
C       -1.97006739       0.90686169       0.32181319      -0.13762753      -0.00469879       0.00132023       0.00292560
C       -3.20220415       1.19836346       0.88203221      -0.16162927      -0.00488931       0.00186056       0.00093518
C       -4.00987554       0.21524154       1.44339387      -0.22171168       0.00115924      -0.00226277      -0.00100285
C       -3.55219234      -1.09530582       1.43382739      -0.17679182      -0.00240762      -0.00215443       0.00121773
C       -2.32798595      -1.41054785       0.87635830      -0.18856300      -0.00383646       0.00204427      -0.00100542
H        1.87409639      -1.82247408      -1.11260046       0.10616688      -0.00252275      -0.00072779      -0.00542789
H        2.80864062       0.92604295      -2.13923092       0.08571030      -0.00317999       0.00542031       0.00649456
H        3.43964016      -0.61958532      -2.72064318       0.07168074       0.00086829      -0.00712949       0.00435551
H       -0.09415756      -1.77556776      -0.20097341       0.23721962       0.00605713       0.00154723       0.00009733
H       -1.33801137       1.66384344      -0.10804357       0.12447169      -0.00343282      -0.00389981      -0.00386679
H       -3.54083714       2.22693388       0.87855823       0.11049474       0.00540971       0.00564998       0.00417424
H       -4.15565113      -1.88412647       1.86617226       0.11171275      -0.00240516      -0.00222803      -0.00228778
H       -1.98802281      -2.44021134       0.87648309       0.10711408       0.00223752       0.00289720      -0.00090918
H       -4.96894244       0.46286944       1.87618435       0.11809548       0.00867692       0.00222301      -0.00087853
S        4.47739948      -0.01441492      -0.69541938      -0.30715925      -0.00132499       0.00028114       0.00191340
C        3.66328905       0.93347028       0.60095604      -0.19658266      -0.00388169       0.00026532      -0.00810146
H        3.27252775       1.86498630       0.20009258       0.08524697      -0.00313744       0.00595004       0.00533171
H        4.38907259       1.14597495       1.38536383       0.09339855      -0.00509238       0.00029006       0.00158174
H        2.83265373       0.35847332       0.99990111       0.09233479       0.00272744       0.00021192      -0.00055532
