29
Properties=species:S:1:pos:R:3:charge:R:1:forces:R:3 energy=-26037.03144299028 pbc="F F F"
C       -3.35308213      -1.42328480       1.30858508      -0.14910913       0.00011208      -0.00167209      -0.00216381
C       -4.02724534      -0.46606670       0.56677026      -0.14355916      -0.00213505      -0.00330828       0.00357621
C       -3.37185444       0.20817302      -0.45460401      -0.14972845      -0.00381418      -0.00213913       0.00303657
C       -2.04231699      -0.06686615      -0.74506933       0.03279349      -0.00064336      -0.00182914       0.00231639
C       -1.32839700       0.65610414      -1.86314035      -0.02901731       0.00320500       0.00150601       0.00131804
N       -0.09379186       1.29106650      -1.42746461      -0.38896027       0.00325403       0.00231862      -0.00103816
C        1.13457089       0.78920300      -1.70484504       0.40552899       0.00128045      -0.00085935       0.00235398
O        1.31002951      -0.20613936      -2.38405042      -0.45684233      -0.00254683      -0.00423546      -0.00179818
C        2.32103994       1.53189337      -1.11203498      -0.14890227      -0.00082191       0.00063521      -0.00155289
C        3.08296420       0.62575273      -0.15570847      -0.11756204       0.00262917       0.00308960      -0.00518087
S        2.10267670       0.39356932       1.34831226      -0.18842630      -0.00278166      -0.00515111      -0.00414096
C        3.15380178      -0.81857768       2.16758211      -0.19504090      -0.00102046       0.00068374       0.00017834
C       -1.37167002      -1.03191797      -0.00045706      -0.09564839       0.00169088       0.00097267       0.00058794
C       -2.02438566      -1.70469873       1.02181944      -0.13682570       0.00007995      -0.00175993      -0.00056541
H       -3.86123003      -1.94771593       2.10468462       0.13538416       0.00071451       0.00228920       0.00002815
H       -5.06205390      -0.24421597       0.78323140       0.13459913       0.00016128      -0.00132289       0.00516701
H       -3.89918297       0.95570533      -1.03218156       0.12655953       0.00457075       0.00026920      -0.00540548
H       -1.06128686      -0.04349708      -2.65187817       0.09948359       0.00054350       0.00040716      -0.00021068
H       -1.98758438       1.40905098      -2.29265743       0.08423471      -0.00098024      -0.00028253       0.00420807
H       -0.15368303       1.99465130      -0.71280655       0.26824072       0.00239486       0.00303254      -0.00404506
H        2.01078169       2.44859106      -0.61203253       0.07489794       0.00226997      -0.00057080       0.00058417
H        2.97157853       1.80652605      -1.94226818       0.09380359       0.00066934       0.00217189       0.00228573
H        3.25136365      -0.33840738      -0.63170427       0.10264175       0.00307769       0.00113246      -0.00250783
H        4.04301297       1.06156722       0.11195548       0.09373548       0.00159069       0.00380769      -0.00055578
H        3.25422829      -1.72032181       1.56822509       0.09030706      -0.00143596      -0.00055113       0.00330607
H        2.67371899      -1.07774149       3.10691540       0.11391257      -0.00362329       0.00040533      -0.00079315
H        4.14062543      -0.41531289       2.38175188       0.09142248      -0.00189326      -0.00066314       0.00215782
H       -0.33516709      -1.24966234      -0.21622461       0.12092552      -0.00039431       0.00166419      -0.00039374
H       -1.48601377      -2.44425715       1.59596157       0.13115159      -0.00615431      -0.00004117      -0.00075249
