29
Properties=species:S:1:pos:R:3:charge:R:1:forces:R:3 energy=-26036.526171861493 pbc="F F F"
C       -4.54258498      -0.56425197      -0.48707139      -0.15522648       0.00275923      -0.00552120       0.00094582
C       -3.50897988      -1.28604505      -1.06708674      -0.14702715       0.00442480       0.00231843      -0.00167283
C       -2.19179881      -0.88530662      -0.90699173      -0.11324371       0.00263105      -0.00340526       0.00335789
C       -1.90129496       0.26357032      -0.18070101       0.14285073      -0.00825850      -0.00026714      -0.00315687
N       -0.56018483       0.73327656      -0.06318197      -0.18381251      -0.00632057      -0.00310236      -0.00241472
C        0.42360855      -0.10592776       0.39681714       0.40879461       0.00065000       0.00267182       0.00299437
O        0.21513961      -1.27214470       0.65948271      -0.43638220       0.00188062      -0.00099129      -0.00926615
C        1.80555042       0.50637729       0.55623410      -0.13325563       0.00502353       0.00429223      -0.00117795
C        2.78662508      -0.50700712       1.11648090      -0.11251961      -0.00130917       0.00269331       0.00137280
S        4.44686724       0.16869705       1.35190690      -0.21131696      -0.00870523      -0.00136813       0.00049288
C        5.03410324       0.13372310      -0.35597440      -0.19978292      -0.00118397      -0.00125352      -0.00279976
C       -0.31345590       2.16024919      -0.23708657      -0.12692329      -0.00097926      -0.00466559      -0.00008894
C       -2.93641935       0.98665895       0.40312752      -0.15192454      -0.00731122       0.00013901       0.00593454
C       -4.25083476       0.57003197       0.25395200      -0.14449190      -0.00666360      -0.00610436       0.00084335
H       -5.56619955      -0.88907546      -0.60763451       0.13728149       0.00139323       0.00518097       0.00053785
H       -3.73016545      -2.17668363      -1.63711250       0.13612731       0.00567987       0.00255228       0.00088704
H       -1.38009721      -1.46218852      -1.32027559       0.13215595       0.00056536      -0.00030366      -0.00003903
H        1.74691375       1.37698796       1.20904477       0.07572909      -0.00398303      -0.00164324       0.00409284
H        2.14035167       0.87878442      -0.41145203       0.07291263       0.00243351       0.00322227      -0.00386329
H        2.44617892      -0.84844650       2.08891412       0.11213639      -0.00679366      -0.00143404      -0.00162295
H        2.82958415      -1.38470130       0.47645606       0.09798621       0.00317080       0.00222460       0.00467418
H        4.49868019       0.84149243      -0.98499976       0.08603174      -0.00387739      -0.00079685       0.00157306
H        4.94005692      -0.86514819      -0.77579363       0.09357288       0.00709968       0.00010116      -0.00277844
H        6.08465430       0.41186618      -0.33734212       0.11655103      -0.00225775      -0.00349195       0.00201792
H       -1.11903881       2.58057642      -0.82867403       0.08832048       0.00524109       0.00353943      -0.00392624
H       -0.25952811       2.69741363       0.71158153       0.07732654       0.00328991       0.00277249      -0.00243504
H        0.61539001       2.32795951      -0.77455440       0.07855311       0.00013162      -0.00144792       0.00153828
H       -2.71463730       1.87231365       0.98080453       0.12363867       0.00432025       0.00248129      -0.00247163
H       -5.04704835       1.13675191       0.71446700       0.13593803       0.00694825       0.00160722       0.00645091
