23
Properties=species:S:1:pos:R:3:charge:R:1:forces:R:3 energy=-14095.547736533526 pbc="F F F"
C       -3.69275377      -1.55751786       0.46680739      -0.28797925      -0.00252407      -0.00217933      -0.00202160
C       -2.91020527      -0.55547043       0.09172293      -0.16385680       0.00050037       0.00121521       0.00281764
C       -1.42577361      -0.72054006       0.21140836       0.44553059       0.00035436      -0.00003596      -0.00294950
O       -0.94271890      -1.74794765       0.64578829      -0.44949558       0.00058542       0.00087280       0.00222091
N       -0.64615980       0.33595925      -0.19141721      -0.18964863       0.00252826      -0.00049732       0.00145378
C       -1.20911312       1.56371415      -0.74035543      -0.13763055      -0.00349190      -0.00509259      -0.00137403
C        0.77600203       0.18611347      -0.19173358       0.12779176       0.00407061       0.00395293       0.00551318
C        1.49717912       0.41486525      -1.35817092      -0.15647799      -0.00076057      -0.00367494      -0.00032681
C        2.87997540       0.30322250      -1.35306468      -0.14519317      -0.00130717       0.00386821       0.00020159
C        3.54844191      -0.02606933      -0.18439620      -0.14963472       0.00044075      -0.00287008      -0.00427811
C        2.82546971      -0.25946538       0.97709700      -0.14902823       0.00496189       0.00776608       0.00056326
C        1.44277405      -0.16859184       0.97365755      -0.11755002       0.00392352      -0.00834291       0.00168530
H       -3.25016564      -2.46839581       0.84522222       0.16032273      -0.00280039      -0.00503144       0.00400663
H       -4.76978177      -1.49733042       0.40471606       0.14740165       0.00140982       0.00494174      -0.00196138
H       -3.33211482       0.35880994      -0.29453915       0.12114904      -0.00116574       0.00394369      -0.00778243
H       -1.96712282       1.97249238      -0.07516440       0.09090668       0.00131389       0.00082262       0.00545657
H       -0.41650925       2.29794816      -0.82473876       0.08863880      -0.00332573       0.00023707      -0.00329570
H       -1.65756279       1.41849277      -1.72489363       0.08373898      -0.00280297      -0.00611835      -0.00489377
H        0.97878395       0.66829843      -2.27260105       0.12752648       0.00030374       0.00887292       0.00120999
H        3.43215159       0.47694619      -2.26516125       0.13754344      -0.00099257       0.00062669       0.00083654
H        4.62626157      -0.10744742      -0.17873611       0.13870937      -0.00037810      -0.00203139       0.00009213
H        3.34063409      -0.52782824       1.88779933       0.13846399      -0.00047737      -0.00634247      -0.00208235
H        0.86593329      -0.39709913       1.85478973       0.13877152      -0.00036559       0.00509626       0.00490774
