20
Properties=species:S:1:pos:R:3:charge:R:1:forces:R:3 energy=-13025.4640841839 pbc="F F F"
C        3.65210502       0.68714856       0.80446464      -0.27893952       0.00028495      -0.00171509      -0.00060805
C        3.21089966      -0.47084636       0.33323495      -0.14955193      -0.00321181      -0.00135262       0.00111765
C        1.77441209      -0.89701250       0.23456973       0.46572438      -0.00257625       0.00300553       0.00323633
O        1.49358338      -2.07424433       0.14253912      -0.45734468       0.00532138       0.00157037      -0.00102475
N        0.85964509       0.12308256       0.24750550      -0.33183077      -0.00216245       0.00365829       0.00013238
C       -0.54615282       0.03681315       0.20970115       0.11856328      -0.00308661      -0.00321113       0.00008988
C       -1.24230213      -1.15642375       0.37490758      -0.12273385      -0.00162528      -0.00401230      -0.00161055
C       -2.62957993      -1.14101788       0.34754003      -0.13724937      -0.00331764       0.00202685       0.00063092
C       -3.33469449       0.03680437       0.15779423      -0.15493482       0.00227888       0.00503058      -0.00025237
C       -2.63582952       1.22379259      -0.00548080      -0.13877732       0.00278612       0.00501454      -0.00154065
C       -1.25234593       1.22335510       0.02160175      -0.16587958       0.00234693      -0.00289007       0.00134741
H        2.98172658       1.44576051       1.18506703       0.13563490       0.00850181       0.00436930       0.00282168
H        4.70734325       0.91165343       0.85740355       0.15123786       0.00101793      -0.00312705      -0.00022320
H        3.89329282      -1.24589136       0.01689085       0.12666178      -0.00229124      -0.00130184      -0.00186603
H        1.22747856       1.05020709       0.14362469       0.25507689       0.00180007      -0.00008683       0.00053620
H       -0.69625130      -2.07186562       0.51507144       0.14368293       0.00294036      -0.00133173      -0.00011426
H       -3.16346724      -2.07170376       0.47571603       0.13608389       0.00103346      -0.00121185      -0.00087456
H       -4.41482800       0.03202452       0.13678389       0.13834377       0.00208581      -0.00225986       0.00175015
H       -3.16575747       2.15374180      -0.15370402       0.13726619      -0.00718072      -0.00149014      -0.00172974
H       -0.70817957       2.15147733      -0.10397152       0.12896602      -0.00494561      -0.00068498      -0.00181829
