26
Properties=species:S:1:pos:R:3:charge:R:1:forces:R:3 energy=-24966.46248512698 pbc="F F F"
C       -3.93914847      -0.38745083      -0.83797434      -0.13399990      -0.00277622      -0.00132875       0.00160882
C       -2.56506993      -0.51456348      -0.69257962      -0.11640240      -0.00192071       0.00053968      -0.00472595
C       -1.90432952       0.28109195       0.23940508       0.14372717      -0.00066646      -0.00627179       0.00039545
N       -0.51373050       0.23786981       0.45562951      -0.36193293       0.00232183       0.00022523      -0.00059214
C        0.42338268      -0.59356326      -0.09864592       0.41709504       0.00108842      -0.00251149      -0.00158857
O        0.16598719      -1.45524519      -0.90989883      -0.42432708      -0.00135688      -0.00443842       0.00001821
C        1.83758429      -0.34942683       0.40676271      -0.13437898      -0.00038322       0.00199454       0.00248193
C        2.82160746      -1.30843530      -0.23758962      -0.10214059      -0.00516572      -0.00027807      -0.00063351
S        4.51965364      -1.08892231       0.33486104      -0.21005784      -0.00530810      -0.00254171      -0.00042978
C        4.96786931       0.38181969      -0.61247455      -0.20198442      -0.00122928       0.00042360       0.00078413
C       -2.63386430       1.18390471       1.01216821      -0.15630549       0.00238367       0.00371074      -0.00349654
C       -4.00412174       1.29777615       0.85743909      -0.14084925       0.00246597      -0.00446163       0.00435786
C       -4.66696696       0.51047859      -0.07293432      -0.16134727      -0.00017050       0.00454513       0.00154750
H       -5.73637255       0.59641032      -0.19815727       0.13601068       0.00135542      -0.00027063       0.00207715
H       -4.44395964      -1.00737586      -1.56510757       0.13310976       0.00134699      -0.00183766      -0.00005536
H       -2.00588504      -1.21584012      -1.28421927       0.13547656       0.00250351      -0.00020641      -0.00633685
H       -0.17406783       0.90123894       1.12833092       0.26183081      -0.00110178      -0.00089990       0.00323325
H        2.10698222       0.68944064       0.20698439       0.06880555      -0.00256775       0.00421126       0.00054532
H        1.84816086      -0.46611753       1.49141655       0.07683553      -0.00131629      -0.00046660       0.00415245
H        2.78120998      -1.21285319      -1.31930151       0.09902786       0.00153757      -0.00341510      -0.00146210
H        2.54105111      -2.33036181      -0.00389392       0.11218870      -0.00173351      -0.00180164       0.00126239
H        6.02647042       0.55877776      -0.44097307       0.11607242      -0.00046747       0.00611528      -0.00057078
H        4.80538219       0.21955606      -1.67533094       0.09377743      -0.00057715       0.00192329      -0.00106605
H        4.41060232       1.25803701      -0.29069679       0.08807798       0.00063274       0.00267221       0.00247217
H       -2.11673959       1.79641625       1.73977576       0.12718998       0.00466880       0.00145451      -0.00220783
H       -4.55665239       2.00062676       1.46477129       0.13450082       0.00643603       0.00291437      -0.00177037
