24
Properties=species:S:1:pos:R:3:charge:R:1:forces:R:3 energy=-25387.624570651704 pbc="F F F"
O        0.19313617      -1.49529990      -0.32600771      -0.50649285       0.00351952      -0.00026295      -0.00007040
C        0.71724349      -0.41389373      -0.67973465       0.30349362      -0.00515176       0.00477856      -0.00109112
C        2.00254028      -0.18968927      -1.13941005      -0.48317686      -0.00334729       0.00235483       0.00225040
C        2.99019003      -1.28375485      -1.18641591      -0.11248229       0.00094596       0.00010235       0.00129637
N       -0.09394805       0.78365799      -0.58808922      -0.38075566      -0.00031027      -0.00022935       0.00658964
C       -1.38735040       0.94728690      -0.20039402       0.41448402       0.00023212      -0.00312618       0.00246974
N       -1.81994233       2.22299877      -0.20683440      -0.43990767       0.00063776      -0.00523615      -0.00258954
C       -3.07697405       2.46458310       0.15263784       0.03220029       0.00448304       0.00038322       0.00056722
C       -3.98047321       1.49531870       0.53528441      -0.22499789       0.00235367       0.00065209      -0.00086317
C       -3.52661893       0.17346962       0.54230430      -0.13916343       0.00178355       0.00053647       0.00069971
C       -2.23601393      -0.12209706       0.18002554      -0.14444931      -0.00007290       0.00309972       0.00006015
H        2.35804138       0.81732126      -1.32134825       0.10795675       0.00119080       0.00007396      -0.00394233
H        3.61859162      -1.26308635      -2.07744279       0.07397934       0.00196813      -0.00187679      -0.00153776
H        2.49243546      -2.25529839      -1.14113481       0.08552072       0.00179539      -0.00173956      -0.00174683
H        0.37613922       1.64058060      -0.81884128       0.23468448      -0.00115884      -0.00226073      -0.00113906
H       -3.37575291       3.50820463       0.13119682       0.06474612      -0.00321686       0.00015941      -0.00128405
H       -4.98995796       1.75678786       0.81515124       0.11571633       0.00208078      -0.00384169       0.00182035
H       -4.19212120      -0.62914900       0.83488672       0.10659737       0.00257947      -0.00067831       0.00037026
H       -1.83388254      -1.11851542       0.16941328       0.11910469       0.00095104       0.00671162      -0.00304751
S        4.23400643      -1.29083940       0.19302181      -0.30074248      -0.00222963       0.00002504      -0.00002945
C        3.05740904      -1.42664529       1.54903184      -0.19754094      -0.00344005       0.00151900       0.00257431
H        2.41278155      -0.55231678       1.55326594       0.09073715      -0.00519944      -0.00183592      -0.00088559
H        3.61147743      -1.49247707       2.48509069       0.09519731      -0.00115573      -0.00310333      -0.00195122
H        2.43621503      -2.31037419       1.42709882       0.08529127       0.00076254       0.00379512       0.00147978
