27
Properties=species:S:1:pos:R:3:charge:R:1:forces:R:3 energy=-27478.47923787138 pbc="F F F"
C       -3.19251077       0.77946104      -0.33595561      -0.13555849       0.00133839      -0.00172552      -0.00304789
C       -1.90449091       0.76691829       0.15370957      -0.13251787      -0.00423127       0.00153537       0.00833046
C       -1.25627789      -0.43551978       0.42207074       0.11512917       0.00165868       0.00085686      -0.00931247
N        0.04369074      -0.35350286       0.94952940      -0.32629442      -0.00052869      -0.00113340      -0.00392882
C        1.02178482      -1.31258440       0.90924489       0.39894730      -0.00080493      -0.00143945      -0.00593743
O        0.86473951      -2.42126023       0.44874457      -0.42928150       0.00130697       0.00088257      -0.00262781
C        2.37690575      -0.86451842       1.44316030      -0.14208257      -0.00100739      -0.00126726      -0.00018818
C        3.11072755       0.01335313       0.43080980      -0.12357598       0.00116295       0.00194696       0.00268710
S        2.61816849       1.75259046       0.60473720      -0.18118691      -0.00304580       0.00678987      -0.00179674
C        3.45457887       2.43248540      -0.83899279      -0.19061391      -0.00145258      -0.00017398      -0.00097528
C       -1.91019073      -1.64067435       0.19512265      -0.08903049      -0.00246388       0.00141042       0.00560997
C       -3.20512024      -1.62773666      -0.28990455      -0.12632132       0.00302881      -0.00189372      -0.00672334
C       -3.85518387      -0.42596378      -0.56082752       0.06379797       0.00055254      -0.00093819      -0.00089754
C       -5.19888914      -0.42850825      -1.07149454       0.24325027      -0.00186913      -0.00184104       0.00325848
N       -6.27356804      -0.42828142      -1.47944408      -0.41478145       0.00000675       0.00007122      -0.00024407
H       -3.69027703       1.71338419      -0.54767438       0.13956311       0.00305420       0.00119986       0.00443249
H       -1.38429488       1.69932911       0.32545290       0.12845807      -0.00119855       0.00216025      -0.00093645
H        0.35597666       0.57912891       1.17888306       0.23348290      -0.00121600      -0.00023092      -0.00324170
H        2.95040178      -1.77121605       1.61126720       0.10099985       0.00351939       0.00013724       0.00091703
H        2.27264367      -0.34153353       2.39469706       0.07734737       0.00037968       0.00285856      -0.00141983
H        2.88749174      -0.32966761      -0.57927977       0.10117806       0.00667715       0.00164915       0.00125262
H        4.18625028      -0.04281424       0.57640120       0.10164443       0.00297502      -0.00075356      -0.00027801
H        3.22193200       3.49287758      -0.86707180       0.12040672       0.00229684      -0.00094075       0.00351327
H        4.53243618       2.31276199      -0.76989436       0.09615006      -0.00462852      -0.00187069       0.00023926
H        3.09094716       1.97118740      -1.75305227       0.09403638       0.00139879      -0.00840750       0.00503166
H       -1.40138102      -2.56690863       0.39362592       0.13795200      -0.00530492       0.00086466       0.00445761
H       -3.72053625      -2.55938035      -0.46630328       0.13890134      -0.00160420       0.00025423       0.00182554
