26
Properties=species:S:1:pos:R:3:charge:R:1:forces:R:3 energy=-27462.94787091168 pbc="F F F"
O       -0.52155118      -1.70042040      -1.92276097      -0.55238372      -0.00041806      -0.00508851      -0.00086805
C       -1.09611157      -1.41390995      -0.85628432       0.29883006      -0.00184792      -0.00029466      -0.00332353
C       -2.44001121      -1.60606648      -0.54759740      -0.50452310       0.00161935      -0.00527338       0.00337187
C       -3.05406917      -1.26412160       0.74359919      -0.10429497       0.00066910       0.00477674       0.00024489
N       -0.31910293      -0.77624758       0.18697925      -0.30718735      -0.00122181      -0.00004540      -0.00212996
C        0.93919467      -0.26307864       0.11848847       0.17535749      -0.00167044       0.00308306      -0.00404090
C        1.84950243      -0.57465878      -0.91049211      -0.12731779       0.00273990       0.00238785      -0.00065829
C        3.11706145      -0.03557888      -0.89334344      -0.14966239       0.00127276       0.00341304      -0.00178663
C        3.53132681       0.82890103       0.12453228       0.04952888      -0.00126777       0.00114247       0.00039313
C        4.84697438       1.38474972       0.11568749       0.24642527       0.00194121      -0.00430876       0.00425601
N        5.90846687       1.83366314       0.10999525      -0.49715263      -0.00236852      -0.00344570       0.00270074
C        2.63186774       1.14382525       1.14684368      -0.17086254      -0.00159107      -0.00184110      -0.00018153
C        1.36690521       0.60876034       1.14237930      -0.16629027      -0.00137639       0.00218872      -0.00413138
H       -3.05026212      -1.98249952      -1.35450092       0.11209237      -0.00209984      -0.00034464       0.00462830
H       -2.49651660      -1.68257256       1.59102468       0.07863316      -0.00418084      -0.00003269      -0.00323006
H       -4.07270085      -1.64355610       0.82200760       0.08534436       0.00445966      -0.00000125       0.00267621
H       -0.87401146      -0.44436819       0.96267204       0.21940097      -0.00175921      -0.00163059       0.00189773
H        1.50745585      -1.23194982      -1.69197900       0.12965235      -0.00372986       0.00705089      -0.00043195
H        3.81369919      -0.27872672      -1.68322790       0.11882399       0.00229812       0.00304703      -0.00004614
H        2.93510078       1.81293445       1.93974227       0.11824338      -0.00427910      -0.00024221      -0.00121167
H        0.66718827       0.86876942       1.92610726       0.11841528       0.00495581      -0.00366926       0.00290514
S       -3.22951732       0.55720801       1.22495763      -0.25339672       0.00346287       0.00318903       0.00672662
C       -3.02321367       1.33986574      -0.38274575      -0.18488099      -0.00151328       0.00000966      -0.00927727
H       -3.07368729       2.41848327      -0.24369967       0.10221761       0.00184659      -0.00468288      -0.00452519
H       -3.80909552       1.02102225      -1.06118451       0.08249225       0.00847808      -0.00179867       0.00496571
H       -2.05986425       1.06286364      -0.80015298       0.08249526      -0.00441879       0.00241113       0.00107627
