28
Properties=species:S:1:pos:R:3:charge:R:1:forces:R:3 energy=-26021.151420671897 pbc="F F F"
O       -0.29651914       1.01075150      -1.21332613      -0.50790566       0.00147735       0.00035586      -0.00437770
C       -0.40817063      -0.15458877      -0.77232628       0.31227782       0.00083904       0.00184545      -0.00160430
C       -1.56183558      -0.89463498      -0.60621866      -0.46019050      -0.00272637       0.00374070       0.00082078
C       -2.88566194      -0.33018452      -0.92196049      -0.00326227      -0.00164764       0.00397606       0.00108814
C       -3.83736376      -1.33357680      -1.55236999      -0.24075976      -0.00745405       0.00337025      -0.00139902
N        0.81728680      -0.83935736      -0.38367432      -0.40537575      -0.00316138      -0.00500956       0.00017635
C        1.97158751      -0.28107198       0.11857540       0.20414147       0.00014070      -0.00474502       0.00063062
C        2.95461853      -1.13439759       0.64986515      -0.18293834      -0.00710409       0.00031955       0.00563200
C        4.14208665      -0.63908613       1.15390275      -0.17631105       0.00395533      -0.00396997       0.00062573
C        4.39697210       0.72527767       1.14695840      -0.21477364       0.00180587       0.00653057       0.00100740
C        3.43014377       1.57499673       0.62214253      -0.16190647       0.00341346      -0.00084201       0.00319981
C        2.23327676       1.09909637       0.11189166      -0.13500316       0.00323815       0.00294483      -0.00582142
H       -1.54518667      -1.85790784      -0.11095704       0.10477821       0.00053957       0.00850525       0.00328389
H       -2.76807346       0.53152298      -1.57924908       0.10286634       0.00630514       0.00308643      -0.00204435
H       -3.97927208      -2.19274428      -0.89511555       0.05818317       0.00021508      -0.00560810      -0.00517884
H       -4.81374092      -0.89397481      -1.75656271       0.05702349      -0.00721268       0.00270514      -0.00134327
H       -3.40998974      -1.68822081      -2.48914004       0.06035405       0.00098148      -0.00674740       0.00165471
H        0.63759957      -1.77176189      -0.06013986       0.23819220       0.00203445      -0.00250583      -0.00327228
H        2.76964863      -2.20266438       0.65769761       0.10809210      -0.00383183      -0.00365080       0.00085311
H        4.87579385      -1.32660819       1.55654589       0.11286197      -0.00010884       0.00019266      -0.00255704
H        5.32518395       1.11517673       1.53946852       0.11848683       0.00185561       0.00666654       0.00362363
H        3.61101436       2.64255651       0.60851107       0.11160811      -0.00023351       0.00308666      -0.00050940
H        1.47982419       1.74946048      -0.29670307       0.13060936       0.00109074      -0.00231665      -0.00240303
S       -3.79579827       0.36239192       0.56662621      -0.30053806       0.00169535      -0.00616289       0.00646363
C       -2.52777692       1.50514276       1.12939389      -0.20469064      -0.00083163      -0.00166251      -0.00073144
H       -2.26599717       2.21370790       0.34840685       0.08552975       0.00429646      -0.00091149      -0.00483512
H       -2.91694261       2.03814917       1.99577495       0.09481458      -0.00298943      -0.00266831       0.00661724
H       -1.63317317       0.95074766       1.39933977       0.09383585       0.00341659      -0.00052508       0.00039967
