48
Properties=species:S:1:pos:R:3:charge:R:1:forces:R:3 energy=-57348.63501827669 pbc="F F F"
Cl      -4.83733113       1.68364972      -4.01247134      -0.11148444      -0.00353811       0.00343996      -0.00026548
C       -3.64951254       1.08074044      -2.88531053      -0.07438746       0.00055217       0.00325400       0.00074561
C       -2.31810902       1.35137578      -3.13874468       0.05905553       0.00172603       0.00186335       0.00359183
N       -1.33769552       0.98414326      -2.33834121      -0.35839513       0.00375130      -0.00000541      -0.00112790
C       -1.73285296       0.33490296      -1.23570340       0.43711716       0.00020353       0.00074101       0.00087879
N       -0.81303610      -0.07484632      -0.33867356      -0.36167616       0.00109914      -0.00235040      -0.00113031
C        0.58923554       0.04125359      -0.40279158       0.27763334       0.00289126      -0.00110134      -0.00226432
N        1.21881065       1.16947422      -0.68017158      -0.36986747      -0.00088671      -0.00473848       0.00102003
N        2.52957654       0.87489100      -0.53431018       0.06741758      -0.00119942      -0.00182690       0.00271745
C        3.51059458       1.90656288      -0.78335454      -0.13967650      -0.00117466       0.00187542      -0.00242107
C        2.72865707      -0.41091939      -0.17968562       0.22346476      -0.00055864       0.00211174      -0.00430000
N        3.99169047      -0.94339645      -0.06335620      -0.44107929      -0.00288360       0.00126556       0.00266968
C        4.90918017      -0.49424597       0.97222366       0.24945942      -0.00314241      -0.00113989       0.00098078
C        6.04320959      -1.27603773       1.13834292      -0.44268176       0.00070791       0.00033142      -0.00524684
C        7.14452009      -0.81118243       1.98779656      -0.11121915       0.00502728      -0.00186456      -0.00173455
O        4.59372564       0.54998028       1.57578129      -0.44427189      -0.00252153      -0.00126174       0.00182673
C        1.47094962      -0.99713617      -0.08074978      -0.34867537       0.00388550       0.00136801      -0.00207245
N       -2.98973931       0.02339256      -0.90480817      -0.36302599       0.00118023      -0.00081611      -0.00088482
C       -3.98146626       0.36947860      -1.72691842       0.18179846       0.00178408       0.00001737      -0.00226937
C       -5.32828524      -0.01420588      -1.34299695       0.01200029       0.00462966      -0.00333491      -0.00230501
C       -5.66225847      -0.46034334      -0.05770772       0.15209538      -0.00059343      -0.00438245      -0.00070009
C       -4.97895427      -0.65762566       1.17056940      -0.14182602       0.00034955       0.00382389       0.00005583
C       -5.67525263      -1.11755558       2.24741704      -0.14115536       0.00178073       0.00236245      -0.00302950
C       -7.06454381      -1.40170344       2.14940113      -0.17712569      -0.00004809       0.00041226       0.00241897
C       -7.71326587      -1.21573428       0.97844617      -0.05033807       0.00032489       0.00170012       0.00305187
N       -7.00297607      -0.75203598      -0.09565378       0.14547108      -0.00215173      -0.00497910       0.00207710
N       -7.54409456      -0.53743283      -1.31012572      -0.40453491       0.00045621      -0.00224846       0.00084629
C       -6.54508953      -0.09829913      -2.05444008      -0.01301635       0.00482455       0.00247559      -0.00241847
H       -2.04463906       1.89398830      -4.03503853       0.07199342       0.00013152      -0.00193198       0.00131340
H       -1.17383617      -0.71203688       0.34593089       0.25347087      -0.00252462      -0.00119326       0.00512325
H        4.20702513       1.59908473      -1.56018578       0.07264396      -0.00227058      -0.00365274      -0.00027189
H        4.05866246       2.12678921       0.12571760       0.08166461      -0.00218008       0.00353604      -0.00093974
H        2.94875405       2.76745978      -1.12816227       0.08923687       0.00147158      -0.00194594       0.00296995
H        4.03152308      -1.94128433      -0.17658879       0.25188679       0.00311586       0.00571926       0.00311303
H        6.21991624      -2.11710648       0.48347465       0.11922630       0.00254280       0.00225493      -0.00150610
H        6.80572291      -0.03072509       2.67463159       0.09446525      -0.00438747       0.00148822      -0.00590928
H        7.61818915      -1.59916028       2.57595281       0.09122328      -0.00408633      -0.00327999       0.00475789
H        1.21534594      -2.00709842       0.18733596       0.13667771      -0.00057649       0.00398368       0.00507204
H       -3.92357369      -0.43357817       1.18781237       0.11463817       0.00236973       0.00636242       0.00141197
H       -5.17410982      -1.27174592       3.19146567       0.12439708      -0.00001818      -0.00139869      -0.00203899
H       -7.60916172      -1.76781071       3.00643267       0.13071892      -0.00906955       0.00139239      -0.00184492
H       -8.76074925      -1.40017649       0.79933297       0.12679376       0.00187020      -0.00241768       0.00164014
H       -6.74245903       0.12400429      -3.08653534       0.10624503       0.00212180      -0.00188250      -0.00056974
S        8.58808098      -0.07616426       1.06681260      -0.26255146       0.00223295       0.00009640      -0.00598663
C        7.67814752       1.22212095       0.20708249      -0.19361307      -0.00127451       0.00392709       0.00001091
H        8.39242048       1.81073358      -0.36811139       0.10748952      -0.00228027      -0.00194999       0.00548762
H        6.94059803       0.77207776      -0.45343028       0.08198622      -0.00378398      -0.00268610      -0.00564232
H        7.15585286       1.86482527       0.91287843       0.09033094       0.00012053      -0.00341451       0.00309878
