25
Properties=species:S:1:pos:R:3:charge:R:1:forces:R:3 energy=-24950.592398985907 pbc="F F F"
C       -3.75542222      -1.13565601       0.38117862      -0.17664832       0.00103009      -0.00275368       0.00153188
C       -4.19154306      -0.13416099      -0.47547659      -0.22109994       0.00086364      -0.00109174       0.00400288
C       -3.27601268       0.83163647      -0.87941140      -0.16168864      -0.00048378      -0.00356584       0.00097952
C       -1.95788169       0.81765489      -0.45541177      -0.13762987      -0.00092009       0.00040355      -0.00429236
C       -1.51241962      -0.19419942       0.41390762       0.21123996      -0.00218721       0.00354695      -0.00078268
N       -0.23020951      -0.27056790       0.89712333      -0.38554999      -0.00055964      -0.00170437      -0.00778544
C        0.94274320       0.52298512       0.58912162       0.31431195      -0.00371271      -0.00177802       0.00821794
C        2.09059494       0.11087287       1.24333220      -0.47663566       0.00072432      -0.00429278      -0.00288170
C        3.39286877       0.73470055       0.94995542      -0.11243269       0.00051647      -0.00192029       0.00024240
O        0.81403842       1.46568224      -0.22460754      -0.50804579      -0.00042625      -0.00676047       0.00320997
C       -2.44485863      -1.16894156       0.81742268      -0.18856543       0.00041555      -0.00036945       0.00019089
H       -3.59620397       1.62295325      -1.54607018       0.11064434       0.00721226      -0.00594750      -0.00147825
H       -1.24319311       1.55839228      -0.76787286       0.12452579       0.00011694       0.00238418      -0.00104904
H       -0.03191455      -1.05431666       1.48824060       0.23769400      -0.00118315       0.00707354      -0.00060369
H        2.09335914      -0.78718903       1.85003120       0.10643201      -0.00426450       0.00434575       0.00230232
H        3.25562851       1.70048431       0.45780092       0.08579943       0.00522899       0.00288396       0.00572834
H        4.01287995       0.88547844       1.83453032       0.07196002       0.00382369       0.00272906      -0.00129901
H       -2.12076052      -1.96009353       1.48423276       0.10720041      -0.00468190      -0.00016785       0.00545607
H       -5.21617962      -0.10875931      -0.81864632       0.11808676       0.00443047       0.00862184       0.00006952
H       -4.44432389      -1.90155966       0.71596937       0.11177868       0.00039104      -0.00556439      -0.00427847
S        4.51062052      -0.24409799      -0.17102545      -0.30682138       0.00128109      -0.00234197      -0.00630479
C        3.39366647      -0.31572690      -1.58111891      -0.19586712      -0.00399592       0.00307127      -0.00049069
H        2.49631788      -0.86018732      -1.30237108       0.09255769      -0.00327481       0.00257548       0.00165654
H        3.10367488       0.68597404      -1.88715964       0.08528118      -0.00086874       0.00066926      -0.00103204
H        3.90134623      -0.81894031      -2.40328222       0.09347267       0.00052340      -0.00004644      -0.00131022
