26
Properties=species:S:1:pos:R:3:charge:R:1:forces:R:3 energy=-24966.462347318888 pbc="F F F"
C       -4.01560912      -1.48524248       0.36940278      -0.14086357       0.00171292       0.00189435      -0.00061210
C       -4.64810944      -0.26185158       0.53755184      -0.16139966       0.00070009      -0.00249221      -0.00291654
C       -3.90140504       0.90238798       0.44426167      -0.13405219      -0.00457849      -0.00229974       0.00292499
H       -4.38216798       1.86166032       0.57362112       0.13308670       0.00148240      -0.00211370      -0.00294471
C       -2.53846826       0.86945478       0.18559253      -0.11631612      -0.00679881       0.00343021       0.00133738
C       -1.90883625      -0.36097848       0.01821319       0.14380188      -0.00641987       0.00194193       0.00251860
N       -0.53237142      -0.50462698      -0.24005362      -0.36191887      -0.00244049       0.00139844       0.00314384
C        0.41134209       0.46307029      -0.46167637       0.41706559       0.00094639      -0.00056219      -0.00937368
O        0.17344970       1.65060244      -0.45863469      -0.42430523       0.00410534       0.00767204      -0.00004240
C        1.80445639      -0.08656501      -0.72979955      -0.13436766       0.00463872       0.00022742      -0.00061672
C        2.79590768       1.03534054      -0.97857880      -0.10187380       0.00271025       0.00028172      -0.00071318
S        4.46907990       0.45291549      -1.32640259      -0.21049808      -0.00420293       0.00086563      -0.00441866
C        5.00201104       0.03761099       0.34851226      -0.20196256      -0.00352516      -0.00056687      -0.00381631
C       -2.65681768      -1.53402195       0.11269748      -0.15632696      -0.00200228      -0.00152116      -0.00357182
H       -4.58275888      -2.40290283       0.43767724       0.13451199       0.00826719       0.00325708      -0.00034441
H       -5.70892661      -0.21824918       0.73675851       0.13601418       0.00598213      -0.00101255       0.00266931
H       -1.96515729       1.77526129       0.11093897       0.13547219       0.00234578      -0.00186422       0.00014262
H       -0.21344946      -1.45523489      -0.29099091       0.26199192       0.00549957       0.00167638       0.00010319
H        1.76035518      -0.75190264      -1.59345595       0.07676775      -0.00503046      -0.00078942       0.00210038
H        2.10660780      -0.70376997       0.11851002       0.06873634       0.00172768      -0.00163178       0.00128876
H        2.80952890       1.71721088      -0.13250322       0.09904827       0.00224317      -0.00430300       0.00145548
H        2.48162062       1.61486678      -1.84075160       0.11214238      -0.00291324      -0.00122238       0.00163573
H        6.05530625      -0.22380427       0.28872851       0.11595563       0.00084150      -0.00069141       0.00492213
H        4.45514938      -0.81081527       0.75188023       0.08830401      -0.00782314      -0.00322045      -0.00102134
H        4.88771010       0.89118624       1.01227157       0.09381574      -0.00134533       0.00108700       0.00337858
H       -2.16341124      -2.48831143      -0.02129276       0.12717021       0.00387646       0.00055905       0.00277114
