37
Properties=species:S:1:pos:R:3:charge:R:1:forces:R:3 energy=-29684.643571927485 pbc="F F F"
C        5.46919064       0.62309172       0.82039874      -0.14348017       0.00016293      -0.00114585       0.00101984
C        4.15997416       1.06838690       0.86041974      -0.15218779       0.00280557       0.00303513      -0.00865197
C        3.15785689       0.38087645       0.17806928       0.15961680      -0.00223936      -0.00441483       0.00671167
N        1.85703748       0.91694816       0.24892371      -0.36124724      -0.00145166      -0.00215564      -0.00883411
C        0.66537566       0.36281560      -0.13632620       0.40647733       0.00074872      -0.00384998      -0.00457088
O        0.55925356      -0.75686668      -0.58959486      -0.40829846       0.00233913       0.00311687       0.00637328
C       -0.51971360       1.29803920       0.05920620      -0.14199591       0.00014807      -0.00156222       0.00228693
C       -1.83823861       0.63103036      -0.29799399      -0.03578271      -0.00113394      -0.00043187      -0.00087464
S       -3.13136661       1.84610486      -0.68368149      -0.20095010       0.00005140      -0.00178431      -0.00088906
C       -2.54531257       2.38145470      -2.30335648      -0.19996138       0.00113278       0.00335347      -0.00386338
C       -2.32479255      -0.24139003       0.85238166      -0.03401408       0.00091375      -0.00155189       0.00098408
N       -3.36807741      -1.16132016       0.43975804      -0.23340611      -0.00009439      -0.00019734       0.00057094
C       -4.26609789      -1.48577244       1.52632312      -0.14840879      -0.00379634       0.00120048       0.00454175
C       -2.80929285      -2.36111163      -0.15601016      -0.14191994       0.00301823       0.00301375      -0.00097260
C        3.47789867      -0.76317805      -0.54803336      -0.11273620       0.00054957      -0.00211585      -0.00126954
C        4.79575649      -1.19381136      -0.58327254      -0.13541095      -0.00091473      -0.00272806       0.00251933
H        5.03763333      -2.07984495      -1.15255931       0.13055407      -0.00024181      -0.00270082       0.00415165
C        5.79571529      -0.51304397       0.09419249      -0.16344650      -0.00223305      -0.00216719      -0.00399820
H        6.81756855      -0.86129528       0.05826164       0.13367598      -0.00159870      -0.00190307       0.00265660
H        6.23638106       1.16328399       1.35636473       0.13223344       0.00395523       0.00347652      -0.00011773
H        3.90282985       1.95522249       1.42555620       0.12553750       0.00288379      -0.00144288       0.00393298
H        1.79786099       1.82500253       0.67219102       0.25796926      -0.00047729       0.00336634       0.00363970
H       -0.53967549       1.62900225       1.10036286       0.06641068      -0.00202357       0.00473429      -0.00045692
H       -0.35287897       2.18920049      -0.54457918       0.06488416      -0.00362089      -0.00411765      -0.00079226
H       -1.69859935       0.02047624      -1.18587399       0.10672590      -0.00083769       0.00199614      -0.00198955
H       -3.29675558       3.05666263      -2.70404108       0.11867733      -0.00190235      -0.00557692       0.00046182
H       -2.44828063       1.53171941      -2.97465233       0.08946954      -0.00233761       0.00778940       0.00573524
H       -1.59829550       2.91263794      -2.24940434       0.08193456      -0.00871992       0.00220162      -0.00245640
H       -2.70560245       0.41607849       1.63829801       0.07852918       0.00073572      -0.00359144      -0.00181258
H       -1.46691709      -0.77581498       1.28092776       0.07852746       0.00417683      -0.00018782      -0.00262718
H       -3.75933758      -1.97856935       2.37023823       0.06311977      -0.00035049       0.00048594      -0.00516170
H       -5.04994383      -2.15029269       1.16868753       0.08332207       0.00006160       0.00313559      -0.00127135
H       -4.73148330      -0.57310495       1.89179632       0.07928585       0.00179562      -0.00201441       0.00271139
H       -2.09499039      -2.10146848      -0.93284414       0.07604312       0.00906778       0.00039270      -0.00122371
H       -3.60596362      -2.95199363      -0.60572632       0.08456913      -0.00124302       0.00156104       0.00408790
H       -2.28812721      -2.98932037       0.58058262       0.06559248       0.00274338      -0.00182775      -0.00550403
H        2.70565752      -1.29764669      -1.07139009       0.13009076      -0.00207317       0.00460780       0.00495197
