41
Properties=species:S:1:pos:R:3:charge:R:1:forces:R:3 energy=-33825.01287585686 pbc="F F F"
C        5.53266249       0.22822081       0.53220906      -0.17621563       0.00108963       0.00190000       0.00119986
C        5.75597778      -1.13505490       0.39220059      -0.20772547      -0.00158406       0.00194340      -0.00066786
C        4.65396233      -1.97530985       0.29125177      -0.16486403      -0.00051629      -0.00022169       0.00150187
C        3.35637090      -1.49210265       0.32623743      -0.13258909       0.00062393       0.00097654      -0.00148978
C        3.12702105      -0.11304790       0.46177683       0.18469521       0.00141959       0.00140313       0.00363797
N        1.87579583       0.45228805       0.46186757      -0.33150354       0.00133335      -0.00093259      -0.00444227
C        0.59880238      -0.20035716       0.61891213       0.26807132      -0.00007195       0.00414554       0.00287630
C       -0.51063086       0.60337542       0.37023613      -0.29000175       0.00057456      -0.00094023      -0.00511701
C       -1.87108153       0.11874352       0.72363707      -0.06578783       0.00401442       0.00080384       0.00343042
N       -2.67608024      -0.35675371      -0.43418903      -0.27150846       0.00230421      -0.00077649      -0.00070350
C       -4.03163366      -0.63071015      -0.00994295      -0.04106480       0.00233643      -0.00115404       0.00335439
C       -4.77394019      -1.33954151      -1.11801939      -0.01478247       0.00204899       0.00064979      -0.00149898
O       -4.23143271      -2.63052002      -1.39219688      -0.33179778       0.00168988       0.00031722       0.00693806
C       -2.90314058      -2.77401650      -0.89330700      -0.01305421       0.00356193       0.00024174       0.00114029
C       -2.06384145      -1.52529266      -1.08032242      -0.04487650       0.00194028      -0.00373595      -0.00104316
C       -0.40225904       1.90962404      -0.28925076      -0.14838974       0.00087254       0.00206318       0.00037677
O        0.58412241      -1.40676346       0.95135949      -0.49908182      -0.00440878       0.00340585       0.00174589
C        4.24687529       0.73016750       0.56539854      -0.18245403       0.00197618      -0.00070794      -0.00088472
H        4.80441546      -3.04202493       0.18684333       0.11538401       0.00093681      -0.00205951      -0.00419956
H        2.49545065      -2.13460868       0.26672034       0.12266698       0.00439068      -0.00314615       0.00179886
H        1.86797547       1.45334018       0.54536231       0.23276640      -0.00148619      -0.00139695      -0.00053228
H       -2.45581492       0.92724463       1.18022629       0.05978587      -0.00090836      -0.00127246       0.00051938
H       -1.79212382      -0.69393311       1.45720859       0.06739251      -0.00359059      -0.00257897       0.00077127
H       -4.06894782      -1.24533081       0.90559356       0.05845764      -0.00403534      -0.00532007       0.00477206
H       -4.52927824       0.31353137       0.21299819       0.06140471      -0.00635727      -0.00060635      -0.00354844
H       -4.71098675      -0.72191816      -2.01757988       0.06712455       0.00501566       0.00267847      -0.00650077
H       -5.82233014      -1.48622761      -0.85954751       0.06135247      -0.00183272      -0.00016583      -0.00196837
H       -2.46912227      -3.61832453      -1.42503287       0.06668435      -0.00429670      -0.00115633       0.00142195
H       -2.94218401      -3.02362357       0.17210960       0.06475390      -0.00484033       0.00245206      -0.00258175
H       -1.07596200      -1.69204268      -0.66072900       0.09335874       0.00025286       0.00426919      -0.00065953
H       -1.95011511      -1.34755379      -2.15451807       0.07089385       0.00139998       0.00212122       0.00129587
H       -1.33420806       2.16487961      -0.79900447       0.07392120      -0.00154626      -0.00084000       0.00184414
H        0.39970840       1.95229577      -1.02800996       0.06986542      -0.00046762      -0.00585387      -0.00289753
H        4.08427558       1.79561478       0.67672073       0.11619793       0.00040654      -0.00296821       0.00159464
H        6.76128170      -1.53009904       0.36587546       0.12172912      -0.00329477       0.00030423       0.00023334
H        6.36906361       0.91036721       0.61841195       0.11665717       0.00075116       0.00095590      -0.00362830
S       -0.09536090       3.37226564       0.83202638      -0.23916759      -0.00342516      -0.00096511       0.00277472
C        0.02854057       4.59575648      -0.48045514      -0.18630171      -0.00028432       0.00227696      -0.00111281
H        0.17363498       5.58027876      -0.04055579       0.09851328       0.00404909       0.00076128       0.00124088
H        0.86758178       4.37646601      -1.13873652       0.07345133       0.00186656       0.00234210      -0.00029217
H       -0.88277996       4.60884703      -1.07589432       0.07603868      -0.00191079       0.00078632      -0.00070005
