37
Properties=species:S:1:pos:R:3:charge:R:1:forces:R:3 energy=-30706.71255287742 pbc="F F F"
C        5.03169195       0.25166791      -1.24298088      -0.17636140      -0.00051575      -0.00101378       0.00011976
C        5.65803507       0.16129333      -0.00769084      -0.20719844      -0.00056724       0.00081904       0.00020487
C        4.86414657       0.01262084       1.12377018      -0.16326602      -0.00069019       0.00366571       0.00150419
C        3.48300586      -0.04807329       1.04827877      -0.13105944       0.00063553      -0.00382970      -0.00414610
C        2.84673488       0.02909471      -0.20085801       0.20456584      -0.00265052       0.00176354      -0.00089551
N        1.48589084      -0.09493307      -0.36913101      -0.35528043      -0.00100867      -0.00452882       0.00288413
C        0.43725129       0.05825838       0.61338120       0.28919354      -0.00194228      -0.00484118      -0.00473287
C       -0.85347012      -0.20593912       0.17300774      -0.30996585       0.00109649      -0.00218710       0.00201443
C       -1.98132443       0.11531617       1.07768550      -0.03051945       0.00392685       0.00522792       0.00149670
C       -3.08301765      -0.95560030       1.05723503      -0.04529683       0.00035434       0.00358926      -0.00088276
N       -3.46411404      -1.47730062      -0.24791683      -0.32180688      -0.00117193      -0.00949530       0.00043973
C       -4.36980508      -0.62684447      -1.00136960      -0.13619401       0.00316266       0.00227307       0.00345456
C       -2.28652675      -1.85754912      -1.01145995      -0.06284689       0.00532786       0.00243928      -0.00000052
C       -1.24328657      -0.74090872      -1.17587852      -0.13221067       0.00549419       0.00483359       0.00258944
O        0.78697425       0.43191576       1.75756720      -0.50044471      -0.00371180      -0.00761031       0.00138182
C        3.65400626       0.18733565      -1.34072558      -0.18047753       0.00059262      -0.00544879      -0.00162048
H        5.33126759      -0.05610189       2.09831124       0.11210758       0.00162154       0.00320639       0.00190601
H        2.86035603      -0.14769328       1.91869792       0.12185023       0.00592907      -0.00002146      -0.00050633
H        1.17297633      -0.06180398      -1.31858114       0.22914439       0.00068348       0.00033504       0.00635330
H       -1.61755395       0.19804945       2.09743089       0.09334523      -0.00266322       0.00030299       0.00519052
H       -2.70900888      -1.80430266       1.63507655       0.06201170      -0.00237102      -0.00097076      -0.00475471
H       -3.97667757      -0.58706531       1.56019493       0.05664986      -0.00358601      -0.00091259      -0.00165681
H       -4.71311409      -1.16655578      -1.88555624       0.06765912      -0.00325009       0.00596812       0.00481826
H       -3.93092281       0.32260569      -1.32590584       0.06312139       0.00010412       0.00385055      -0.00425179
H       -5.24319239      -0.39852880      -0.39012317       0.06588060      -0.00022350       0.00229980      -0.00026868
H       -2.61302146      -2.23490375      -1.98320221       0.05590948       0.00174179       0.00280359       0.00014635
H       -1.81322340      -2.68764592      -0.48041031       0.06263015       0.00136328      -0.00245817      -0.00529874
H       -0.39331337      -1.17268664      -1.70338028       0.06146324       0.00168995      -0.00205606       0.00360810
H       -1.65966491       0.03899109      -1.82828904       0.07528394      -0.00293711      -0.00534299      -0.00409229
H        3.18054188       0.25856881      -2.31342963       0.10825215      -0.00010366      -0.00355042       0.00119531
H        6.73488132       0.20661062       0.07181761       0.11907366      -0.00157607       0.00610594      -0.00091197
H        5.62106519       0.37226763      -2.14351827       0.11350096      -0.00321034       0.00231891      -0.00264216
S       -2.76960810       1.80193117       0.76920852      -0.26776978       0.00188448       0.00322401      -0.00023273
C       -1.32635129       2.80910476       1.16202129      -0.19959345      -0.00231553      -0.00214549      -0.00119034
H       -0.52071711       2.57233331       0.47336996       0.08148804      -0.00038685      -0.00194436      -0.00272523
H       -1.60791099       3.85631032       1.06556624       0.09774492      -0.00040710       0.00072581      -0.00132812
H       -0.97677889       2.61235710       2.17139167       0.07941578      -0.00031877       0.00260436       0.00283020
