65
Properties=species:S:1:pos:R:3:charge:R:1:forces:R:3 energy=-66096.6889611589 pbc="F F F"
C        0.12753846      -3.59462511       0.14727806       0.22595139      -0.00045170       0.00186467      -0.00320019
N        1.43910076      -3.41911531      -0.13049085      -0.38276160      -0.00036484       0.00847896      -0.00195447
C        1.87473595      -2.18236373      -0.19967037       0.31607437       0.00584827       0.00314986      -0.00731721
N        3.19040399      -1.92265451      -0.47987944      -0.32300013       0.00479970      -0.00302237      -0.00178100
C        4.26501637      -2.78583633      -0.76747054       0.11849613       0.00027846      -0.00644622       0.00116469
C        5.49944938      -2.19369807      -1.02901726      -0.15688786      -0.00049079      -0.00151237       0.00582165
C        6.60164695      -2.97348263      -1.31962786      -0.15572694       0.00199987       0.00126079      -0.00402262
C        6.47113535      -4.34697495      -1.34934698       0.12366457      -0.00124752      -0.00132657       0.00784981
F        7.54445742      -5.10401410      -1.63032850      -0.13291419      -0.00082500       0.00367373      -0.00371387
C        5.25117385      -4.94233146      -1.09153522      -0.00932626      -0.00239796      -0.00473749      -0.00261064
Cl       5.10293265      -6.66414807      -1.13335013      -0.05441753      -0.00304676      -0.00113069       0.00176146
C        4.14066821      -4.16585912      -0.79910501      -0.10407832       0.00102285      -0.00444652      -0.00093758
C        0.99992145      -1.06232163       0.01261722       0.02626458       0.00552363      -0.00217264       0.00056659
C        1.39219799       0.29825025      -0.06218885      -0.15212940      -0.00047522      -0.00332935       0.00042056
C        0.47830967       1.29419112       0.14134544       0.06209367       0.00143112      -0.00287154       0.00604148
N        0.75299444       2.66618843       0.09002025      -0.33477795      -0.00054350      -0.00110927       0.00352914
C        1.93097683       3.29299924      -0.18567178       0.41515461      -0.00439464       0.00301869      -0.00191419
O        2.96102980       2.71073418      -0.45939525      -0.43095067      -0.00781704       0.00488497      -0.00053902
C        1.82760323       4.80866189      -0.11796254      -0.12263402       0.00093262       0.00026764      -0.00172194
C        3.09531494       5.47046814      -0.62468295      -0.11454334      -0.00144204      -0.00088906       0.00060966
S        3.03800172       7.27309887      -0.55201551      -0.21051076       0.00419858      -0.00334707       0.00752151
C        3.38024311       7.52066518       1.20509736      -0.20382132      -0.00065431      -0.00295401      -0.00334314
C       -0.87683950       0.95533809       0.43446053       0.12851934      -0.00294607       0.00360825      -0.00035076
O       -1.71820293       2.01242057       0.58321378      -0.23299392      -0.00222950       0.00441409       0.00627439
C       -3.09188794       1.73813804       0.87724553      -0.00418152      -0.00378020      -0.00273611       0.00171610
C       -3.87722210       1.31659783      -0.36141085      -0.13477032      -0.00099443      -0.00340768       0.00181120
C       -5.02853344       0.38942881       0.00539141      -0.05754877      -0.00382530       0.00443777       0.00140824
N       -4.52341062      -0.89040246       0.47009908      -0.26439175       0.00469822       0.00311359      -0.00305611
C       -5.36296746      -1.52465848       1.47607376      -0.05624713       0.00257489       0.00410819      -0.00463274
C       -4.95726919      -2.97591111       1.61762949      -0.02771865      -0.00035581       0.00027450       0.00102969
O       -5.25970488      -3.71968638       0.44132032      -0.30754909      -0.00068388      -0.00360637      -0.00106166
C       -5.18773540      -2.93512468      -0.74532288      -0.03063480      -0.00167703      -0.00223280      -0.00241098
C       -4.15717767      -1.83287588      -0.60221341      -0.06523432       0.00015566      -0.00275269      -0.00135192
C       -1.25856822      -0.35177336       0.53538075      -0.16392130       0.00045014       0.00129143       0.00278285
C       -0.32859456      -1.38184570       0.30488504       0.18272114       0.00303561      -0.00041011       0.00129299
N       -0.77057623      -2.67997716       0.36038237      -0.38779190      -0.00129132      -0.00027945       0.00414870
H       -0.20303016      -4.62515108       0.19238051       0.05583544       0.00141994       0.00030420       0.00080586
H        3.44601433      -0.95651140      -0.49705139       0.25288901      -0.00438256       0.00131994       0.00066958
H        5.59673626      -1.11668385      -1.00398432       0.13209417      -0.00456777      -0.00088569      -0.00203435
H        7.56599629      -2.53632407      -1.52560575       0.15283820       0.00648080       0.00176740       0.00018246
H        3.18755415      -4.61835205      -0.59725832       0.12471322       0.00094990       0.00151868       0.00055743
H        2.40357410       0.58483988      -0.28179351       0.12942430      -0.00329908       0.00453253      -0.00317875
H       -0.03407467       3.26139743       0.28356065       0.25409591      -0.00182012      -0.00207613      -0.00226232
H        0.96441776       5.13313809      -0.70271791       0.07985087       0.00498285       0.00314313       0.00122874
H        1.62172504       5.08975510       0.91922283       0.07458661       0.00734378       0.00374559      -0.00458648
H        3.25452705       5.20900661      -1.66722918       0.11294350       0.00588010       0.00023779       0.00373457
H        3.95652618       5.10667427      -0.07084467       0.09963356      -0.00290021      -0.00186971      -0.00380733
H        3.47743753       8.59210742       1.36000679       0.11717409      -0.00537064      -0.00582884      -0.00366766
H        4.31326135       7.03831325       1.48693078       0.09458026      -0.00798113       0.00038236       0.00332951
H        2.57543482       7.14967032       1.83523556       0.08905666       0.00430256      -0.00118441      -0.00602126
H       -3.47876192       2.66585462       1.28956152       0.08141991       0.00433385      -0.00163819       0.00133596
H       -3.14953101       0.98037241       1.65693363       0.07218189      -0.00577231      -0.00265461      -0.00017046
H       -3.21257059       0.80797614      -1.05974080       0.07302295       0.00180940       0.00453097      -0.00095798
H       -4.24693436       2.20405173      -0.87160718       0.08487171       0.00222467      -0.00556480       0.00230730
H       -5.70129725       0.25926771      -0.85101205       0.07020259      -0.00013673      -0.00274914      -0.00130598
H       -5.61966904       0.84126287       0.80637689       0.07905129      -0.00640493       0.00203538       0.00506859
H       -5.23572764      -1.00317176       2.42565129       0.08226747       0.00238820       0.00303471      -0.00141235
H       -6.42857730      -1.46890398       1.20706828       0.08092159      -0.00162037      -0.00381858       0.00022828
H       -3.88079607      -3.01961828       1.81509347       0.07845619       0.00286688       0.00871886      -0.00043938
H       -5.49054906      -3.45250270       2.43493089       0.09037781       0.00018462      -0.00149848       0.00573438
H       -6.16902979      -2.49900285      -0.96201626       0.07658367      -0.00170044       0.00155717      -0.00286904
H       -4.92781765      -3.60809339      -1.55730970       0.09158445       0.00164597      -0.00062894      -0.00465962
H       -4.05021423      -1.29072814      -1.54150713       0.08289722       0.00309190      -0.00083847       0.00263481
H       -3.19377451      -2.29166055      -0.37192634       0.08550382       0.00314383       0.00265531      -0.00171787
H       -2.27497430      -0.61981699       0.77295054       0.12346574      -0.00210935      -0.00137358       0.00144234
