41
Properties=species:S:1:pos:R:3:charge:R:1:forces:R:3 energy=-34289.474725177235 pbc="F F F"
C        4.44581079      -0.89318854      -0.84300337      -0.16784564      -0.00122453      -0.00077764       0.00334136
C        5.79525149      -1.03523349      -0.71295146      -0.20100166       0.00025653       0.00215726      -0.00382523
C        6.42863287      -0.53565441       0.44363300       0.02439355      -0.00302403      -0.00241652      -0.00254370
N        5.79128174       0.06214231       1.41716495      -0.43196070      -0.00368679      -0.00518733      -0.00145927
C        4.44720234       0.20624016       1.30492982       0.27990857      -0.00277749       0.00394464       0.00048546
C        3.70376851      -0.25410269       0.18354471       0.16065466      -0.00094222       0.00143630       0.00239806
C        2.30805784      -0.07901165       0.11504559      -0.18641579      -0.00086809      -0.00286794       0.00318560
C        1.62947291       0.53935198       1.14554047       0.11899489      -0.00010106       0.00477035      -0.00194450
N        0.27851326       0.73966336       1.18045506      -0.38611850      -0.00042780      -0.00068395      -0.00040301
C       -0.71976209       0.47467973       0.15905704       0.30810854      -0.00118281       0.00021443       0.00092435
C       -1.92894733       1.10991218       0.39100486      -0.46001801       0.00038283       0.00454169      -0.00324012
C       -3.07947061       1.10857077      -0.54412774      -0.00478444      -0.00097554      -0.00441462       0.00010841
C       -3.37196109      -0.20524603      -1.29539786      -0.04338474      -0.00158208      -0.00220953       0.00090770
N       -3.94044756      -1.28624913      -0.49658199      -0.30284837       0.00054299      -0.00111239       0.00081716
C       -5.16309839      -0.90632817       0.17481669      -0.13916655      -0.00147356       0.00014859      -0.00032856
C       -3.00841490      -1.93152355       0.41059564      -0.13582538      -0.00054879       0.00004608       0.00287474
O       -0.37935957      -0.27325594      -0.78375937      -0.44432637       0.00189716       0.00092436       0.00339533
C        2.38382491       1.00545046       2.27620566      -0.21138951      -0.00104320      -0.00085661       0.00034656
C        3.72840216       0.84651871       2.35203016      -0.19934808      -0.00077296       0.00269294       0.00083737
H        7.50200936      -0.63820121       0.56064555       0.07476667      -0.00252446      -0.00113669      -0.00143559
H        1.74095138      -0.42118901      -0.73377254       0.12929060      -0.00289473      -0.00371882       0.00444971
H       -0.05836377       1.32506833       1.92108752       0.24303046       0.00159396      -0.00157291       0.00013705
H       -1.98648033       1.86107979       1.17463816       0.10504822       0.00115186      -0.00352498      -0.00088027
H       -3.97884185       1.38602660       0.00542639       0.09136041      -0.00081258      -0.00231070      -0.00358707
H       -4.09065615       0.00292521      -2.08769440       0.06441081       0.00137090       0.00137326      -0.00068709
H       -2.44774194      -0.54488640      -1.74537566       0.08804169      -0.00161042       0.00024183       0.00359876
H       -5.00432541      -0.20812617       1.00925054       0.05623439       0.00113052       0.00441371       0.00012054
H       -5.65572201      -1.79204406       0.57891045       0.07284359       0.00238144      -0.00491770      -0.00244472
H       -5.84939669      -0.43194409      -0.52847151       0.06557710      -0.00261332       0.00608755      -0.00127887
H       -3.48183367      -2.82328912       0.82750022       0.06927660      -0.00096293      -0.00412811      -0.00505584
H       -2.68320077      -1.28189306       1.23164866       0.06542338       0.00455673      -0.00090269       0.00146793
H       -2.12146939      -2.24404422      -0.13430505       0.07355771      -0.00157426       0.00062309       0.00324894
H        4.28206865       1.20248627       3.21096418       0.10552757       0.00448460      -0.00117655      -0.00128461
H        6.38398510      -1.52210453      -1.47714962       0.11792333       0.00539699       0.00606292      -0.00171977
H        3.93532711      -1.26485148      -1.72186147       0.10963202       0.00455840      -0.00152567       0.00344656
H        1.84913371       1.49320632       3.08372457       0.11116482       0.00512276      -0.00039254       0.00093303
S       -3.04644529       2.53063522      -1.77366386      -0.29150748       0.00127109       0.00393721       0.00001013
C       -1.41031569       2.26539816      -2.47690216      -0.20223556       0.00145290      -0.00105897      -0.00404883
H       -1.35740300       1.32014305      -3.00927398       0.08133790      -0.00286997       0.00160502       0.00228048
H       -0.67543837       2.24708287      -1.67878342       0.08927954      -0.00370894       0.00416128      -0.00465826
H       -1.20430231       3.08404291      -3.16531982       0.10238987       0.00265077      -0.00249006       0.00150921
