74
Properties=species:S:1:pos:R:3:charge:R:1:forces:R:3 energy=-71144.91925563483 pbc="F F F"
Cl       5.69048425       3.46851779      -2.03872968      -0.09140266       0.00181063      -0.00268266       0.00312476
C        5.06835300       1.95205556      -1.47851604      -0.04315601       0.00192591       0.00063946       0.00153156
C        5.88677435       0.82169289      -1.50347096       0.15299484      -0.00010638      -0.00228143      -0.00400735
O        7.15603465       0.99201716      -1.96526711      -0.22068977      -0.00245711      -0.00147939      -0.00363531
C        7.94784884      -0.15872698      -2.18437271      -0.02175592       0.00166350       0.00064973       0.00028027
C        8.54645906      -0.70490028      -0.91193696       0.21532580       0.00005917      -0.00121499       0.00122778
N        9.11853067      -1.90159262      -1.03948859      -0.39284426      -0.00285891      -0.00674522      -0.00231279
C        9.66255503      -2.44865364       0.04666807       0.05943108       0.00011180       0.00494742      -0.00047941
C        9.67079994      -1.83518064       1.28767842      -0.15069616      -0.00282094      -0.00052629       0.00182133
C        9.08314191      -0.58339539       1.40679375      -0.11351798      -0.00010606       0.00394847       0.00180500
C        8.51130199      -0.00572711       0.28735378      -0.11695196       0.00257862       0.00008030       0.00033803
C        5.37975681      -0.38608217      -1.04496254      -0.14081387       0.00234646      -0.00383005       0.00284090
C        4.08403508      -0.46001104      -0.56110176      -0.14196014       0.00236230      -0.00367740       0.00071277
C        3.28233071       0.66294717      -0.53224815       0.13772431       0.00207950      -0.00009556      -0.00186304
N        1.95630409       0.56089984      -0.04080978      -0.37984341      -0.00130862      -0.00027330      -0.00776384
C        1.52929558       1.10339657       1.13618346       0.13543047      -0.00082269      -0.00518380      -0.00203548
C        2.34730976       1.59962899       2.15744085      -0.03506190       0.00049723       0.00064674      -0.00306832
C        3.76482888       1.42615003       2.20485105       0.24541874       0.00584485       0.00423974       0.00049927
N        4.90787931       1.30295395       2.27022306      -0.40764824       0.00240881      -0.00436745      -0.00069618
C        1.73809574       2.27677896       3.23717286       0.03338629       0.00084046       0.00085139       0.00153221
N        0.46151816       2.47213948       3.38495576      -0.43545449      -0.00036558       0.00280078       0.00476031
C       -0.35792124       1.92909629       2.43419688       0.18934466      -0.00446081      -0.00385739       0.00714445
C        0.11959983       1.17893219       1.35472205       0.02253236      -0.00313210      -0.00092053       0.00291169
C       -0.78715137       0.53594673       0.47894781      -0.15568766      -0.00122440      -0.00191612      -0.00030257
C       -2.13733049       0.78864321       0.52895670       0.07764283      -0.00116376      -0.00820683       0.00036226
N       -3.03821139       0.31110868      -0.37216708      -0.29420182      -0.00131919       0.00037431      -0.00237670
C       -2.71827955      -0.46685075      -1.54426805       0.26809981       0.00495361       0.00319969      -0.00271879
C       -3.77206743      -1.14348186      -2.13447320      -0.48843190       0.00320339       0.00429122       0.00097223
C       -5.19188239      -1.09839234      -1.71617407      -0.04719355      -0.00314905       0.00116584       0.00104543
C       -6.00416304      -2.25487599      -2.31547522      -0.04111468      -0.00501677      -0.00350007       0.00030212
N       -6.82471623      -2.92653710      -1.31337712      -0.26242486      -0.00679513      -0.00267139      -0.00399387
C       -7.31940752      -4.19142025      -1.81428907      -0.14142583      -0.00274497       0.00090181      -0.00081211
C       -7.92296689      -2.10211875      -0.85418428      -0.13984638      -0.00144745      -0.00123192      -0.00078035
O       -1.52636163      -0.45832689      -1.94831361      -0.51534480       0.00233491       0.00095849      -0.00368623
C       -2.62020611       1.60085080       1.61911784       0.13400561       0.00111424      -0.00169649      -0.00331486
O       -3.97014182       1.78226160       1.61858269      -0.22801588       0.00289702      -0.00224748       0.00210867
C       -4.58990425       2.36167130       2.75439888       0.01100848      -0.00101652      -0.00017556       0.00074323
C       -4.68739187       1.39075727       3.91968137      -0.21947770       0.00094866      -0.00092850       0.00094332
C       -1.75580579       2.12246362       2.54082415      -0.20430465      -0.00367950       0.00379697       0.00022003
C        3.77609017       1.86986208      -1.00631226      -0.12097515       0.00178081       0.00269847      -0.00329193
H        7.37422357      -0.93906152      -2.68363496       0.07182606      -0.00143454      -0.00060798       0.00342216
H        8.74799676       0.13869641      -2.85738321       0.08357785       0.00488431       0.00404038      -0.00149753
H       10.11261475      -3.42529744      -0.08574741       0.08980237      -0.00006416       0.00752316      -0.00184351
H       10.12327115      -2.32800329       2.13521155       0.12721476      -0.00405118       0.00495315       0.00367332
H        9.05560601      -0.06676865       2.35656284       0.12642911      -0.00267742      -0.00084387       0.00363851
H        8.02224426       0.95426757       0.33633867       0.13555847       0.00042466       0.00289231      -0.00447959
H        6.00748061      -1.26208590      -1.02168196       0.12518233      -0.00476618      -0.00458603      -0.00445082
H        3.70396242      -1.39830762      -0.19092411       0.12432642      -0.00439406      -0.00235920       0.00412720
H        1.22335132       0.32715151      -0.70096492       0.26367611       0.00172376       0.00260490      -0.00118032
H        2.38729646       2.68036643       4.00456079       0.08434889       0.00594084       0.00144348       0.00556085
H       -0.47944507      -0.19067194      -0.25831191       0.13359271      -0.00206141      -0.00083241       0.00082678
H       -4.00346409       0.52730680      -0.18859599       0.24157232      -0.00233053       0.00235045       0.00336958
H       -3.50785199      -1.72952417      -3.00451770       0.10867929      -0.00102217       0.00086597       0.00115264
H       -5.28480612      -1.17567427      -0.62858012       0.11982477       0.00133598      -0.00670160       0.00220323
H       -5.28422252      -2.97905525      -2.68874023       0.08239862       0.00268969       0.00314470      -0.00283141
H       -6.61852874      -1.93318063      -3.17195887       0.06267155      -0.00333820       0.00250352       0.00038178
H       -7.99414104      -4.08048424      -2.67938788       0.05806197       0.00077080       0.00805856       0.00509200
H       -6.47964135      -4.81380259      -2.12109146       0.07215721      -0.00614096      -0.00066782       0.00255596
H       -7.86098338      -4.71823989      -1.02831773       0.07876181       0.00303677       0.00612790       0.00140968
H       -8.48693735      -2.63085394      -0.08524498       0.08117373       0.00432514      -0.00728658      -0.00415659
H       -7.55530253      -1.17289237      -0.42455455       0.06852937       0.00585717      -0.00422472       0.00234074
H       -8.61329142      -1.83567530      -1.67107806       0.06038969      -0.00040907      -0.00166568       0.00056560
H       -4.08396328       3.28691748       3.03867194       0.06640321      -0.00098398       0.00252374      -0.00569631
H       -5.58689411       2.62790788       2.40891139       0.07487101      -0.00078183      -0.00190857      -0.00594933
H       -3.70245529       1.09346469       4.27235874       0.06477693       0.00396127      -0.00208987      -0.00624801
H       -5.23214293       1.85044300       4.74263352       0.07580538       0.00291414       0.00293671       0.00048342
H       -5.22006488       0.49516436       3.60725975       0.07745563       0.00314254      -0.00267597       0.00194917
H       -2.10040259       2.70157004       3.38180477       0.11898045      -0.00395626       0.00529170       0.00342990
H        3.15804143       2.75400981      -1.00600621       0.12377284       0.00433089       0.00051609       0.00396699
S       -6.09703813       0.53003096      -2.02676209      -0.21892758       0.00204736       0.00219857       0.00009286
C       -5.17157496       1.20431211      -3.41450424      -0.19430810       0.00025917       0.00230735       0.00170878
H       -4.13490968       1.34983729      -3.12467568       0.08731832       0.00292706      -0.00246499       0.00273575
H       -5.63000838       2.15968488      -3.66653550       0.11037783      -0.00227083       0.00158685      -0.00250048
H       -5.21465461       0.54394861      -4.27675553       0.08161523      -0.00565651      -0.00143458      -0.00394127
