24
Properties=species:S:1:pos:R:3:charge:R:1:forces:R:3 energy=-18082.760885769723 pbc="F F F"
C       -4.60010968      -0.19377055      -0.30069552      -0.27496761       0.00102427      -0.00655630      -0.00025007
C       -3.96444192      -0.30241739       0.85811108      -0.15011641       0.00086465       0.00634739      -0.00164586
C       -2.48827709      -0.15120962       1.07441262       0.45737669       0.00078381      -0.00876701       0.00010210
O       -2.05265788       0.10538241       2.17780409      -0.45037439      -0.00559264       0.00003689      -0.00273206
N       -1.70800335      -0.33598976      -0.04021021      -0.32865688       0.00048179       0.00357213      -0.00035852
C       -0.30930560      -0.21572621      -0.14964981       0.09485735      -0.00086672      -0.00240203      -0.00256511
C        0.25556588      -0.65944340      -1.37451231      -0.16135988      -0.00059067      -0.00311679      -0.00351280
C        1.59242910      -0.57690050      -1.60966264      -0.15797490      -0.00272773      -0.00312181      -0.00056161
C        2.44943021      -0.03915849      -0.61905520       0.25754821       0.00180264      -0.00206120      -0.00653113
N        3.78838242       0.04572345      -0.84861240      -0.40265685       0.00396644       0.00384893      -0.00056194
C        4.51097538       0.55209702       0.11131189       0.25891495      -0.00133619       0.00212555       0.00197793
N        4.07803132       1.00385875       1.31767062      -0.39343628       0.00564859       0.00671217       0.00436168
C        2.79370582       0.92241940       1.53772973       0.08426146       0.00370669      -0.00349737       0.00258765
H        2.42960996       1.27631961       2.49625398       0.09188168      -0.00299680       0.00454342       0.00135706
C        1.88206166       0.39805664       0.58948252       0.07726413       0.00104018      -0.00045533      -0.00516759
C        0.49069806       0.30900007       0.82368650      -0.15475336       0.00050085      -0.00151004      -0.00224365
H       -5.67355495      -0.29300895      -0.36937226       0.15298510      -0.00216900      -0.00239617       0.00621180
H       -4.08237764       0.02784807      -1.22376522       0.13750014      -0.00209203       0.00727062      -0.00053168
H       -4.50085884      -0.46624754       1.78102981       0.12867819       0.00718227       0.00459630       0.00136978
H       -2.16988407      -0.72857035      -0.83966398       0.25823596       0.00098490       0.00287714       0.00071209
H       -0.40055878      -1.07090033      -2.13079540       0.13041982      -0.00418821       0.00001477      -0.00127376
H        2.02390256      -0.91337256      -2.53972506       0.13095134       0.00119900      -0.00147927       0.00084256
H        5.57737738       0.62762406      -0.05822929       0.06982634      -0.00410366      -0.00246775       0.00554803
H        0.06503463       0.64515856       1.75313468       0.14359531      -0.00252228      -0.00411417       0.00286568
