63
Properties=species:S:1:pos:R:3:charge:R:1:forces:R:3 energy=-64033.310710317586 pbc="F F F"
F        9.53041926       3.74787808       0.15512496      -0.15480228      -0.00386098      -0.00004512      -0.00022711
C        8.45109888       2.93717347       0.12218409       0.11572915      -0.00405277       0.00247777       0.00498273
C        7.18734425       3.48182924      -0.01654519      -0.00338509      -0.00089182       0.00132721      -0.00217105
Cl       6.98849734       5.19677884      -0.14744058      -0.09653360       0.00301248      -0.00638735       0.00028721
C        6.08458540       2.64774575      -0.05034220      -0.14949441       0.00069577       0.00218923      -0.00059470
C        6.24339733       1.26616725       0.05476935       0.14643399       0.00542520       0.00189976      -0.00716052
N        5.07690751       0.50078752       0.01401300      -0.33674189       0.00198198       0.00320753      -0.00191897
C        4.89145251      -0.86715927       0.04942225       0.33066025      -0.00083293       0.00074926       0.00733133
N        5.91747724      -1.68696628       0.11611058      -0.40908957       0.00089628       0.00351829      -0.00327425
C        5.64185329      -3.00739954       0.11485792       0.20653971       0.00381231       0.00184949       0.00697880
N        4.47919562      -3.58609841       0.05805215      -0.46952561       0.00277463       0.00407283       0.00027219
C        3.39877009      -2.74274060      -0.00078300       0.21187569      -0.00382348      -0.00373310       0.00596575
C        3.54469937      -1.34816455       0.00677241       0.02037497      -0.00065564      -0.00371387      -0.00436430
C        2.40273310      -0.50530848      -0.03158633      -0.17231651       0.00230306      -0.00333315       0.00651513
C        1.13127234      -1.03450580      -0.11731463       0.09060296       0.00328577      -0.00191264      -0.00038757
N       -0.01884081      -0.30990991      -0.18684180      -0.28897303       0.00321024      -0.00266020      -0.00146293
C       -0.15738088       1.12297946      -0.21548087       0.27976897       0.00091046      -0.00322055      -0.00310208
C       -1.45590563       1.61026200      -0.18711194      -0.49227065       0.00078011      -0.00207704       0.00182240
C       -2.69078549       0.80015351      -0.15597112      -0.05746648      -0.00135919       0.00209320      -0.00135992
C       -3.89426646       1.65932481       0.20817870      -0.04964135      -0.00074168       0.00023724       0.00021283
N       -5.12607622       0.91180031       0.36465848      -0.21016783       0.00034977      -0.00391889      -0.00338979
C       -6.23206287       1.78109046       0.70698791      -0.05265994       0.00328097      -0.00335712      -0.00101199
C       -7.55605626       1.04807395       0.45312342      -0.15281360       0.00149456       0.00089385       0.00117981
C       -7.37331404      -0.46018712       0.66026785      -0.14889090       0.00208624       0.00181103       0.00234215
C       -6.35471257      -0.70031829       1.76776641      -0.13749953      -0.00206005      -0.00229726       0.00192514
C       -4.98689425      -0.16499077       1.33871944      -0.05696262      -0.00386528      -0.00196707      -0.00062427
O        0.88740705       1.81488035      -0.27535071      -0.53361970       0.00189779      -0.00098161       0.00358665
C        1.00138883      -2.47213339      -0.13013254       0.12475559      -0.00253778      -0.00117344      -0.00085020
O       -0.27982903      -2.91421464      -0.19882921      -0.22173467      -0.00243401      -0.00020421       0.00063716
C       -0.49165896      -4.30507647      -0.28534597      -0.07100201      -0.00055461       0.00001602      -0.00091903
C        2.09644906      -3.28562440      -0.07066089      -0.22431748      -0.00476309      -0.00271124      -0.00173428
C        7.52083015       0.72760904       0.19457262      -0.11665712       0.00312440      -0.00245975       0.00015051
C        8.61684445       1.57245970       0.22774012      -0.16560474      -0.00326874       0.00361126      -0.00190745
H        5.09694596       3.07612803      -0.15970875       0.12615085      -0.00192264      -0.00140052       0.00236717
H        4.23830641       1.04153126      -0.09775643       0.25284529       0.00173057       0.00171011       0.00015534
H        6.50672448      -3.65672944       0.16747995       0.03987849       0.00850402      -0.00020906      -0.00286584
H        2.43302899       0.57400062       0.00697099       0.13587242      -0.00144618      -0.00234317      -0.00286512
H       -0.85693695      -0.85616172      -0.27622074       0.23906183       0.00047868       0.00021800      -0.00259031
H       -1.55621945       2.68754234      -0.21189191       0.10522036       0.00485229      -0.00195604       0.00510589
H       -2.59419923      -0.01589796       0.56662495       0.10272072       0.00462987       0.00681557       0.00001299
H       -3.65288419       2.19852016       1.13859189       0.04988773       0.00012018       0.00410090      -0.00105148
H       -4.04791852       2.40715385      -0.57112722       0.07061576       0.00639326       0.00350320       0.00139994
H       -6.17636704       2.67829469       0.09457227       0.06945866      -0.00077889      -0.00484823      -0.00100051
H       -6.16364133       2.10860476       1.76136617       0.05965503      -0.00088897      -0.00034545      -0.00162712
H       -8.32154156       1.43993264       1.12607002       0.06759709      -0.00109698      -0.00446121       0.00277546
H       -7.88766975       1.23506020      -0.56853839       0.07263401      -0.00516670       0.00298450       0.00116598
H       -6.98964625      -0.90509909      -0.25768391       0.09082943       0.00354272       0.00758489       0.00167828
H       -8.32515990      -0.93676251       0.89568443       0.06335659       0.00317004       0.00323542       0.00230291
H       -6.26854458      -1.75923517       2.00723214       0.06244637       0.00030425      -0.00327827      -0.00227518
H       -6.68679908      -0.18997547       2.67689969       0.07263207      -0.00535237      -0.00091855      -0.00023991
H       -4.42256446       0.17420215       2.22128517       0.05025012       0.00212313       0.00225807      -0.00801730
H       -4.40831094      -0.96212129       0.87297051       0.07803028      -0.00254081       0.00172954      -0.00097608
H       -1.56591542      -4.43017481      -0.37274859       0.08119275       0.00006202       0.00201283       0.00199883
H       -0.13785939      -4.82204924       0.60915727       0.07106208      -0.00300051       0.00327379       0.00086678
H       -0.00452233      -4.73080187      -1.16459749       0.07082969      -0.00153261       0.00170865      -0.00219990
H        2.01254192      -4.36056114      -0.07533460       0.11509810      -0.00407428      -0.00209570      -0.00216469
H        7.61957224      -0.34138774       0.26931581       0.11299471       0.00027158      -0.00520383       0.00219109
H        9.61722785       1.18021429       0.33509348       0.13836166      -0.00675332       0.00480024      -0.00079724
S       -3.12967019      -0.17292154      -1.71603188      -0.22066808       0.00161402      -0.00171636       0.00179982
C       -2.31139269       0.81464632      -2.97243771      -0.20456487      -0.00237537      -0.00170319       0.00155199
H       -2.69801291       1.83020422      -2.98590385       0.07918236      -0.00385813       0.00257518      -0.00312774
H       -2.50476701       0.34382739      -3.93542269       0.10745291      -0.00259663      -0.00010701      -0.00024919
H       -1.24360312       0.84539932      -2.77902919       0.08534510      -0.00003272      -0.00172635      -0.00105343
