28
 
C            2.80896825893921       -0.91085365621436       -1.51434179333662
C            1.93191512934392       -0.75422692511027       -0.40086341072162
C            1.16917269637025        0.39288288452325       -0.19787389503703
O            1.00677670990449        1.35408091915476       -0.97285970815255
N            0.47750911419746        0.43132074780129        1.05899360059915
C           -0.72011092101932        1.23720805098324        1.12574624673347
C           -1.96123574887361        0.43733683657347        0.84873205057523
C           -2.93817379688806        0.23888959142744        1.81735027929968
C           -4.04006350494539       -0.55735693472123        1.55744520392062
C           -4.17770340411209       -1.17225672782611        0.32506737785124
C           -3.20645232719344       -0.98411324672921       -0.64677302157909
C           -2.10920121379099       -0.18663525841526       -0.38786918417329
H            2.93232954941251       -1.92233172136150       -1.89247257314584
H            2.62390586428527       -0.19205585176721       -2.30622183024321
H            1.95172541438916       -1.50806166821294        0.37798123162337
H            0.39308158674726       -0.47497445985644        1.50002822476382
H           -0.57375827092234        2.00144032703634        0.34996066786251
H           -0.78793643209342        1.72318112411702        2.10906696592797
H           -2.83404809614066        0.71450503037457        2.78424735008461
H           -4.79376474959620       -0.70203227414541        2.32102197229252
H           -5.03756636441524       -1.79707292171729        0.12265699904115
H           -3.30953051595373       -1.46330213760560       -1.61082981469784
H           -1.34518157108933       -0.03806706838928       -1.13649062187084
S            4.74264359060877       -0.54000276132731       -1.10015443809523
C            4.49326247763753        0.95580263199383       -0.12962948528731
H            4.62731219926204        1.83469373586686       -0.75784636688454
H            5.20605999140601        0.96660915720736        0.69238266538150
H            3.47006433453015        0.91539257634094        0.25181985769273