18
 
C           -2.56557493605012        1.42262556979565        0.64707907262095
N           -1.72407561682765        0.45712244499824       -0.00402601679525
C           -0.49492865006770        0.09597816458328        0.63315003723676
O           -0.01509808559883        0.88673870535787        1.46184074144364
C            0.00934438989692       -1.14991720092555        0.24175302842640
C            1.27885064674775       -1.62974188750698        0.64388229331661
H           -1.90365989978329        2.03307442245692        1.26396048532906
H           -3.06653783835909        2.05857464597523       -0.09163313457035
H           -3.33261914941194        0.96991077982827        1.29566095839052
H           -2.21325943006673       -0.32212093607755       -0.42185604617865
H           -0.54958416761254       -1.72361740905157       -0.49059350874041
H            1.39555304815835       -2.70512784886796        0.73463244008795
H            1.71225576152749       -1.08373502554457        1.47403800493840
S            2.76331277597267       -1.35889031963910       -0.76193461400621
C            2.25943572987874        0.27680927919840       -1.31259673640197
H            1.20917592486950        0.39363785347668       -1.03003380077806
H            2.37135981942328        0.34029106804168       -2.39322010515867
H            2.86604967729923        1.03838769390517       -0.82571474572466