23
 
C           -3.41270106210261       -1.24329652686589       -1.12654533843257
C           -2.59270887872274       -0.57243477886122       -0.32445061913519
C           -3.09546231182127        0.33845185370006        0.75695254382885
C           -1.12012608449044       -0.76435178855955       -0.52971894131267
O           -0.68468611276598       -1.62817775715743       -1.26404132417715
N           -0.33697534133606        0.10931761640177        0.16923978766055
C            1.05594201137645        0.20883318769167        0.20841615547366
C            1.90360002505493       -0.67779791352428       -0.44893862037443
C            3.27362460926718       -0.51468659784658       -0.35306169109662
C            3.81548220826007        0.52080231424911        0.38912551044547
C            2.97347576852552        1.40410111563356        1.04419820702692
C            1.60390469927583        1.25069283738580        0.95635083066241
H           -4.48418112923367       -1.17188799494097       -1.04867226293506
H           -3.01323690117743       -1.88811001705694       -1.89065358759405
H           -2.65306973225632        0.08679396193666        1.72082188043654
H           -2.87576098350885        1.38256321515907        0.52798752441552
H           -4.17494112094263        0.24020987744978        0.84424820917520
H           -0.81124005787065        0.81003044884803        0.71983930859978
H            1.48521006838007       -1.48308493640889       -1.02844392946394
H            3.92432776779540       -1.20738625724122       -0.86565522737660
H            4.88616417923366        0.64056029382823        0.45787821276139
H            3.38376726715825        2.21627111747986        1.62618404015910
H            0.94959111189835        1.94258672869404        1.47041711365623