31
 
N            2.38660451225866        0.60874040423807       -1.04445978978968
C            1.87130967690450       -0.24658305032981       -0.13268105815874
O            2.33936463226052       -0.38016443080598        0.97881824979691
C            0.67103748509525       -1.03270538927729       -0.63787243291116
C           -0.25408474912742       -1.41518281146160        0.51018056990050
S           -1.60142462150429       -2.49809386733136       -0.10690049273105
C           -0.77202477851938       -4.10993007521873        0.03513985048116
C           -0.86305634718065       -0.19164984373405        1.19877510666630
N           -1.49202500154504        0.71267903468485        0.26826490582132
C           -2.67901389684705        1.45201717555368        0.70059147024704
C           -2.13987721708166        2.70394157554652        0.00069677173376
C           -0.81181471243945        1.95005128267205       -0.11389403982335
C            3.53257837211435        1.44087198401850       -0.76988651927331
H            1.96682048601801        0.67729396200500       -1.95730127035171
H            1.04844097687572       -1.93736646396074       -1.12370588618672
H            0.10497058420042       -0.45921637647508       -1.37139035248920
H            0.29578008329211       -1.99426442111725        1.25573019710072
H           -0.50487137870337       -4.29146026430905        1.07242683280860
H            0.11175226417837       -4.13330421768148       -0.59615721815347
H           -1.48363307974988       -4.85630094506432       -0.30086495735917
H           -0.06439950655609        0.30579831438212        1.77295097133776
H           -1.62100564268780       -0.54431526078148        1.90468450596447
H           -3.60638432080882        1.02573583240458        0.31414868021551
H           -2.75918049083443        1.56750121162802        1.78810568602187
H           -2.60958502161731        2.89602524351528       -0.95987795827300
H           -2.12567134490854        3.61591784902720        0.59146064830413
H           -0.35868772019142        1.91387015294187       -1.10753797134125
H           -0.05412966086299        2.27805636422399        0.61060287253947
H            3.27539484105417        2.49742542321252       -0.86796857142802
H            3.84165517979784        1.23700465382559        0.25411741101492
H            4.35516039711578        1.20760695366825       -1.44865997392525