22
 
N            1.99106233750101        0.40863298776821       -0.30120433595171
C            1.36836545068098       -0.08168641514407        0.78969173911110
O            1.50918796238353        0.37817305847526        1.90407278794220
C            0.45766906356304       -1.26953041743575        0.50447357204982
C           -0.94709497184397       -0.79478847705821        0.13010623968190
S           -0.91498709637934       -0.00735049944581       -1.54018477228243
C           -2.00108534823719        1.41166600966729       -1.23799043992037
C           -1.95037327593017       -1.93647725051575        0.13296523657033
C            2.83285501810164        1.57802045124608       -0.25302098322800
H            1.73591537228843        0.05188054132866       -1.20989038286625
H            0.39072030949191       -1.86099434908977        1.41936613887149
H            0.86475208610368       -1.89075602886543       -0.29449394577367
H           -1.25899418473904       -0.00922913874752        0.82228679519751
H           -2.98275693448578        1.06159137416801       -0.93127503249599
H           -1.56035153733641        2.04652461016677       -0.47391890548028
H           -2.07746579828400        1.95311878531309       -2.17525502250645
H           -2.93285893123653       -1.58381385857769       -0.17428535103788
H           -1.63367328809383       -2.71464981551823       -0.55786715291351
H           -2.03253986036157       -2.36314517959605        1.13051859714840
H            3.81457302662045        1.35675505343585       -0.67592161759964
H            2.94291266612936        1.85903437400005        0.79386405211387
H            2.38416793405915        2.40702418442544       -0.80565639297249