25
 
C           -3.23279625815154       -0.14853691079364        1.35523567087975
C           -4.07864405182169       -0.94773769363425        0.59816480179784
C           -3.63329526507884       -1.42509914722967       -0.62405834866145
C           -2.37135233139321       -1.11113353345417       -1.08137195832835
C           -1.50665066750866       -0.30268463888882       -0.32407968040840
C           -1.96912313415853        0.17293381933064        0.91217005257988
N           -0.26697122626303       -0.02345559637669       -0.80994851675914
C            0.78915223302318        0.80611844397791       -0.27884280833882
O            0.64202512957196        1.35735640340348        0.82308412405707
C            1.85759842451551        0.91690832153089       -1.15729253091155
C            3.04624685003576        1.65354731249796       -0.82701701170036
H           -5.06999137554414       -1.19504849290423        0.95456882642578
H           -4.28012336666007       -2.05001183626910       -1.22882563991277
H           -2.03352284661993       -1.48959193019390       -2.03939985073707
H           -1.30600456239106        0.79374084762887        1.49218273089062
H           -0.05886054003037       -0.42173316014539       -1.71489195234359
H            1.84699350301862        0.36474615203522       -2.08948338686890
H            2.90534878412665        2.30037545308971        0.03450989344096
H            3.52361695602228        2.17566319498148       -1.65378077624188
H           -3.57049998119926        0.22971758432188        2.31215152544600
S            4.55786324700348        0.52672612347935       -0.26062250270286
C            3.68386281510522       -0.41035147661667        1.00833984946637
H            4.14040450365903       -1.39324615539541        1.09224079773981
H            2.64622867101528       -0.49409131155093        0.68568682657139
H            3.73849448972201        0.11488822717446        1.95947117636805