21
 
C           -2.90060898715689        1.51828845957278        0.40130974016489
N           -2.09955639867678        0.55915586829607       -0.32115739390478
C           -1.02322151054508       -0.01569181296011        0.34610117969724
O           -1.01532941003232       -0.12395588620373        1.56647294688814
C           -0.04148639288062       -0.66298090650902       -0.54084447343460
C            0.83554498169365       -1.58325329276766       -0.05934008473415
C            1.81081581743451       -2.27975253720650       -0.89345172705600
F            1.60679740637306       -2.18095420271906       -2.22055796681335
F            1.85552603973503       -3.62942567738680       -0.64615547444823
F            3.11911964524127       -1.90378374780819       -0.71125037500284
H           -2.44492379038723        2.51533651771211        0.40328062763362
H           -2.97664347424059        1.16786298895862        1.42998659075635
H           -3.89568319082088        1.57482754533377       -0.04508914917103
H           -1.87702759712175        0.84535245503603       -1.26459822173852
H           -0.17338388927728       -0.54510708791287       -1.60581187485556
H            0.93960579555587       -1.74389971575815        1.00074337126410
S            0.75136723766571        1.63964666445960       -0.37103397294719
C            1.74104429529849        1.26734205677468        1.08110255327130
H            1.07336940081800        0.87809991919897        1.84996484476953
H            2.49267611208351        0.52165261464411        0.82211770549419
H            2.22199790924175        2.18123977724501        1.42401696627740