16
 
C           -2.87269497469271       -0.32395670497807        0.59630987025463
N           -1.43724052988690       -0.20021505807939        0.51952945774261
C           -0.83492765407614        0.84532443592853       -0.08561372790980
O           -1.42939040171123        1.75003324530581       -0.62914525428777
C            0.66143877963866        0.80784417949871       -0.04945460324428
C            1.37995842763130       -0.28106761739275       -0.27760341185815
C            2.87855608159322       -0.28220223977245       -0.30285826188115
F            3.42089848647732        0.89774736011555        0.01262798108778
F            3.37723235083476       -1.18082417146851        0.56877398181643
F            3.36275912715933       -0.62472970522280       -1.50798016039816
H           -3.19789957041229       -1.27001323453665        0.16043001383391
H           -3.21226047954357       -0.27106465302635        1.63230466348472
H           -3.30277319369836        0.50228257954142        0.03264029888461
H           -0.88031509600721       -0.88703424023180        1.00152676448134
H            1.13498595074608        1.77017606372673        0.09003293384032
H            0.95167269594771       -1.25230023940781       -0.47925634647623