26
Properties=species:S:1:pos:R:3:charge:R:1:forces:R:3 energy=-24966.476345421837 pbc="F F F"
C       -4.79878395      -0.24240736      -0.44724092      -0.16269894       0.00056556      -0.00049050       0.00240645
C       -4.38647292      -0.94755669       0.67424954      -0.14112264      -0.00007785       0.00158216       0.00072941
C       -3.04448209      -1.00141516       1.00475725      -0.15712599      -0.00498360      -0.00146454      -0.00245842
C       -2.09316289      -0.35116156       0.21980725       0.14458027       0.00000147      -0.00570530       0.00519294
N       -0.75154462      -0.45899792       0.63132438      -0.36005715       0.00039262      -0.00002405       0.00038683
C        0.37409892       0.07449358       0.06415595       0.41459417      -0.00285990       0.00219412      -0.00522754
O        0.37605682       0.75420168      -0.93845797      -0.42619500       0.00331097       0.00254117      -0.00192050
C        1.66023038      -0.25895222       0.80913059      -0.13428438      -0.00108194       0.00072233      -0.00065215
C        2.85490690       0.36137948       0.11977448      -0.10196480       0.00076697       0.00260762      -0.00246123
S        4.33129275      -0.08345259       1.05505401      -0.20429440       0.00593084       0.00034467       0.00288816
C        5.55789799       0.76953522       0.04374491      -0.20193990       0.00140051      -0.00209287       0.00224250
C       -2.50078602       0.35704045      -0.90694038      -0.11734261       0.00313144      -0.00050288       0.00359916
H       -1.76939841       0.85836725      -1.51393149       0.13537946      -0.00036552       0.00148073      -0.00153085
C       -3.85027081       0.40213688      -1.22578841      -0.13422802       0.00236691      -0.00282604      -0.00112662
H       -5.84551054      -0.19683090      -0.70919784       0.13595735      -0.00269871      -0.00233955       0.00052982
H       -5.11214627      -1.45630893       1.29264902       0.13442767      -0.00083429      -0.00116582       0.00085126
H       -2.72208514      -1.55206683       1.87931751       0.12700102      -0.00240850       0.00304759      -0.00160600
H       -0.60990724      -1.00435909       1.46194598       0.26241893       0.00288269      -0.00110913       0.00323245
H        1.57912583       0.09743482       1.83820044       0.07457493       0.00267545       0.00488754       0.00147481
H        1.76813033      -1.34394873       0.87073430       0.07455410       0.00194242      -0.00137440      -0.00726940
H        2.92784942      -0.00349040      -0.90055312       0.10164131      -0.00050159      -0.00446475      -0.00336379
H        2.74237729       1.44081781       0.07928093       0.10156459      -0.00158983       0.00584364       0.00116606
H        5.56151630       0.38476688      -0.97332484       0.09278601      -0.00352599      -0.00021572      -0.00013591
H        5.37223379       1.84090250       0.02519838       0.09280500      -0.00320143      -0.00346059      -0.00020724
H        6.53176178       0.58932944       0.49048255       0.11601362       0.00141022      -0.00139544       0.00494888
H       -4.15789328       0.95383197      -2.10258673       0.13295552      -0.00264932       0.00338057      -0.00168984
