24
Properties=species:S:1:pos:R:3:charge:R:1:forces:R:3 energy=-24932.96815159007 pbc="F F F"
O        2.55302631      -2.02065801      -1.16238808      -0.45946100      -0.00275844       0.00511108      -0.00127048
C        2.77295779      -1.09334567      -0.40943797       0.46138334       0.00199672       0.00058681      -0.00072382
C        4.17466617      -0.82077691       0.05374602      -0.15220304       0.00063606      -0.00267021      -0.00039601
C        4.52636771      -0.12141844       1.12455437      -0.28028873       0.00048939       0.00133615      -0.00324437
N        1.82412006      -0.23209892       0.06781058      -0.32987845       0.00398467       0.00070210      -0.00123047
C        0.42967050      -0.24216296      -0.16162867       0.10052256       0.00609010       0.00058278      -0.00088110
C       -0.29939200       0.84415287       0.30057596      -0.15745069       0.00305089      -0.00189301      -0.00169333
C       -1.67320164       0.90818452       0.12844932      -0.13141860       0.00324777       0.00348246      -0.00330250
C       -2.34509478      -0.12616050      -0.51560465       0.00391929      -0.00018284       0.00289299      -0.00211591
S       -4.08940931      -0.16792590      -0.80298762      -0.13604406      -0.00403550      -0.00344999       0.00074649
C       -4.58404326       1.42221613      -0.13138680      -0.18867147      -0.00097028      -0.00193813      -0.00023991
C       -1.60471472      -1.21363465      -0.97091927      -0.11613595      -0.00114166       0.00084478      -0.00169352
C       -0.23411705      -1.28258272      -0.80252328      -0.11110238       0.00057495       0.00391861       0.00017270
H        4.91158469      -1.30813281      -0.56731973       0.12599085      -0.00100700      -0.00467011       0.00274077
H        5.56320376       0.00787845       1.39811598       0.15088625      -0.00169917       0.00282834      -0.00117052
H        3.79777682       0.32452716       1.78797867       0.13615863       0.00102161      -0.00877349       0.00233654
H        2.17207530       0.58518597       0.53316516       0.25511715      -0.00163315       0.00018955       0.00374661
H        0.21266056       1.65513764       0.80400109       0.12801857      -0.00495744      -0.00054266      -0.00188781
H       -2.19977444       1.76962439       0.50192624       0.11947269      -0.00063771       0.00180905       0.00152009
H       -4.10124612       2.24241917      -0.65656718       0.09227756       0.00275541      -0.00095174       0.00398180
H       -4.37487870       1.48566400       0.93332307       0.09216823      -0.00213903       0.00720329      -0.00008043
H       -5.65765353       1.50433792      -0.27721920       0.12540463      -0.00148857      -0.00719775      -0.00149172
H       -2.11191851      -2.02567091      -1.47258340       0.12834311      -0.00102888      -0.00474827       0.00054254
H        0.32450699      -2.12798736      -1.16378357       0.14299154      -0.00016752       0.00534781       0.00563440
