25
Properties=species:S:1:pos:R:3:charge:R:1:forces:R:3 energy=-24950.591693032187 pbc="F F F"
O        1.11250381      -1.09723570       0.61009974      -0.50781709      -0.00068343       0.00217924      -0.00511606
C        0.94626151      -0.53100380      -0.49390735       0.31449190       0.00587919       0.00478441      -0.00223328
C        1.89371660      -0.25887876      -1.46579148      -0.47584784       0.00488162      -0.00309525      -0.00211462
C        3.31849165      -0.56245007      -1.24148402      -0.11260050      -0.00075969      -0.00313501       0.00135054
N       -0.38735835      -0.06967656      -0.82388006      -0.38422841       0.00052809       0.00283241      -0.00219018
C       -1.56564090      -0.16147100      -0.12728285       0.21120311      -0.00253921      -0.00577149       0.00046316
C       -2.72189940       0.42566731      -0.67665172      -0.18847881       0.00023717      -0.00250584      -0.00080904
C       -3.94110995       0.35698795      -0.03020637      -0.17680067       0.00358470       0.00026480       0.00254317
C       -4.05977932      -0.29729676       1.18850427      -0.22156358      -0.00100757       0.00720065       0.00108345
C       -2.92198771      -0.87830714       1.73795522      -0.16167273      -0.00773075       0.00237005       0.00007201
C       -1.69005931      -0.82108721       1.10858492      -0.13753057      -0.00474889      -0.00226183       0.00475463
H        1.64270291       0.33617739      -2.33620539       0.10635822      -0.00516409      -0.00681112       0.00216366
H        3.82271097      -0.96376529      -2.12170537       0.07180572      -0.00144002       0.00520253       0.00313561
H        3.43725289      -1.27715790      -0.42363861       0.08584505      -0.00112274      -0.00556125      -0.00424722
H       -0.43055360       0.42386889      -1.69398724       0.23730545       0.00200795       0.00209565      -0.00214608
H       -2.64670127       0.94075535      -1.62784741       0.10710230      -0.00363518      -0.00004661       0.00043649
H       -4.80867821       0.82056193      -0.48437566       0.11183682       0.00749786      -0.00162994       0.00227848
H       -5.01193544      -0.35028479       1.69721314       0.11802753       0.00132808      -0.00499031      -0.00224778
H       -0.80650013      -1.26703030       1.52991529       0.12438269       0.00415199       0.00316046      -0.00424735
H       -2.99399284      -1.39370406       2.68781547       0.11053891       0.00722906       0.00361545      -0.00156775
S        4.38320185       0.89541121      -0.78834878      -0.30704212      -0.00618272       0.00003641       0.00424742
C        3.49023884       1.35774218       0.70522992      -0.19639480      -0.00203749       0.00092020       0.00091182
H        3.45353712       0.52311398       1.40066625       0.08526538       0.00018490       0.00338390      -0.00293309
H        2.47160859       1.63036721       0.44472434       0.09240653       0.00187535      -0.00108695       0.00280349
H        4.00078311       2.20111368       1.16915385       0.09340763      -0.00233480      -0.00115079       0.00360822
