25
Properties=species:S:1:pos:R:3:charge:R:1:forces:R:3 energy=-24950.591650302486 pbc="F F F"
O        0.12472881      -1.53851120       0.62959938      -0.50797838       0.00635411      -0.00029364      -0.00614875
C        0.64813151      -0.95074175      -0.34395480       0.31458196       0.00859924      -0.00260436      -0.00258252
C        1.86567642      -1.21395287      -0.94741245      -0.47540745       0.00437742      -0.00601806      -0.00282010
C        2.77177095      -2.24518159      -0.41082087      -0.11246303      -0.00268794      -0.00055024      -0.00247094
N       -0.07136440       0.16291574      -0.92877752      -0.38428661       0.00554014       0.00432223       0.00452569
C       -1.28578534       0.71308449      -0.60608295       0.21120907      -0.00157259       0.00377191       0.00385099
C       -2.13215767       0.20040946       0.39320950      -0.13760720      -0.00637266      -0.00134886      -0.00025573
C       -3.35183978       0.80713513       0.64097850      -0.16169913      -0.00142682       0.00706829       0.00167527
C       -3.77690896       1.92675461      -0.06614985      -0.22159970      -0.00147188       0.00093751       0.00142609
C       -2.94117358       2.44008005      -1.04862411      -0.17676979      -0.00391950       0.00217228       0.00241052
C       -1.72186438       1.84832154      -1.31587680      -0.18845400      -0.00103192       0.00083805      -0.00318485
H        2.25688767      -0.55960896      -1.71785718       0.10622039      -0.00640852      -0.00581257       0.00040033
H        2.23221688      -2.92991400       0.24795940       0.08574949      -0.00106928       0.00455428       0.00042948
H        3.26653401      -2.83530570      -1.18350749       0.07173360       0.00300402       0.00664890       0.00267406
H        0.43865198       0.62517269      -1.65597276       0.23731600       0.00386161      -0.00437509      -0.00155430
H       -1.79462639      -0.66159042       0.94108026       0.12446441      -0.00163687      -0.00256302      -0.00400863
H       -3.98866940       0.39104685       1.41192572       0.11055333       0.00595491       0.00205048       0.00101602
H       -4.73208105       2.38736893       0.14298054       0.11805413       0.00289354      -0.00368091       0.00272568
H       -3.24075753       3.31335923      -1.61530988       0.11176313      -0.00452731      -0.00305044       0.00038667
H       -1.08293114       2.26224735      -2.08783028       0.10710195       0.00383717      -0.00033285      -0.00255254
S        4.20155134      -1.60501959       0.59423440      -0.30714187      -0.00189214      -0.00246089       0.00028984
C        3.22339571      -0.76625048       1.85171270      -0.19635044      -0.00137088      -0.00331061      -0.00566761
H        2.64030668       0.02293327       1.38604243       0.09230615      -0.00166776      -0.00180741       0.00390058
H        2.53814971      -1.46350231       2.32648194       0.08527424      -0.00479603       0.00273334       0.00373944
H        3.89897140      -0.34883246       2.59762752       0.09342985      -0.00257059       0.00311150       0.00179556
