33
Properties=species:S:1:pos:R:3:charge:R:1:forces:R:3 energy=-28598.302347298526 pbc="F F F"
O        2.44766929       1.18581919      -0.05457483      -0.49590501       0.00201386       0.00696946       0.00325711
C        2.38275364       0.52287023       1.00630372       0.30480993      -0.00071665       0.00479116       0.00134875
C        3.39202058       0.28562300       1.92487553      -0.49019310      -0.00200105       0.00169169      -0.00049536
C        4.75908288       0.76879693       1.67698287      -0.11559517      -0.00090832      -0.00176640      -0.00067427
N        1.12576582      -0.10685760       1.32459553      -0.37798122       0.00427129       0.00089132       0.00007902
C       -0.11272644       0.04158148       0.74418070       0.15436311       0.00587073       0.00074829       0.00506835
C       -1.19217224      -0.69098986       1.26453028      -0.20411988       0.00270328      -0.00483253       0.00026187
C       -2.45541855      -0.59587073       0.71912414      -0.17719291      -0.00233799      -0.00097361       0.00071420
C       -2.71314233       0.24660477      -0.35898834       0.12856510      -0.00276276      -0.00261631      -0.00548479
N       -4.04428566       0.31890843      -0.87432585      -0.25705451      -0.00436263      -0.00142299      -0.00349088
C       -4.32439525       1.43077301      -1.75126595      -0.13178717      -0.00024945       0.00165402      -0.00003344
C       -4.50943784      -0.93862176      -1.42644613      -0.14495109      -0.00309739      -0.00271132      -0.00138466
C       -1.64798715       0.98219403      -0.87081338      -0.15010746       0.00184649      -0.00064688      -0.00187758
C       -0.36721343       0.88588331      -0.34401064      -0.14635202       0.00299025      -0.00274864       0.00082831
H        3.24756905      -0.39669055       2.75468482       0.10806782      -0.00288949       0.00124189      -0.00066475
H        4.76178802       1.56306065       0.92608094       0.08674988       0.00254020      -0.00215321      -0.00286850
H        5.25767725       1.14339788       2.57207357       0.07416665       0.00012280      -0.00081330       0.00058318
H        1.15807319      -0.65511695       2.16157942       0.24061902       0.00183564      -0.00148985      -0.00036388
H       -1.01826426      -1.34975085       2.10731191       0.10844908      -0.00487984      -0.00234710       0.00621288
H       -3.27395858      -1.16319250       1.14093943       0.10491078      -0.00415946      -0.00573643       0.00167378
H       -5.40074579       1.48796994      -1.91254850       0.06936568       0.00284994      -0.00007728      -0.00304430
H       -3.99657696       2.36170813      -1.29420285       0.06724663       0.00144631       0.00138212      -0.00210058
H       -3.84159630       1.34065102      -2.73367718       0.05108436       0.00572916       0.00270657       0.00631747
H       -4.38406848      -1.73917634      -0.70004485       0.06683466       0.00280477       0.00078800       0.00243488
H       -3.95937908      -1.22156964      -2.33399746       0.06029470       0.00088761       0.00224429       0.00022779
H       -5.57046430      -0.86718414      -1.67075939       0.06820706      -0.00229998       0.00263127       0.00459060
H       -1.80611329       1.64395359      -1.71008534       0.10441981      -0.00015356      -0.00056435      -0.00390712
H        0.45769754       1.44681155      -0.74647379       0.11956843      -0.00076789       0.00216530      -0.00383932
S        5.95940683      -0.51343604       1.05328757      -0.30175692      -0.00249812       0.00024395       0.00005547
C        5.05440751      -0.94615972      -0.44221212      -0.19816674       0.00012630       0.00125537      -0.00100327
H        5.62542866      -1.69373469      -0.99189814       0.09536756      -0.00078792       0.00168165       0.00402442
H        4.90445637      -0.06766450      -1.06469532       0.08620159      -0.00375998       0.00091858      -0.00167682
H        4.07953108      -1.34036858      -0.16866673       0.09187134       0.00059454      -0.00310463      -0.00476952
