26
Properties=species:S:1:pos:R:3:charge:R:1:forces:R:3 energy=-24966.503875587026 pbc="F F F"
C       -3.60519260      -1.54780175      -0.03925114      -0.13961774      -0.00259832       0.00477169      -0.00252519
C       -3.88026564      -1.18369617      -1.34790824      -0.16121651       0.00053998      -0.00020602      -0.00608411
C       -2.94473574      -0.43874497      -2.05208949      -0.14559744       0.00424695       0.00623033       0.00623835
H       -3.14098660      -0.14577525      -3.07358049       0.13507417       0.00056124      -0.00298048       0.00461791
C       -1.75583836      -0.06745737      -1.45052541      -0.15105858       0.00654524      -0.00165531       0.00484322
C       -1.48201980      -0.43904036      -0.13436486       0.13777409       0.00131701      -0.00372353       0.00546038
N       -0.25236065      -0.01191968       0.40803864      -0.32192203       0.00323469      -0.00459747      -0.00285817
C        0.35693693      -0.42145036       1.55863080       0.40987152      -0.00349549      -0.00302813      -0.00338196
O       -0.11388059      -1.23092738       2.32960683      -0.44759253      -0.00351209      -0.00052370      -0.00556769
C        1.72489934       0.20503183       1.80186485      -0.14141259      -0.00707054       0.00072523       0.00326737
C        2.78546897      -0.22554310       0.78309919      -0.11833734      -0.00018145      -0.00434938       0.00231538
S        2.81041587       0.70763140      -0.77064925      -0.17914771       0.00202332       0.00292086      -0.00900197
C        3.37671606       2.30077046      -0.14499967      -0.18264034       0.00107193       0.00437581       0.00138317
C       -2.41672814      -1.18382548       0.57777600      -0.11642720       0.00033054      -0.00726716       0.00095396
H       -4.32388239      -2.12975591       0.51971433       0.13382035       0.00247086       0.00518431       0.00028353
H       -4.80865774      -1.47691132      -1.81472913       0.13596798      -0.00518328       0.00142236      -0.00156237
H       -1.02815998       0.51039507      -2.00600602       0.12793361       0.00261394       0.00326281       0.00055650
H        0.30114396       0.57192464      -0.20403058       0.22609676       0.00228342      -0.00067521      -0.00484444
H        1.63516870       1.28994328       1.81246622       0.06633447       0.00061831       0.00278626       0.00065028
H        2.03835453      -0.12270614       2.78693668       0.09620015       0.00039021       0.00334194       0.00248813
H        2.65152193      -1.27195608       0.52235319       0.11082341      -0.00422836      -0.00687505      -0.00069194
H        3.77518179      -0.12757392       1.22240608       0.09420633       0.00331303      -0.00155553       0.00502812
H        3.59217035       2.93023236      -1.00376533       0.11921591      -0.00622253      -0.00128314      -0.00273181
H        4.28556357       2.18070700       0.43791579       0.09315168       0.00026840       0.00458841      -0.00010100
H        2.61979510       2.78665882       0.46510127       0.08130467      -0.00290144       0.00076513      -0.00306313
H       -2.20559371      -1.47492200       1.59089303       0.13719484       0.00356481      -0.00165502       0.00432728
