27
Properties=species:S:1:pos:R:3:charge:R:1:forces:R:3 energy=-30519.563854649823 pbc="F F F"
O        0.80995033       0.82168634       1.47742811      -0.48392808      -0.00302615      -0.00064545      -0.00322410
C        0.99008753      -0.26377282       0.88192445       0.29846683      -0.00599689      -0.00191202       0.00431658
C        2.11270696      -1.06274752       0.88618458      -0.45926872       0.00030648       0.00047353      -0.00133930
C        3.32749748      -0.62822254       1.59716164      -0.12136776       0.00325849       0.00099732      -0.00280494
N       -0.08592965      -0.78196792       0.04171724      -0.33023608      -0.00032543      -0.00431720       0.00322479
C       -1.31941973      -0.29968208      -0.17612100       0.20852029      -0.00511189      -0.00322189       0.00528119
C       -1.75539773       0.92281738       0.43108951      -0.15212807      -0.00092178       0.00000706       0.00112731
C       -3.00978974       1.41161286       0.21575369      -0.17236571       0.00240310       0.00230814      -0.00199740
C       -3.93820936       0.75147954      -0.60586402      -0.20037372      -0.00015372       0.00158759       0.00015065
C       -3.56304539      -0.41677397      -1.20515693      -0.16269901       0.00232767      -0.00467761       0.00533084
C       -2.28052638      -0.94823054      -1.00683667       0.13728766       0.00557400      -0.00560270      -0.00499773
N       -2.01252751      -2.18842127      -1.69448808       0.44677758      -0.00249774       0.00121712      -0.00186522
O       -2.90333221      -2.68838555      -2.37056735      -0.43108654      -0.00543464       0.00091927      -0.00308988
O       -0.91008720      -2.72266601      -1.59736268      -0.39884326       0.00762589       0.00073280       0.00138422
H        2.18360443      -1.94546779       0.26645075       0.12352655       0.00216917      -0.00140074      -0.00238983
H        3.09520144       0.12971421       2.34934321       0.08740599      -0.00141656       0.00057449       0.00006790
H        3.85460263      -1.44611000       2.08817030       0.08230712       0.00328970      -0.00084974       0.00061156
H        0.15805435      -1.64074634      -0.42514046       0.24142215      -0.00485147       0.00103734       0.00473325
H       -1.04240483       1.42263782       1.06228201       0.12604278       0.00070719       0.00413699      -0.00032930
H       -3.29606969       2.33812382       0.69581545       0.11791122      -0.00075188      -0.00022312      -0.00059097
H       -4.92769730       1.15154755      -0.76310267       0.12507863      -0.00155255       0.00468590      -0.00271710
H       -4.24307948      -0.95628409      -1.84130285       0.12536822       0.00248539       0.00267044      -0.00104741
S        4.64505645       0.11593044       0.52352387      -0.28313529       0.00669603       0.00469376      -0.00274108
C        3.67300993       1.48798438      -0.12269104      -0.20263684      -0.00351244       0.00061905       0.00101718
H        2.84011193       1.10148716      -0.70424355       0.08956429      -0.00352568      -0.00072984      -0.00167152
H        4.31994733       2.09838638      -0.75206450       0.10132767      -0.00205211      -0.00219528       0.00149704
H        3.27363859       2.09283049       0.68746243       0.08706222       0.00428737      -0.00088364       0.00206370
