25
Properties=species:S:1:pos:R:3:charge:R:1:forces:R:3 energy=-24950.427383783433 pbc="F F F"
O       -0.85946710       1.49754686      -2.22466487      -0.57793051      -0.00033176       0.00451636       0.00356206
C        0.05662147       1.21979604      -1.42636668       0.30825853      -0.00178744       0.00231453       0.00499785
C        1.35384239       1.72564890      -1.43477532      -0.48522529       0.00006989       0.00074761      -0.00317172
C        2.33720412       1.49751218      -0.37707032      -0.11174551       0.00007802       0.00560249      -0.00047163
N       -0.21932457       0.27947378      -0.36464328      -0.31484461      -0.00146128       0.00033150       0.00192648
C       -1.39891125      -0.36182527      -0.07398873       0.19205672      -0.00244125       0.00484291       0.00530113
C       -2.65142473       0.04692293      -0.56111601      -0.13576980       0.00266524      -0.00395242      -0.00739358
C       -3.79628279      -0.62741235      -0.16979721      -0.16992533       0.00030082       0.00065527      -0.00317683
C       -3.75283993      -1.71761725       0.69109265      -0.20935251      -0.00426770       0.00320264       0.00183954
C       -2.51607082      -2.13162546       1.16729189      -0.18018177      -0.00430121       0.00085449       0.00204507
C       -1.36437954      -1.46617464       0.79515436      -0.19405858      -0.00131784      -0.00596046      -0.00338799
H        1.59914184       2.36208577      -2.27080887       0.10640183       0.00209095       0.00385768      -0.00067283
H        1.89756102       1.52062945       0.62855096       0.07221266       0.00118619       0.00142321       0.00012810
H        3.13065854       2.24485191      -0.40414226       0.07096811       0.00363440      -0.00013189       0.00115237
H        0.59422699      -0.15008358       0.04280888       0.24132580       0.00006029      -0.00396881      -0.00402007
H       -2.67266312       0.87600599      -1.24734331       0.12758617       0.00218650      -0.00543043      -0.00283751
H       -4.75288748      -0.29432862      -0.55343072       0.11283144       0.00122183      -0.00182720      -0.00129935
H       -4.65801651      -2.23244624       0.97995828       0.11938006      -0.00054415      -0.00302287       0.00099591
H       -0.40384064      -1.79840884       1.17057937       0.11705863      -0.00109876      -0.00023189      -0.00178767
H       -2.44671300      -2.98240702       1.83356628       0.11473624       0.00450459       0.00123341       0.00801466
S        3.26837223      -0.13489180      -0.41159719      -0.25474799       0.00002030      -0.00035676      -0.00154795
C        4.16728514       0.11737761       1.12796751      -0.18896015       0.00262432      -0.00136821       0.00182274
H        4.80017760       1.00175120       1.07016986       0.07457016      -0.00134537      -0.00380657      -0.00299411
H        4.79678219      -0.74961079       1.32075580       0.09468030      -0.00243500       0.00085413       0.00009424
H        3.47775794       0.23964754       1.96238054       0.07067538       0.00068915      -0.00037874       0.00088147
