20
Properties=species:S:1:pos:R:3:charge:R:1:forces:R:3 energy=-13025.50928076204 pbc="F F F"
C        4.10590664       1.04884330      -0.21117647      -0.27693528       0.00007694      -0.00042372      -0.00354913
C        3.12267215       0.16227042      -0.18201658      -0.15190890      -0.00059476       0.00087125       0.00192804
C        1.69623263       0.61287128      -0.15152085       0.44833311      -0.00119470       0.00283534      -0.00179279
O        1.39216245       1.78846086      -0.15417813      -0.43430543       0.00066576       0.00420280       0.00204259
N        0.78812565      -0.41223859      -0.12153523      -0.36166561       0.00306885      -0.00474086       0.00104628
C       -0.62019413      -0.33625565      -0.08853926       0.12606142       0.00238408      -0.00030508       0.00273424
C       -1.32296573       0.86435498      -0.07862849      -0.12448670       0.00078430       0.00039881      -0.00348499
C       -2.70986309       0.83790193      -0.04498978      -0.13593733      -0.00235780      -0.00095220       0.00357162
C       -3.40797959      -0.35926591      -0.02215507      -0.15799712      -0.00140675      -0.00213786      -0.00095957
C       -2.70265340      -1.55374022      -0.03306542      -0.13872351       0.00236598       0.00149046       0.00489421
C       -1.31961715      -1.54174670      -0.06456056      -0.16813506       0.00231922      -0.00056548      -0.00570849
H       -0.77250125      -2.47620231      -0.07132446       0.13082206       0.00159638       0.00050611      -0.00142127
H        3.88293841       2.10632295      -0.21145989       0.15899934       0.00095087      -0.00035160      -0.00143937
H        5.14319119       0.74510635      -0.23595960       0.14653900       0.00044050       0.00237754       0.00369341
H        3.32952606      -0.90152209      -0.17945929       0.12169501      -0.00074855      -0.00024170      -0.00165884
H        1.15550743      -1.34565762      -0.12320012       0.26809102      -0.00125054      -0.00910586       0.00001351
H       -0.78375020       1.79330816      -0.09791608       0.14084080       0.00156471       0.00017301       0.00247899
H       -3.24794977       1.77499488      -0.03594613       0.13519916      -0.00309983       0.00092117      -0.00275596
H       -4.48774593      -0.36385460       0.00406114       0.13747931      -0.00596921       0.00344423      -0.00121226
H       -3.22994387      -2.49709609      -0.01637160       0.13603476       0.00040467       0.00160371       0.00157978
