28
Properties=species:S:1:pos:R:3:charge:R:1:forces:R:3 energy=-34128.37619057233 pbc="F F F"
O       -1.15525626      -1.45837157      -0.81884751      -0.48891002      -0.00740144       0.00088727       0.00114598
C       -1.42464975      -1.05443874       0.33346337       0.29996356       0.00165200      -0.00331256       0.00469013
C       -2.56479418      -1.27462476       1.08073878      -0.48017511      -0.00074092       0.00319674      -0.00005131
C       -3.71030218      -2.00075292       0.50555265      -0.11360639       0.00482356      -0.00232291       0.00298162
N       -0.43482871      -0.21934005       0.99429933      -0.38239333       0.00022519      -0.00218735       0.00165669
C        0.81108193       0.15375012       0.59426769       0.17115530       0.00103317      -0.00236008      -0.00095401
C        1.38707825      -0.24214664      -0.62771476      -0.12667175       0.00124640       0.00185363      -0.00200468
C        2.66378081       0.17251684      -0.95611187      -0.14128007       0.00212634       0.00136635       0.00140775
C        3.41240203       0.98580914      -0.10688096      -0.01154886       0.00312645       0.00164023      -0.00263600
C        4.77026358       1.46305599      -0.48784070       0.34715915       0.00026324       0.00061999      -0.00104355
F        5.34549839       0.70351941      -1.44311525      -0.16386259      -0.00331098      -0.00160542      -0.00095535
F        5.62978482       1.49008320       0.55956935      -0.17150414      -0.00410275       0.00032575       0.00089012
F        4.77043430       2.73335547      -0.97806938      -0.18039499       0.00119423       0.00277519       0.00772238
C        2.84529352       1.38414893       1.10078094      -0.15795343      -0.00188550       0.00336418      -0.00605639
C        1.57643503       0.97954701       1.44552521      -0.18136908      -0.00074494       0.00019999       0.00046636
H       -2.71598351      -0.78458941       2.03546618       0.11072040       0.00368985      -0.00095243      -0.00042608
H       -3.40579513      -2.57853266      -0.37035606       0.08914303      -0.00048977      -0.00210197       0.00131233
H       -4.19425584      -2.67813796       1.20990972       0.07903451       0.00145832      -0.00178102       0.00019064
H       -0.73570686       0.11064789       1.89100297       0.24288498      -0.00003141      -0.00082576       0.00009524
H        0.80004900      -0.86744972      -1.27592075       0.12381840      -0.00050845      -0.00149355       0.00161595
H        3.08531616      -0.14962128      -1.89727239       0.11809127      -0.00517626      -0.00177609       0.00119521
H        3.40478077       2.01563620       1.77662996       0.11662730       0.00249855      -0.00311611      -0.00507567
H        1.15165735       1.29942244       2.38859272       0.11011653      -0.00423701      -0.00066122       0.00240027
S       -5.11934271      -0.93128955      -0.06275459      -0.28820696      -0.00221554       0.00425869      -0.00160533
C       -4.18914327       0.03467271      -1.26482331      -0.19834535       0.00461163       0.00185809      -0.00386324
H       -3.40310360       0.58433531      -0.75415669       0.09082236      -0.00030028      -0.00051721      -0.00447865
H       -3.72750574      -0.61628769      -2.00316518       0.08740857      -0.00120287       0.00297031       0.00117577
H       -4.87366385       0.72327313      -1.75915967       0.09927681       0.00439888      -0.00030208       0.00020415
