25
Properties=species:S:1:pos:R:3:charge:R:1:forces:R:3 energy=-24950.5214250411 pbc="F F F"
O        0.50454167       1.45509522       2.14281497      -0.58030444       0.00036151      -0.00028483      -0.00160347
C        0.90639037       1.33605298       0.96824394       0.31823844       0.00321835      -0.00041445      -0.00073072
C        2.18321552       1.63156528       0.48629515      -0.50464237      -0.00004843      -0.00342008       0.00003194
C        2.58948454       1.47392041      -0.91713231      -0.10406923      -0.00244989       0.00132229       0.00061792
N       -0.00034754       0.82108656      -0.02430462      -0.31919745       0.00257160       0.00041950       0.00418747
C       -1.18489544       0.14228199       0.16367232       0.19800554       0.00182542       0.00409759       0.00176556
C       -1.72931523      -0.56671435      -0.91944485      -0.16910885      -0.00022372       0.00085155       0.00381582
C       -2.93375220      -1.23663662      -0.80645076      -0.18710969       0.00170710      -0.00167490       0.00257057
C       -3.63771854      -1.22745163       0.39094981      -0.21003674      -0.00478277       0.00461931       0.00152674
C       -3.10082743      -0.53229521       1.46753400      -0.17194256       0.00638454      -0.00317375       0.00132596
C       -1.89577501       0.14446795       1.37383558      -0.14006604       0.00028048       0.00186874       0.00099050
H        2.91849562       1.90026120       1.22991341       0.10641303      -0.00234049      -0.00398227      -0.00080177
H        3.56514307       1.91856156      -1.10844899       0.07698563      -0.00229735      -0.00023800      -0.00195937
H        1.88240230       1.95420214      -1.60445766       0.07414872       0.00066210       0.00717523      -0.00238256
H        0.44114751       0.62970706      -0.91044631       0.21700208      -0.00100352       0.00041521       0.00397190
H       -1.18021457      -0.59104308      -1.85352796       0.12085915      -0.00298933      -0.00277121       0.00006075
H       -3.32433798      -1.77346113      -1.66200334       0.11456614      -0.00016632      -0.00266632      -0.00046843
H       -3.63403108      -0.51990287       2.41012893       0.11363682      -0.00194639       0.00206808      -0.00415794
H       -1.46112851       0.67537163       2.20398276       0.12966239      -0.00016681       0.00463094      -0.00168527
H       -4.57890609      -1.75028442       0.48360241       0.11871076      -0.00166089      -0.00522102      -0.00717993
S        2.76558144      -0.27302748      -1.64487419      -0.27976996      -0.00099653      -0.00325139       0.00283502
C        2.72877130      -1.25742176      -0.13848450      -0.18461572       0.00602154       0.00204263      -0.00502719
H        1.80218234      -1.07416279       0.39354940       0.08830027      -0.00222221      -0.00125347       0.00211595
H        2.79800962      -2.30784181      -0.41375676       0.09518614      -0.00212115      -0.00346122      -0.00479448
H        3.56270728      -0.98991375       0.50256902       0.07914807       0.00238343       0.00230174       0.00497547
