30
Properties=species:S:1:pos:R:3:charge:R:1:forces:R:3 energy=-19317.36631757367 pbc="F F F"
O        3.77997718       0.40405976       1.95667527      -0.45784405       0.00412029       0.00090216      -0.00223616
C        4.02174727       0.21400084       0.78273700       0.46682763       0.00028921      -0.00239078       0.00011419
C        5.44404554       0.11538130       0.31396114      -0.15133268       0.00114198       0.00330340      -0.00035456
C        5.85673549      -0.42770231      -0.82327633      -0.27959988       0.00009045      -0.00364473       0.00127250
N        3.07726132       0.08564682      -0.20019824      -0.32494587       0.00016289      -0.00148666      -0.00040168
C        1.67294958       0.07379610      -0.07575097       0.10712179       0.00027711       0.00652891       0.00061170
C        0.93040003       0.08769830      -1.25293958      -0.16739441       0.00058733       0.00432186      -0.00156143
C       -0.45005038       0.06056637      -1.21464953      -0.13754140      -0.00124409       0.00833649       0.00177984
C       -1.12686039       0.03004435       0.00190989       0.01026536      -0.00297859       0.00017933       0.00147995
C       -2.61012556       0.00992689       0.04594496       0.03562790      -0.00405327      -0.00322184       0.00482876
C       -3.33498132      -0.79684719      -0.82903269      -0.13831346      -0.00192468      -0.00346086       0.00253765
C       -4.71973035      -0.82588283      -0.78590570      -0.14105169      -0.00121439      -0.00837956       0.00292709
C       -5.40633584      -0.03841286       0.12611341      -0.14284942       0.00222550       0.00148563      -0.00356384
C       -4.69576397       0.77522307       0.99627917      -0.14163455      -0.00176708       0.00398573       0.00006003
C       -3.31071010       0.79524950       0.95994899      -0.13798815      -0.00209842       0.00212060       0.00258438
C       -0.37287485       0.01487043       1.17025030      -0.13119636      -0.00061395       0.00332959      -0.00083450
C        1.01229659       0.03091438       1.14762478      -0.11719852      -0.00103611       0.00256131      -0.00088963
H        6.14314967       0.50520255       1.03850749       0.12625308       0.00058924      -0.00011235       0.00297617
H        5.17010610      -0.87510298      -1.52872606       0.13554972       0.00118379      -0.00617700      -0.00056244
H        6.90444819      -0.47545472      -1.08150828       0.15089008       0.00361539       0.00455915       0.00681375
H        3.42265101       0.12166003      -1.14059670       0.25586221      -0.00316506      -0.00184383      -0.00503087
H        1.44308633       0.12054678      -2.20566001       0.13086928      -0.00142378       0.00072714      -0.00485237
H       -1.00971116       0.08991774      -2.13854194       0.12310448       0.00152547      -0.00014982      -0.00074019
H       -2.81085142      -1.42119673      -1.53878513       0.12510701      -0.00195183      -0.00106647      -0.00077260
H       -5.26093266      -1.46459891      -1.46803841       0.13648595      -0.00373160      -0.00408700      -0.00525963
H       -6.48631245      -0.05827123       0.15860384       0.13814348       0.00339572       0.00134826      -0.00099532
H       -5.21888617       1.39515344       1.70920470       0.13633932       0.00257150       0.00393989       0.00316289
H       -2.77016968       1.44053692       1.63781569       0.12530589       0.00645626      -0.00342010       0.00028455
H       -0.87694261      -0.03239292       2.12488641       0.12345721      -0.00124412      -0.00397121      -0.00221711
H        1.57711118       0.01334385       2.06161459       0.14168008       0.00021437      -0.00421767      -0.00116129
