35
Properties=species:S:1:pos:R:3:charge:R:1:forces:R:3 energy=-31242.45573751579 pbc="F F F"
O        2.81837702       0.90007275      -2.34354169      -0.55580157      -0.00258257      -0.00065827      -0.00283958
C        3.17950032      -0.05815077      -1.63189104       0.29738227      -0.00388481       0.00027032       0.00248775
C        4.48282155      -0.53251035      -1.46797268      -0.51860034      -0.00197816      -0.00151097      -0.00142571
C        4.84219378      -1.68313885      -0.63228177      -0.10929732       0.00106586       0.00014795       0.00149017
N        2.18115732      -0.75251263      -0.86184774      -0.31168902      -0.00353184       0.00075177       0.00191404
C        0.86480285      -0.40800341      -0.67222087       0.15601005      -0.00231175      -0.00033232       0.00453551
C        0.17329776      -0.95369653       0.42407706      -0.18497582       0.00138115      -0.00135755       0.00241937
C       -1.16412679      -0.68362451       0.63090075      -0.17125878       0.00273404      -0.00109452       0.00160320
C       -1.87099002       0.15213721      -0.23165488       0.00933277       0.00318006      -0.00094258       0.00284614
C       -3.30245830       0.45198853       0.00007118       0.08325381       0.00039228      -0.00269431       0.00199641
C       -3.80092805       1.74853977      -0.13639412      -0.14189368       0.00085229      -0.00124448      -0.00110355
C       -5.13681963       2.03071848       0.09732816      -0.15839802       0.00064624       0.00279695       0.00093767
C       -6.01560877       1.02015734       0.45931634      -0.16841222       0.00054816      -0.00000723       0.00065851
C       -5.53678826      -0.27498931       0.59053859      -0.15809548      -0.00301726      -0.00365679       0.00003214
C       -4.19758733      -0.55277073       0.36972343      -0.14078289      -0.00092213      -0.00130290      -0.00044705
C       -1.18153108       0.69892391      -1.31280377      -0.15406995      -0.00000224       0.00023409       0.00003143
C        0.15592011       0.43472992      -1.54408390      -0.14287889       0.00210408       0.00162072       0.00083859
H        5.25117726       0.04868572      -1.95534571       0.11138592       0.00140028      -0.00117996      -0.00338708
H        4.21171786      -2.55675295      -0.83785212       0.07890252      -0.00111606       0.00206663      -0.00046562
H        5.87509974      -1.99681501      -0.78424990       0.08493830       0.00237003       0.00333019       0.00093017
H        2.56068902      -1.36975414      -0.16038767       0.22207148       0.00386100      -0.00076971      -0.00173723
H        0.71356144      -1.58469171       1.11914650       0.12019801      -0.00104285      -0.00317730      -0.00089004
H       -1.66436967      -1.10717253       1.49283639       0.10734721       0.00385533       0.00203373       0.00048753
H       -3.12864180       2.54781289      -0.41436310       0.11159013       0.00470032       0.00018740       0.00358757
H       -5.49227803       3.04609200      -0.00673059       0.11939176      -0.00126722       0.00560207      -0.00423348
H       -7.05947983       1.23931036       0.63724870       0.12398084       0.00055495       0.00011901      -0.00133144
H       -6.20751714      -1.07476622       0.87133476       0.11951486      -0.00376797      -0.00365468      -0.00236815
H       -3.84053594      -1.56779538       0.47376821       0.11110344       0.00007123      -0.00007889      -0.00115591
H       -1.71570023       1.33532015      -2.00639511       0.10909013      -0.00140342       0.00394206       0.00162946
H        0.69279882       0.86205436      -2.37287462       0.12857421       0.00914533       0.00020964       0.00140558
S        4.71304791      -1.52946971       1.25914835      -0.25716975      -0.00752102       0.00202040       0.00238806
C        4.65708233       0.26259649       1.42951297      -0.18647040       0.00006773      -0.00619380      -0.00317411
H        3.80511264       0.65229674       0.88156337       0.08195315      -0.00592916       0.00058424      -0.00779197
H        5.56538897       0.70749361       1.03413120       0.08214341       0.00252571       0.00014293      -0.00136747
H        4.56122879       0.50175456       2.48755609       0.10162997      -0.00117799       0.00379677       0.00150001
