35
Properties=species:S:1:pos:R:3:charge:R:1:forces:R:3 energy=-31242.45706413232 pbc="F F F"
O        2.58842142      -2.06587698      -1.75209265      -0.55626124       0.00192505       0.00235022      -0.00176403
C        3.05267715      -0.92834724      -1.53708081       0.29788607       0.00068595       0.00117919      -0.00282311
C        4.38799264      -0.53716138      -1.65285869      -0.51836097       0.00173196       0.00030286       0.00212084
C        4.87469055       0.82471483      -1.40504476      -0.10864665      -0.00144499       0.00143266      -0.00083977
N        2.15483813       0.10608142      -1.09392076      -0.31091601       0.00008264      -0.00346218       0.00062057
C        0.84713371      -0.01516073      -0.69095707       0.15601298      -0.00186202       0.00308012      -0.00523087
C        0.26367122       1.03617378       0.03904537      -0.18436684       0.00086059       0.00090011      -0.00006650
C       -1.05998462       0.98780918       0.42709291      -0.17191333      -0.00003953       0.00057430       0.00002107
C       -1.86583279      -0.10046490       0.09820147       0.00742818       0.00156187      -0.00270685       0.00403611
C       -3.28985793      -0.14957056       0.50145821       0.08245257      -0.00150382       0.00419656      -0.00076325
C       -4.28029462      -0.55205945      -0.39590678      -0.14146927       0.00210028      -0.00154908       0.00066479
C       -5.61354419      -0.59046411      -0.02159432      -0.15848044       0.00230453       0.00322975       0.00316111
C       -5.99053066      -0.24100607       1.26721995      -0.16813287       0.00264779      -0.00207685       0.00259827
C       -5.01637486       0.15379023       2.17263226      -0.15796013      -0.00150013      -0.00225011       0.00129560
C       -3.68518962       0.20571120       1.79153671      -0.14066547      -0.00373329       0.00209177      -0.00217944
C       -1.28442011      -1.14340088      -0.62027529      -0.15330355      -0.00236264      -0.00085298      -0.00483076
C        0.04395519      -1.12443405      -1.00368734      -0.14358577       0.00018974       0.00024015       0.00020517
H        5.08448924      -1.33045537      -1.87890031       0.11141922       0.00136579      -0.00151846      -0.00108603
H        4.28646599       1.57896392      -1.94224068       0.07862625       0.00026135       0.00104910      -0.00137015
H        5.91153126       0.95311325      -1.71619755       0.08486158      -0.00264174       0.00279891       0.00250895
H        2.61943298       0.94169622      -0.77328250       0.22136883      -0.00100747      -0.00305398       0.00088054
H        0.87792008       1.88665722       0.30821003       0.11990356      -0.00109464       0.00268464      -0.00374064
H       -1.48344407       1.81834427       0.97783274       0.10736293       0.00062927       0.00039517       0.00342579
H       -4.00060056      -0.82594361      -1.40351069       0.11160760       0.00139095      -0.00053030      -0.00015663
H       -6.36029370      -0.89942284      -0.73984968       0.11948995       0.00684975       0.00113538       0.00372553
H       -7.03020379      -0.27743725       1.56271432       0.12388586       0.00341650       0.00141411      -0.00197493
H       -5.29339688       0.42559008       3.18161596       0.11948184       0.00211121       0.00316670      -0.00138677
H       -2.93615074       0.51410236       2.50771723       0.11108290      -0.00521506      -0.00151882      -0.00273833
H       -1.88730023      -2.00780327      -0.86648381       0.10930163      -0.00253791      -0.00566930      -0.00062243
H        0.50270215      -1.93657458      -1.54041010       0.12921488       0.00011602      -0.00172094       0.00233842
S        4.87066499       1.49957746       0.37188427      -0.25718424      -0.00368643      -0.00436837       0.00224202
C        4.70162675      -0.03695007       1.29606623      -0.18622078       0.00551059       0.00221308      -0.00473407
H        4.65766174       0.20585968       2.35640212       0.10162926      -0.00444742      -0.00131122       0.00543390
H        3.79123392      -0.54393708       0.99181527       0.08221138      -0.00285827      -0.00247722       0.00156418
H        5.54993029      -0.68730231       1.10390064       0.08224019       0.00019315       0.00063221      -0.00053547
