26
Properties=species:S:1:pos:R:3:charge:R:1:forces:R:3 energy=-19230.6766700494 pbc="F F F"
O        3.56479076      -0.81821010       0.03158463      -0.42693871       0.00138135       0.00290605       0.00094259
C        3.03962994       0.26238715       0.20921736       0.43441600       0.00141431       0.00310290      -0.00109889
C        3.83099071       1.49748212       0.48945510      -0.15303342       0.00424522       0.00049692       0.00656083
C        5.15347506       1.45151047       0.55051204      -0.27190658       0.00252330      -0.00148947      -0.00013105
N        1.68702960       0.46837512       0.17352078      -0.35718384      -0.00158093      -0.00125908       0.00347436
C        0.65868688      -0.46991853      -0.05840517       0.13439275       0.00077943      -0.00128605      -0.00934276
C        0.88980203      -1.81991613      -0.30401393      -0.12702510      -0.00567640      -0.00315327      -0.00470641
C       -0.19471085      -2.65771561      -0.52388504      -0.14051224       0.00094750       0.00219074       0.00623702
C       -1.49223747      -2.17970780      -0.50031664      -0.14126739      -0.00191911       0.00189208      -0.00197683
C       -1.71925430      -0.82927648      -0.25364875       0.01448564       0.00026713       0.00232524       0.00291622
C       -3.12671752      -0.33890822      -0.23188645       0.45390207      -0.00019764      -0.00163035       0.00413356
O       -3.21622460       0.98137752       0.01291483      -0.25669995      -0.00308715      -0.00149777      -0.00732037
C       -4.54868042       1.50482859       0.04661144      -0.08666447      -0.00290850      -0.00340664       0.00115238
O       -4.08620817      -1.04358595      -0.41234244      -0.44378337       0.00005067       0.00206032      -0.00218775
C       -0.64392755       0.01777468      -0.03495882      -0.16702619      -0.00525671       0.00214502       0.00124023
H        3.29606834       2.42746015       0.64295424       0.12425026       0.00076286       0.00080241      -0.00380414
H        5.74215681       2.33543080       0.75320952       0.14854850       0.00100511      -0.00257405      -0.00129070
H        5.67444438       0.51679417       0.39723970       0.16099206      -0.00323361      -0.00397424      -0.00156770
H        1.36476086       1.40584819       0.33143676       0.27007049       0.00894941       0.00156358       0.00313286
H        1.89804379      -2.19107312      -0.32034869       0.14144188       0.00249638       0.00140689      -0.00056940
H       -0.01326628      -3.70491212      -0.71621199       0.13919771       0.00086458       0.00188102       0.00218149
H       -2.33737082      -2.82908514      -0.66873702       0.14157023       0.00161310       0.00169871      -0.00064231
H       -5.04348704       1.34172319      -0.90735806       0.09545979       0.00390799      -0.00147239       0.00097288
H       -5.12347682       1.02103949       0.83199180       0.09530961      -0.00489027       0.00089738       0.00053994
H       -4.44396355       2.56546987       0.24694633       0.09917283      -0.00048770      -0.00625547      -0.00016119
H       -0.81532002       1.06809697       0.15608086       0.11883158      -0.00197015       0.00262988       0.00131518
