25
Properties=species:S:1:pos:R:3:charge:R:1:forces:R:3 energy=-24950.592047891325 pbc="F F F"
O        0.77828694      -1.33257407       0.71507408      -0.50860888      -0.00112051       0.00643192      -0.00645626
C        0.88954679      -0.72552835      -0.37406081       0.31467557       0.00605407      -0.00304731      -0.00605522
C        2.00837313      -0.61705123      -1.18174695      -0.47621486       0.00661073      -0.00115416      -0.00379803
C        3.30580613      -1.17433013      -0.75979571      -0.11257958      -0.00051493      -0.00322658       0.00149492
N       -0.27132394      -0.01925546      -0.87806659      -0.38489217       0.00177281      -0.00342134      -0.00020850
C       -1.52797705       0.12995102      -0.34823066       0.21112551       0.00111238       0.00208697       0.00483731
C       -2.44780860       0.96024830      -1.01732429      -0.18846539      -0.00313551      -0.00673974      -0.00190889
C       -3.73277160       1.14024458      -0.54247682      -0.17671914       0.00025105       0.00058221       0.00321860
C       -4.15534663       0.50095275       0.61506145      -0.22135395      -0.00269148      -0.00257038      -0.00042632
C       -3.25197065      -0.31950086       1.28186133      -0.16165109      -0.00246641       0.00539175       0.00499679
C       -1.95886083      -0.51246651       0.82631439      -0.13752405      -0.00551590      -0.00083211       0.00051681
H        2.00358142       0.02779717      -2.05280872       0.10626118      -0.00295266      -0.00627748      -0.00421173
H        3.17008448      -1.91043119       0.03603205       0.08586008      -0.00283134      -0.00302058       0.00276100
H        3.86243397      -1.64761096      -1.56982035       0.07193650      -0.00068933       0.00900012      -0.00177495
H       -0.08457228       0.49960033      -1.71394943       0.23747626      -0.00085031       0.00112079       0.00321851
H       -2.13459913       1.46443179      -1.92477997       0.10718334      -0.00437796       0.00527923       0.00281784
H       -4.41208732       1.78849462      -1.08268208       0.11186045       0.00429956      -0.00390536      -0.00561454
H       -3.56142757      -0.82576530       2.18785119       0.11054354       0.00309875      -0.00190677      -0.00092145
H       -1.25515080      -1.14333153       1.34016473       0.12439150       0.00575880       0.00556724      -0.00551717
H       -5.16100689       0.63787492       0.98672411       0.11804531       0.00410253       0.00308657       0.00282315
S        4.52428607       0.06454862      -0.09313420      -0.30677462       0.00304260      -0.00102789       0.00123613
C        3.50478343       0.65898922       1.26635057      -0.19597816      -0.00354891      -0.00331652      -0.00092842
H        2.60478435       1.11739538       0.86693703       0.09261145      -0.00081235      -0.00357211       0.00445009
H        3.21193242      -0.16687598       1.90935651       0.08526055      -0.00436362       0.00440151       0.00306102
H        4.07782138       1.38661284       1.84001501       0.09353065      -0.00023249       0.00107038       0.00238970
