20
Properties=species:S:1:pos:R:3:charge:R:1:forces:R:3 energy=-13025.509279091388 pbc="F F F"
C        4.19467515       0.38599532       0.62453714      -0.27688050       0.00183700      -0.00043649       0.00272837
C        3.12052535      -0.22438026       0.14798996      -0.15204516      -0.00223237       0.00107432       0.00006494
C        1.75349828       0.30413640       0.44895405       0.44829646      -0.00424178       0.00189186      -0.00096167
O        1.58202821       1.29562606       1.12871996      -0.43429485      -0.00397325      -0.00037289       0.00127643
N        0.73768198      -0.42693944      -0.10815112      -0.36170357      -0.00050175      -0.00357673       0.00302626
C       -0.65297487      -0.20408841      -0.02274627       0.12608661       0.00203986      -0.00020569      -0.00238665
C       -1.21863730       0.85004837       0.68760940      -0.12447811       0.00454195       0.00001965      -0.00375698
C       -2.59923407       0.98757199       0.71216212      -0.13593599       0.00322018      -0.00002028       0.00410349
C       -3.42489155       0.09641307       0.04498425      -0.15794978      -0.00061506       0.00018332       0.00384641
H       -4.49794604       0.21677182       0.07514556       0.13748507      -0.00207209      -0.00112656      -0.00375059
C       -2.85613389      -0.95345237      -0.66129538      -0.13869546       0.00173985       0.00127864       0.00142978
C       -1.48095381      -1.10195849      -0.69468282      -0.16812457       0.00165461       0.00042284       0.00372946
H        5.19204080       0.02338900       0.41891709       0.14657843       0.00446972      -0.00284467      -0.00013449
H        4.08883761       1.27017187       1.23670925       0.15895574       0.00084994       0.00489377       0.00002056
H        3.20884431      -1.11300859      -0.46598178       0.12176868      -0.00164321       0.00031031      -0.00073897
H        0.99920589      -1.22936494      -0.65057007       0.26809442      -0.00524471      -0.00096461      -0.00397899
H       -0.58060449       1.54176677       1.20592311       0.14080854       0.00137066      -0.00127365      -0.00177312
H       -3.03035704       1.80926146       1.26611758       0.13517211      -0.00141400      -0.00029556      -0.00079398
H       -3.48448459      -1.65843632      -1.18705374       0.13604856       0.00345910       0.00025330      -0.00081649
H       -1.04002082      -1.92266824      -1.24668476       0.13081342      -0.00324507       0.00078920      -0.00113303
