26
Properties=species:S:1:pos:R:3:charge:R:1:forces:R:3 energy=-27463.019803535804 pbc="F F F"
O       -0.82158466       1.43812698       0.77253561      -0.48323673       0.00678029      -0.00120411      -0.00325318
C       -1.02010394       0.23528477       1.04381238       0.30145255       0.00874656      -0.00088398       0.00182042
C       -2.11253793      -0.34165703       1.65905331      -0.47489607       0.00271054       0.00043809      -0.00293702
C       -3.28947763       0.47075237       2.00992438      -0.11310720      -0.00313213      -0.00146674       0.00064169
N        0.01197863      -0.71617934       0.64912742      -0.37377498       0.00518987      -0.00048693       0.00454835
C        1.22128416      -0.51333607       0.07551509       0.17520051       0.00115272      -0.00229313      -0.00371745
C        2.03188626      -1.64024983      -0.19739279      -0.18170524      -0.00272991      -0.00237535      -0.00172302
C        3.26925707      -1.51047248      -0.77491322      -0.15892194      -0.00406565       0.00059296      -0.00066543
C        3.76356326      -0.24667225      -1.10578421       0.03348078      -0.00420694       0.00000137      -0.00291744
C        5.05215221      -0.10786736      -1.70458493       0.24605519      -0.00289708       0.00425432      -0.00179616
N        6.09283869      -0.00167638      -2.18836673      -0.50068611      -0.00256671       0.00183203       0.00347250
C        2.97015133       0.87539318      -0.83992148      -0.13532521      -0.00043765       0.00000935      -0.00227656
C        1.72395622       0.76092701      -0.26516071      -0.12680912       0.00156944       0.00038258       0.00297109
H       -2.20617034      -1.41701254       1.75385614       0.11194488      -0.00085803       0.00059042       0.00218232
H       -3.73048254       0.20234316       2.97008119       0.08130679      -0.00904014       0.00051046       0.00219605
H       -3.03930860       1.53403757       2.03305951       0.09021848      -0.00149750      -0.00164025       0.00159260
H       -0.23467512      -1.66621941       0.85220565       0.24386132      -0.00349706       0.00210674       0.00112264
H        1.66355091      -2.62601967       0.05722392       0.11073857      -0.00288142      -0.00367585      -0.00350256
H        3.86852291      -2.38628287      -0.97890008       0.11564631       0.00223051       0.00310330       0.00639251
H        3.34991188       1.85462344      -1.09418600       0.11640785       0.00134450      -0.00069362      -0.00364368
H        1.10038994       1.61216172      -0.05657557       0.12435130       0.00250735       0.00003337       0.00068439
S       -4.72513806       0.31515042       0.84188633      -0.28277165      -0.00101808       0.00378915      -0.00287571
C       -3.86586513       0.88049208      -0.63688966      -0.19910158       0.00279673       0.00060876       0.00002485
H       -3.04814634       0.20069282      -0.86063924       0.09059945       0.00239146       0.00114592      -0.00061103
H       -4.57731706       0.90210705      -1.46162810       0.10096368      -0.00012649      -0.00376472      -0.00018738
H       -3.45360378       1.87483876      -0.48437691       0.08810815       0.00153516      -0.00091344       0.00245689
