30
Properties=species:S:1:pos:R:3:charge:R:1:forces:R:3 energy=-28084.848990329654 pbc="F F F"
C       -2.98379672       1.32080024      -1.72609910      -0.14513570      -0.00023626       0.00503288       0.00157796
C       -3.95352113       0.54179212      -1.12734546      -0.18880266       0.00177776       0.00343086       0.00056769
C       -3.58607836      -0.34685640      -0.11938919       0.18423583      -0.00046580      -0.00305918      -0.00333137
O       -4.58980979      -1.08322208       0.42619713      -0.24421960       0.00586523      -0.00234462       0.00231649
C       -4.25308476      -1.99165003       1.45682011      -0.07798722       0.00206447      -0.00122191       0.00169499
C       -2.25675090      -0.43441051       0.26397542      -0.19755410      -0.00476751      -0.00399473      -0.00093254
C       -1.28892145       0.36301701      -0.35592766       0.14393081      -0.00798053      -0.00179333       0.00410518
N        0.03113755       0.18949565       0.09981513      -0.35722306      -0.00391066      -0.00520816      -0.00262822
C        1.16725283       0.87759759      -0.23260271       0.41641179      -0.00331843      -0.00116167      -0.00017660
O        1.20214669       1.78940557      -1.02816379      -0.42464852      -0.00127990       0.00106003       0.00326931
C        2.40501867       0.39582079       0.51046698      -0.13127354       0.00465616       0.00108389      -0.00147614
C        3.63185654       1.19560648       0.11518674      -0.10225556       0.00623488       0.00332665       0.00091622
S        5.13665792       0.67821726       0.96982459      -0.21040921      -0.00129239       0.00377502      -0.00059374
C        5.54138724      -0.80285576       0.01729146      -0.20215067      -0.00337827       0.00389333       0.00076018
C       -1.64567523       1.25204973      -1.35880961      -0.14996442      -0.00102540      -0.00468354      -0.00327380
H       -3.26936666       2.01080610      -2.50697881       0.13277224       0.00359435       0.00191264      -0.00197893
H       -4.99179863       0.60182963      -1.41647106       0.13867109       0.00463849       0.00061069      -0.00310449
H       -3.55006038      -2.74888191       1.10601639       0.07579391      -0.00058619       0.00391454      -0.00347151
H       -5.18003311      -2.47088948       1.74970515       0.09660745       0.00096140       0.00192625       0.00082753
H       -3.82499465      -1.47524962       2.31735759       0.07607836       0.00093795       0.00097478      -0.00090579
H       -1.94769475      -1.11406548       1.04551308       0.12134379      -0.00086491       0.00053485       0.00025429
H        0.14076169      -0.53232506       0.78840451       0.25314936       0.00845206      -0.00077167       0.00351751
H        2.53991109      -0.66905001       0.30880810       0.06869286       0.00365494      -0.00029040      -0.00241669
H        2.22083929       0.48538796       1.58250722       0.07706309       0.00430944      -0.00265488      -0.00102156
H        3.47897988       2.24177684       0.36079071       0.11213894       0.00220116       0.00406202      -0.00334046
H        3.78304286       1.14625901      -0.95992773       0.09930781      -0.00560295      -0.00725998       0.00087012
H        6.51099794      -1.14675340       0.36809691       0.11591575      -0.00675811      -0.00559993       0.00101499
H        4.81444469      -1.59725234       0.16730143       0.08865908      -0.00389925       0.00626751      -0.00053859
H        5.61330932      -0.57274280      -1.04305619       0.09380142      -0.00707151       0.00147917       0.00131759
H       -0.90143229       1.86422337      -1.83083792       0.13705069       0.00308951      -0.00324167       0.00617947
