24
Properties=species:S:1:pos:R:3:charge:R:1:forces:R:3 energy=-16143.836407167055 pbc="F F F"
O        2.02577480      -1.33678684       1.50628563      -0.45489314      -0.00441356       0.00311726       0.00122023
C        2.48599750      -0.60963007       0.65051152       0.46591562       0.00092689      -0.00320270      -0.00887123
C        3.96998239      -0.40018608       0.55675608      -0.15123077      -0.00122994       0.00305007       0.00439463
C        4.58150251       0.61410631      -0.03920107      -0.28041080       0.00135251      -0.00613304      -0.00325430
N        1.74163968       0.05818947      -0.28622663      -0.33063221      -0.00248348       0.00533542       0.00297886
C        0.33856448       0.09112398      -0.41773602       0.12847932       0.00043492       0.00307069       0.00015192
C       -0.17723854       0.67193403      -1.57786377      -0.19588698      -0.00157358      -0.00352120      -0.00172214
C       -1.54337294       0.75282228      -1.75160822      -0.15409988      -0.00124960      -0.00432493      -0.00241548
C       -2.41949329       0.26702982      -0.79017466      -0.20038721      -0.00177547      -0.00040979      -0.00126361
C       -1.89559813      -0.30633623       0.36117387       0.16994347       0.00315947      -0.00096876      -0.00414074
O       -2.65623329      -0.81357947       1.36936505      -0.24098589       0.00587687       0.00311942      -0.00003461
C       -4.06319367      -0.75240542       1.22470037      -0.08526573       0.00491152      -0.00301871       0.00204324
C       -0.51789229      -0.39857966       0.55436012      -0.14336543       0.00172065      -0.00450062      -0.00531822
H        4.52757982      -1.15846055       1.08636526       0.12567595       0.00051798       0.00072078       0.00155256
H        5.65821638       0.70236106      -0.04232425       0.15056320       0.00088611      -0.00197463       0.00002105
H        4.03466611       1.41266701      -0.52211807       0.13578102       0.00132236       0.00062647       0.00573236
H        2.25103276       0.47164466      -1.04596103       0.25663629      -0.00128894       0.00031671       0.00535655
H        0.49262871       1.05353272      -2.33686286       0.13190648      -0.00324253       0.00219003       0.00142911
H       -1.94212796       1.20029194      -2.65056432       0.13619988      -0.00054764      -0.00013789       0.00072256
H       -3.48321578       0.33791493      -0.94807081       0.13274793      -0.00206014       0.00420251       0.00222064
H       -4.40096368      -1.31103671       0.35025921       0.07921175      -0.00074962       0.00313886      -0.00003471
H       -4.47542020      -1.20802125       2.11831273       0.09897497      -0.00174385       0.00280882       0.00314414
H       -4.41454187       0.27840978       1.15258420       0.07929823      -0.00012283      -0.00632739      -0.00183484
H       -0.13112000      -0.85201719       1.44878710       0.14582388       0.00137168       0.00282249      -0.00207721
