25
Properties=species:S:1:pos:R:3:charge:R:1:forces:R:3 energy=-24950.591575374794 pbc="F F F"
O        0.74550300       0.92093500       1.25298709      -0.50811571       0.00424896      -0.00287917      -0.00165344
C        0.83055284      -0.26929672       0.87462015       0.31473726       0.00621755      -0.00170520       0.00660696
C        1.90584987      -1.13182986       1.00056085      -0.47546718       0.00384003      -0.00474381       0.00354789
C        3.18489301      -0.67313046       1.57141091      -0.11250086      -0.00280324      -0.00224570       0.00100211
N       -0.31321211      -0.84793193       0.19886834      -0.38401783       0.00419623      -0.00151523      -0.00268299
C       -1.53911518      -0.31383394      -0.10664442       0.21132378      -0.00246493       0.00021505       0.00245319
C       -2.45599483      -1.10093070      -0.82940338      -0.18831216      -0.00336767      -0.00081566      -0.00701416
C       -3.71131907      -0.62631830      -1.15686647      -0.17680667      -0.00171641       0.00401575      -0.00064583
C       -4.10591668       0.65002165      -0.77924055      -0.22159366      -0.00183550       0.00170031      -0.00278465
C       -3.20475241       1.43453792      -0.06738569      -0.16170160      -0.00445994      -0.00088481      -0.00208092
C       -1.94108169       0.98009645       0.26980062      -0.13750751       0.00014501       0.00395914      -0.00214445
H        1.89288395      -2.10739620       0.52867604       0.10622947      -0.00301794      -0.00089274       0.00598888
H        3.04556427       0.24969269       2.13968458       0.08573139       0.00347457       0.00191687      -0.00346673
H        3.65940218      -1.40716236       2.22404626       0.07171705      -0.00424790      -0.00125027      -0.00125447
H       -0.15283159      -1.78395062      -0.11826120       0.23711687       0.00644397      -0.00336112      -0.00580417
H       -2.16372913      -2.09917142      -1.13501033       0.10708684       0.00021090      -0.00896732       0.00364856
H       -4.38835322      -1.26210935      -1.71459964       0.11179037      -0.00055561       0.00546344       0.00342224
H       -5.08768617       1.02295572      -1.03454157       0.11804125       0.00185048       0.00325748       0.00332112
H       -3.49224866       2.43360785       0.23656536       0.11054354       0.00304583      -0.00449534      -0.00464485
H       -1.23787590       1.58330089       0.81621692       0.12434488       0.00276891       0.00023939       0.00471368
S        4.52461762      -0.30425368       0.33311491      -0.30710045       0.00079948      -0.00319410       0.00467705
C        3.63346310       0.96740652      -0.57703480      -0.19651359      -0.00270526       0.00714421      -0.00304148
H        3.32638135       1.76718833       0.09162470       0.08525985      -0.00554621       0.00646201      -0.00184607
H        2.74305035       0.53368556      -1.02277307       0.09235211      -0.00018879       0.00177786       0.00051764
H        4.28876862       1.36630572      -1.35080494       0.09336266      -0.00433265       0.00079875      -0.00083522
