29
Properties=species:S:1:pos:R:3:charge:R:1:forces:R:3 energy=-28068.855950840494 pbc="F F F"
O       -1.31626823      -1.37277500      -1.24723485      -0.49756533      -0.00464698       0.00413745      -0.00072687
C       -1.73623163      -1.04286386      -0.11320511       0.30236530       0.00249125      -0.00153578       0.00276309
C       -2.99944313      -1.25001147       0.41780398      -0.49542758       0.00099184      -0.00028928       0.00073906
C       -4.06685302      -1.84873503      -0.39843027      -0.11583486      -0.00320226      -0.00104921      -0.00133944
N       -0.83061035      -0.34018618       0.75927325      -0.38375276       0.00077158      -0.00117175       0.00107037
C        0.50601948      -0.04325732       0.59995239       0.16013964      -0.00046640      -0.00061677      -0.00350748
C        1.18286319       0.59803793       1.64298262      -0.19659753      -0.00220340      -0.00035167      -0.00362468
C        2.52977527       0.92932233       1.55487235      -0.18857114      -0.00238887      -0.00089807       0.00291593
C        3.23675197       0.62285476       0.40307774       0.14703135      -0.00187471      -0.00760238       0.00418696
O        4.57761649       0.90483550       0.20135092      -0.27287009      -0.00382716      -0.00252633      -0.00672277
C        5.24737821       1.50243233       1.28068231      -0.08309256      -0.00493667      -0.00276220      -0.00445199
C        2.57631891      -0.01318352      -0.64361605      -0.17753446      -0.00093845       0.00251017      -0.00061300
C        1.23669690      -0.34411007      -0.56194542      -0.13611725       0.00187437      -0.00381853       0.00045604
H       -3.28258540      -0.81537137       1.36969628       0.10831540       0.00358258      -0.00154854       0.00298398
H       -3.65000950      -2.37584825      -1.26026709       0.08734854       0.00658380       0.00013979      -0.00160677
H       -4.70020872      -2.54456933       0.15347688       0.07509624      -0.00520948      -0.00052907       0.00413710
H       -1.23125439      -0.11094311       1.64744339       0.23987113      -0.00141044       0.00350281      -0.00005335
H        0.63475595       0.84287673       2.54624676       0.10646138       0.00580535      -0.00163040      -0.00042898
H        3.00636698       1.42170989       2.38893371       0.10878305      -0.00090010       0.00282626       0.00146994
H        4.81672028       2.47366165       1.53747454       0.06182820       0.00355855       0.00243243       0.00110831
H        6.27950122       1.64442663       0.96800939       0.07440270      -0.00335139      -0.00066963       0.00246461
H        5.22789486       0.86785764       2.17052441       0.06219925       0.00091113       0.00307727       0.00234812
H        3.14638010      -0.24656269      -1.53346989       0.11489155       0.00007720       0.00594213      -0.00136868
H        0.71392423      -0.83641896      -1.36471374       0.12336480      -0.00061998       0.00234401       0.00071552
S       -5.30514295      -0.64693490      -1.10201082      -0.29981768      -0.00315948       0.00222997      -0.00228581
C       -4.13070982       0.34867550      -2.03640185      -0.19874842       0.00351137      -0.00257974      -0.00023167
H       -3.42647895       0.81110214      -1.35034648       0.09162847       0.00191137       0.00061138      -0.00563992
H       -3.57080805      -0.27367382      -2.72990923       0.08620294       0.00288901       0.00052814       0.00159181
H       -4.68092169       1.11082673      -2.58726376       0.09599987       0.00417711      -0.00070198       0.00365088
