25
Properties=species:S:1:pos:R:3:charge:R:1:forces:R:3 energy=-24950.59198852595 pbc="F F F"
O        0.89799797      -1.33983557       0.44569753      -0.50799483      -0.00085445       0.00176926      -0.00198481
C        0.95017911      -0.11066421       0.67692814       0.31467760      -0.00464748       0.00074887       0.00260758
C        2.05132378       0.64243161       1.04600337      -0.47654194      -0.00327885      -0.00055124      -0.00341198
C        3.39349351       0.03755236       1.11438095      -0.11244065      -0.00062490      -0.00053590       0.00025161
N       -0.27037161       0.65766078       0.53148381      -0.38523415       0.00216404       0.00223550       0.00440809
C       -1.53509271       0.26883333       0.16763456       0.21102838       0.00671967      -0.00131703       0.00359566
C       -2.53055693       1.25480168       0.02509059      -0.18864261       0.00679872      -0.00451007       0.00431550
C       -3.82549953       0.92449984      -0.32584793      -0.17672540       0.00693068       0.00134822      -0.00170093
C       -4.18270731      -0.39812296      -0.55031317      -0.22143559       0.00001143       0.00225388       0.00321294
C       -3.20454158      -1.37711900      -0.41260946      -0.16166247       0.00106305       0.00263673      -0.00070713
C       -1.90124918      -1.06975522      -0.06072321      -0.13758071       0.00201295       0.00400831      -0.00336373
H        1.98585475       1.72144296       1.12251460       0.10636830       0.00116320       0.00057557       0.00289875
H        3.32429792      -1.05134712       1.17122311       0.08580092      -0.00199503      -0.00059974       0.00117058
H        3.98672895       0.38616735       1.96059008       0.07197906       0.00155417       0.00622869       0.00031255
H       -0.13447976       1.64159286       0.65802493       0.23764603      -0.00019677       0.00253444       0.00069579
H       -2.26935365       2.29330859       0.19603490       0.10716828       0.00004213      -0.00466713      -0.00046412
H       -4.56315659       1.71156698      -0.42543655       0.11180044      -0.00242143      -0.00575440      -0.00123223
H       -3.46126148      -2.41501500      -0.58500980       0.11059866      -0.00235068       0.00087787       0.00257958
H       -1.13967180      -1.82185934       0.04776071       0.12452134      -0.00339279       0.00249213      -0.00794298
H       -5.19521284      -0.65830323      -0.82441610       0.11805940       0.00033073      -0.00267350      -0.00343482
S        4.50269372       0.39306433      -0.33759523      -0.30689240      -0.00184897      -0.00023408       0.00457467
C        3.43834698      -0.32052138      -1.60196254      -0.19577448       0.00082310       0.00443755       0.00181206
H        3.95066816      -0.26089280      -2.56158909       0.09348056      -0.00496408      -0.00300684      -0.00461293
H        2.50343591       0.23115004      -1.63791189       0.09246849       0.00034882      -0.00753339      -0.00102805
H        3.21495156      -1.35821862      -1.36875011       0.08532783      -0.00338747      -0.00076522      -0.00255142
