59
 
Cl          -1.47361205615028        5.34317464820751       -0.19847291687759
C           -1.65349388826624        3.62746560766385       -0.09572803267091
C           -0.51485201085928        2.84710522918708       -0.01514115024884
N           -0.54797864432677        1.52776693887532        0.02637076111982
C           -1.76061351526916        0.96709302098368       -0.03259901545839
N           -1.91035127323943       -0.37590670973122       -0.02190465836610
C           -0.97538959344063       -1.39928351216888        0.04163052824188
C           -1.47346988683118       -2.71868874889196       -0.00655717191020
O           -2.83976442768297       -2.83246524602053       -0.11700454952942
C           -3.39500875121105       -4.12251589588541       -0.17564458748328
C           -0.58711637487107       -3.77814534374999        0.05717758076370
C            0.77840747764864       -3.56221039680712        0.16784789754755
C            1.27186187479957       -2.26655870256758        0.21489435002907
N            2.63148607816822       -1.96872836750941        0.33069095528222
C            3.69582494670377       -2.82053277639136        0.42442703328027
C            5.00336750254514       -2.14169146294303        0.58942078963655
C            5.21242892547644       -0.98187839764108        1.20130367440911
C            6.56565569984946       -0.37407373315355        1.41394869505577
N            7.58654749866483       -0.95457245587277        0.56396489996434
C            7.47688612505110       -0.47782699857580       -0.79893930092807
C            8.91864740031921       -0.74032241059103        1.08610007287403
O            3.61250613451305       -4.03177384518924        0.37249212218611
C            0.38734965193687       -1.18972847910862        0.15019862228411
N           -2.91152289163097        1.64023944946457       -0.10403993992317
C           -2.89921125982633        2.96725442790501       -0.12768698443260
C           -4.18718793402227        3.61927732648230       -0.19662971729627
C           -4.52257138585055        4.90590954910806        0.15721503971196
N           -5.85011180795278        5.11176493165322       -0.03642548656864
C           -6.42254518303399        3.96909224101471       -0.52737285488516
C           -5.40673542948093        2.99410397240417       -0.63648365222717
C           -5.72459612737498        1.72991963771636       -1.12660183940187
C           -7.03132955379846        1.47266426945667       -1.47926872523298
C           -8.02678005196046        2.44535556419169       -1.35950547456812
C           -7.73811533548642        3.70711080090711       -0.88519967820281
H            0.46858479802741        3.29821722923534        0.01570018532084
H           -2.87196385430892       -0.68812661539949       -0.06998922416664
H           -3.03295202869041       -4.67640508609083       -1.04757055390599
H           -4.47065504635549       -3.97550067813271       -0.26336632172891
H           -3.18094382075426       -4.69399527444190        0.73285278140422
H           -0.94386616515043       -4.79472212517844        0.02159997939039
H            1.45556554237099       -4.39708448394823        0.21630727069612
H            2.83718455243635       -0.98001097702551        0.34434522742894
H            5.85033674544320       -2.71479534412705        0.24080460136135
H            4.39963082495411       -0.41185109411955        1.63596168201688
H            6.84567700257910       -0.54746271821702        2.45947127837834
H            6.49206585120897        0.72287675177195        1.28017054157910
H            7.68965897947722        0.60048906831777       -0.88588786727115
H            8.18334618101449       -1.02170799000587       -1.42393853179104
H            6.47053924942169       -0.66442069804426       -1.16785936718190
H            8.99375847235110       -1.18246320552848        2.07852985135222
H            9.18768803500366        0.32647893492821        1.15227050022141
H            9.63587414329608       -1.23562186042315        0.43342856913670
H            0.74717113065342       -0.17462387309214        0.18340978040224
H           -3.91029739024913        5.68452107696564        0.56675470551694
H           -6.33816502133110        5.96973899471686        0.15964219590312
H           -4.95532549938785        0.98114088271164       -1.21756090249178
H           -7.29946562521365        0.49769709041727       -1.85898178293532
H           -9.03931079559621        2.20347665305359       -1.64678310632341
H           -8.50274819420951        4.46476889451533       -0.79578877849076