31
 
C            0.64192005823368        0.55883287981313       -0.24736719588979
C           -0.70326601181921       -0.00001793256665       -0.51860843076423
O           -0.90113825240398       -0.86971767332718       -1.34326926764620
N           -1.67877075177208        0.56840103049539        0.25536454485342
C           -3.05027624636685        0.30653516648098        0.28275668980219
C           -3.83729161768417        1.06201531105426        1.15154955983291
C           -5.19994748697092        0.84982072128186        1.22417684872944
C           -5.79697837931510       -0.11783727365992        0.43322791993757
H           -6.86208076438362       -0.28402147807480        0.49082630653298
C           -5.01743715520956       -0.86895102754554       -0.42975035885839
H           -5.47538913542673       -1.62556012307893       -1.04939333528298
C           -3.65212433692611       -0.66527488593210       -0.51159095178036
C            1.70345844515480        0.12240123949837       -0.91756188119917
C            3.09778389318302        0.61835353417899       -0.71020984098716
N            3.84833354392195       -0.23458559585793        0.20730459600091
C            3.95476600442510       -1.59567098369432       -0.27747866714598
C            5.15370762894496        0.32887422117109        0.47686400552629
H            0.73353645311525        1.32599833355101        0.50944149292645
H           -1.38182355430474        1.28723689701631        0.90130032937720
H           -3.37461527591514        1.81871353013319        1.77120861748025
H           -5.79730515778306        1.44243707970792        1.90144414886262
H           -3.04833636992653       -1.24979178800075       -1.18450065717392
H            1.54905903599370       -0.64558323643535       -1.66384904690501
H            3.60347844148547        0.68853442062024       -1.69189025758297
H            3.06665599345924        1.61695517762713       -0.26459294014402
H            2.95958435655378       -2.02876081449962       -0.35461559018082
H            4.45060217481641       -1.65988630795269       -1.25939516199171
H            4.53005557734966       -2.17956340831959        0.43929433240218
H            5.66460481367046       -0.29883941675444        1.20518069348566
H            5.78295374696427        0.40341140989575       -0.42493527814544
H            5.03628032893426        1.32554099317454        0.90077281321209