26
 
C            4.07153005132283        1.35603850387744        0.18497125661205
C            2.72305336603354        1.36900644923643        0.48179126959166
C            1.91556956440667        0.27549135563270        0.16964673653021
N            0.55812630592628        0.35687385131630        0.49721270152809
C           -0.43295348062776       -0.56155194347291        0.29753189727454
O           -0.27970727091246       -1.64055149331576       -0.22395240909200
C           -1.78056120774249       -0.05999837734296        0.80313284363705
C           -2.84069215830431       -1.14490803695509        0.69546283810249
S           -4.46526866749124       -0.58004460458106        1.29319214115805
C           -5.01932107059749        0.37021075474926       -0.15198717300775
C            2.47716105017216       -0.84000395347659       -0.44727546211386
C            3.82652200699419       -0.85861447273947       -0.74648453831721
C            4.60664062747412        0.23738821962331       -0.42787155808179
F            5.92468951532530        0.21901744559138       -0.72080226804657
H            4.70476532684025        2.19598885712362        0.42197735634834
H            2.29056875680974        2.23606803558109        0.96089402731476
H            0.29223776959173        1.22248443189235        0.94721085757374
H           -2.06735292815655        0.81028256063772        0.20590818984951
H           -1.68664062037069        0.25839403907122        1.84415382038584
H           -2.95121646506251       -1.48667929152874       -0.33281679460163
H           -2.57370995460034       -1.99685779924109        1.31885314615028
H           -4.36705229305727        1.22356443277658       -0.31430612002706
H           -5.03214009503417       -0.27615061590182       -1.02501223041871
H           -6.02352168119711        0.71461765522372        0.07025668845107
H            1.85442894038248       -1.68469390413379       -0.68786391373740
H            4.27484461187530       -1.71537209964450       -1.22344336766277