28
 
O            0.07223504212358       -0.14688175005898        2.49292883504500
C            0.44177948582406       -1.01008392576607        1.67817598173647
C            1.72521321546575       -1.52798967276322        1.49773612223990
C            2.85933551193885       -1.03529049425498        2.19575830434938
N           -0.56415798135623       -1.65918177284630        0.88872249376776
C           -1.84111316116564       -0.99699902075458        0.75546976496825
C           -1.87243530253270       -0.05925655836530       -0.42122004508049
C           -1.11226590178190        1.10675785199881       -0.38429535308597
C           -1.05554253849463        1.94352067755302       -1.48218408281406
C           -1.76396556490550        1.63316053719212       -2.63276770868387
C           -2.52601493710011        0.47840846606758       -2.67792732926112
C           -2.57528939637728       -0.36391474991086       -1.58052862292628
H            1.87388896174247       -2.28727480767831        0.73781955860519
H            2.60976195742041       -0.40712371617178        3.04370315940362
H            3.64960247070053       -1.74652283558932        2.41526583757957
H           -0.21281074356016       -2.06201464531040        0.03029726783418
H           -2.63685834149279       -1.74989847027740        0.66977639640651
H           -1.96204722844576       -0.43563825863238        1.68947369985725
H           -0.56432578681537        1.33805039395001        0.51696404169481
H           -0.45652506598304        2.84292114509839       -1.44370201839984
H           -1.72149231511755        2.28893632457112       -3.49244249937201
H           -3.08196043333326        0.23135803254316       -3.57354644972071
H           -3.16850573028986       -1.26887980032632       -1.62243802567911
S            4.00236012163925        0.26078398022991        1.09999059513897
C            2.67084370032618        1.05367981645880        0.19090529493255
H            2.97292399109347        1.19189969542952       -0.84517953324217
H            2.42422009289616        2.01263844051259        0.64324988919256
H            1.81314587758312        0.37483511710595        0.24907415613753