23
 
O           -2.39343289383280       -1.13829635164383       -0.79883248303533
C           -2.23114460682400       -0.08661833979213       -0.21066446594363
C           -3.11946295876647        0.38929144469271        0.88055979400177
C           -4.14221690217721       -0.34246738785063        1.29445995505601
N           -1.22945689830581        0.77701452897173       -0.51645641159556
C           -0.20373175589418        0.46161418227467       -1.49109724198738
C            1.09650340961462        0.12413105266920       -0.80809440321371
C            1.25424298676419       -1.11908878796166       -0.20693139012575
C            2.42348363407129       -1.42778077577388        0.46397991341293
C            3.44550390733763       -0.49590468523437        0.54321828067434
C            3.29355040779346        0.74553145396575       -0.04960551416859
C            2.12229423516151        1.05509080478399       -0.71980681295875
H           -2.89140914110254        1.35264070649389        1.31624722815385
H           -4.33670747760606       -1.29687220504806        0.83247470984635
H           -4.80397364624593       -0.02668826266281        2.08284412497551
H           -1.07736002423643        1.58801008860914        0.06185102281923
H           -0.57592583508490       -0.39849586187326       -2.05356584306439
H           -0.07721834036723        1.31344998718460       -2.16666693402017
H            0.45253733459222       -1.84013765767476       -0.27062745602501
H            2.53972368193599       -2.39777838816858        0.92468317982356
H            4.35940620856754       -0.73737150537252        1.06580250297328
H            4.08778091291645        1.47540666840011        0.01071958708342
H            2.00701376168869        2.02531929101079       -1.18326747585290