25
 
O            0.72661210893893       -1.44183999697354       -0.57090145081018
C            0.77478832153244       -0.21946390819776       -0.77882102975190
C            1.76704215408292        0.50158268099913       -1.42770204980959
C            2.98727924857106       -0.10979791287911       -1.87698013008974
N           -0.33123536791471        0.61810575734041       -0.37775711599742
C           -1.52887513522230        0.29949157948217        0.18347865110730
C           -1.88084727888125       -1.00986135874226        0.54419774818132
C           -3.10644354107639       -1.27093460215096        1.11540236449647
C           -4.02155241375147       -0.25378930800547        1.35062169593525
C           -3.68548771700463        1.04403003213756        1.00024359312325
C           -2.46289367535506        1.32086112499795        0.42679947646283
H            1.67226650459325        1.57618746283138       -1.52878187617701
H            2.92623326455225       -1.19452221966693       -1.88776573588662
H            3.39945705200394        0.28353245492229       -2.80403250292925
H           -0.20409965721133        1.59639479931798       -0.59603509748294
H           -1.16462501153847       -1.79301931735143        0.35649663884563
H           -3.35857327008131       -2.28888089442462        1.38563227711702
H           -4.98223360511660       -0.46857361675564        1.79997131424761
H           -2.21073321121646        2.33983171017538        0.15607564651052
H           -4.38759663172192        1.85073884961259        1.17605843284935
S            4.52844493293222        0.21012577698996       -0.69464301144026
C            3.75349379980473       -0.32415708941844        0.84361534838746
H            2.69161270543607       -0.09216338676516        0.76364371648668
H            3.89341603938779       -1.39488242659842        0.97582688554619
H            4.20455038425657        0.22100380912210        1.66878187106387