25
 
O            0.16237617905036       -0.13190865250842        2.60664978880318
C            0.65725801188859       -0.58155544558582        1.56551621433118
C            1.88253496037667       -1.27168641315307        1.47852855115447
C            2.36606137840664       -1.93723327648803        0.33747099765400
N            0.00624036119505       -0.42368713070719        0.31512823666106
C           -1.22072175700348        0.09661014887456        0.02396954105528
C           -2.16495619426961        0.42816887701424        1.00452287026499
C           -3.39917337964633        0.92549688488906        0.64380127572001
C           -3.73768609435319        1.10432833861892       -0.68926671742698
C           -2.81098616154065        0.77919674271787       -1.66763019775426
C           -1.57176990649921        0.28438628851742       -1.32171197871050
H            2.51648467715413       -1.21679046831288        2.35345828830251
H            3.24787285571471       -2.54801154790360        0.48806093017105
H            1.65046095101565       -2.41390743213089       -0.32172459280878
H            0.60616706751598       -0.59066804212263       -0.48229608416430
H           -1.89503912289772        0.29709229613078        2.03946920811195
H           -4.11428702692910        1.17986053823235        1.41629945842572
H           -3.05973033930638        0.91443206871694       -2.71325903011855
H           -0.85169502945733        0.03441182454993       -2.09042690810585
H           -4.70929514142902        1.49436920786291       -0.96297926965545
S            3.15478812359120       -0.63000008981696       -1.15222633374034
C            3.30696871072664        0.84077780387361       -0.13267675776340
H            4.35610953056490        1.04249123971531        0.07936365321371
H            2.76195095165539        0.63643435178380        0.79803998686337
H            2.86006639447339        1.68739188723038       -0.64865312614291