21
 
O            1.65286546873265       -2.09249820775601       -0.69357013588267
C            1.97029937679367       -1.09669743419987       -0.08082611881990
C            3.37022931706285       -0.87056796008134        0.36787350584640
C            3.97193731579148        0.30595409338995        0.45046184771176
N            1.10747471803043       -0.09109183454420        0.26950229100201
C           -0.25258476929252        0.02804373752370        0.00376410428371
C           -0.95478445569101       -0.89067967918874       -0.77705060116176
C           -2.30258261387940       -0.71235034863001       -1.00661808840819
C           -2.97349028700072        0.38436503795729       -0.46328745840247
C           -4.35376374847315        0.56441281555617       -0.70041874587033
N           -5.47494444107548        0.71286053937294       -0.89026200390536
C           -2.27277041575116        1.30590429220329        0.31727906374354
C           -0.92685898683129        1.12598075687167        0.54560583035586
H            3.91589810738649       -1.78671759175519        0.54461735743605
H            3.47770851671652        1.23626986241710        0.21695568263806
H            5.00930426663474        0.38708971194955        0.72860346786175
H            1.49633267069915        0.65589544437229        0.82874973072306
H           -0.43768507695402       -1.73800359002504       -1.19454973426202
H           -2.84638711872381       -1.42312354732088       -1.61060794824910
H           -2.79088041641271        2.15473762834748        0.73824799876924
H           -0.38531742776300        1.84021627353988        1.15055234718452