55
 
Cl          -6.66162424626496        3.62814975518857       -1.34121600923495
C           -5.13628834615559        2.90736902198462       -0.96848305070319
C           -4.02345142570340        3.72189694574705       -0.86346862689829
N           -2.82627231658349        3.26231281903091       -0.54963302113940
C           -2.73843759169286        1.94976595571497       -0.32340197773993
N           -1.55687118978713        1.37224866450159        0.00399805413335
C           -0.29095766595791        1.91411036335537        0.17194955787434
C            0.74685937458290        1.01851994547045        0.42797355801305
C            2.04205534961138        1.47975416577558        0.60849627515616
N            3.11863439847169        0.62206244266463        0.84963377789428
C            3.12544414777741       -0.73629745853175        0.98383342977719
C            4.47735062438382       -1.32445974416250        1.15628225971104
C            5.60866184002940       -0.83993756663838        0.65790855046851
C            6.94548837811811       -1.49357540810930        0.79925170189303
N            7.65995003061020       -1.46969835438807       -0.46741702221977
C            9.04560160571126       -1.85463122149801       -0.30630358056062
C            6.99897187303334       -2.29747804137733       -1.45622302376685
O            2.13283905875391       -1.43722163732174        0.96750326484990
C            2.30162745210103        2.84864775797518        0.53873969466372
C            1.26765727471282        3.72957347702620        0.28802478040864
C           -0.02697714307102        3.27948187034758        0.10226810096634
N           -3.75626517866526        1.08958195008668       -0.39576083186104
C           -4.96603709751265        1.53025266032981       -0.72089757976554
C           -6.01777199577383        0.54023708791451       -0.77532852635342
C           -7.19947970417450        0.57652681117437       -1.47844597284365
N           -7.89768974271886       -0.56989734164075       -1.27538870771809
C           -7.19776913551924       -1.38664218878189       -0.42814369506819
C           -5.99488706641493       -0.72667574949454       -0.09379597449695
C           -5.09751760357316       -1.34104834112351        0.77604520659387
C           -5.41399067500845       -2.58635212408093        1.27299666059608
C           -6.60435249246715       -3.23056267606965        0.92710597153729
C           -7.51422701369155       -2.64118660703009        0.07534101193007
H           -4.09147113341368        4.78790350969344       -1.03628605369193
H           -1.62309885888713        0.36798706371856        0.11310791652258
H            0.54891432083030       -0.03903992809854        0.48541669121586
H            4.01070273467580        1.08751721214525        0.93864023422029
H            4.46806177667718       -2.27758667789133        1.66742349098814
H            5.63472657136614        0.07638106883999        0.08161981164877
H            6.83235284465460       -2.51700217262907        1.19937696428701
H            7.53518964906034       -0.91337905272312        1.51925774391169
H            9.53061001876888       -1.17450396653057        0.39273574728489
H            9.54709570454298       -1.77668567864416       -1.26960308237898
H            9.16199530715692       -2.88462545822328        0.06614212359963
H            7.50900948715165       -2.18435674092409       -2.41151507743137
H            6.99805923491881       -3.36382927569561       -1.18108915005681
H            5.96695386340676       -1.96963369736983       -1.56869050116009
H            3.30908621738173        3.21379966524170        0.67963016755544
H            1.47292226632276        4.78827728600859        0.23536908624195
H           -0.83161631226466        3.96486164576066       -0.09730645586396
H           -7.57731520041735        1.32963155312130       -2.14116780125215
H           -8.78784206366172       -0.78759629345810       -1.69117994762325
H           -4.18001849883757       -0.84226000078886        1.04151885697706
H           -4.73044861977286       -3.08158557171264        1.94682970916876
H           -6.81523033455590       -4.20657951974454        1.33831086436429
H           -8.43891275225708       -3.13252220414136       -0.18989325966313