58
 
Cl           4.49716559133302        3.77474455057124        2.09750578912429
C            3.47443876639023        2.65799478785226        1.27067222939871
C            2.10771040194492        2.72924698618874        1.47567180368453
N            1.24916598221204        1.89809262542397        0.91490236914650
C            1.76863960943330        0.95499331462008        0.12443495430450
N            0.97631159789369        0.05481930251723       -0.49764035413078
C           -0.40333278738555       -0.10098462114007       -0.48730335695459
C           -0.93530864817911       -1.14738798540055       -1.26737640854288
O           -0.01817160903382       -1.89513825809147       -1.96623229178812
C           -0.49436753050735       -2.93442587535794       -2.78603049135791
C           -2.29894358088885       -1.35939624607796       -1.26552846322413
C           -3.18129362501601       -0.57287930467520       -0.52201459505501
C           -4.62809982936182       -1.00751086600034       -0.46585283182090
N           -4.94764488193293       -1.89920182043996        0.64221262483175
C           -4.22338843025451       -3.14932804564540        0.60621922831362
C           -4.86855895945329       -1.27415406104650        1.94223565525701
C           -2.64932517189120        0.48965989517673        0.20697352146447
N           -3.41450285270820        1.38184590462316        0.98863461435882
C           -4.52518652883515        2.08452041580833        0.61725873160683
C           -4.97935111578271        3.03704415493521        1.66318218455909
C           -6.07256225465496        3.76422839642322        1.48846093905885
O           -5.10287111645063        1.93768348710015       -0.44086338768047
C           -1.27020731414953        0.70242502254104        0.22715403779279
N            3.07252232716733        0.79811522231198       -0.12331929489963
C            3.95176858484551        1.63463634849464        0.42479187831954
C            5.34093296187167        1.43004486266814        0.10699972317581
C            6.43803858251372        2.28925096668015        0.16939769833064
N            7.55123936574074        1.70550383260812       -0.27037667610835
C            7.20634498252006        0.47061130719889       -0.61557502005252
C            7.99902127912268       -0.56709536808603       -1.11901565501309
C            7.41337381639296       -1.77117334602784       -1.39759449298842
C            6.03425832739618       -1.95103233358669       -1.17444081431422
C            5.27148799275388       -0.93252102752901       -0.68656283834462
N            5.84637221529450        0.25950724753695       -0.41406186693524
H            1.68295642154754        3.48539279554631        2.12214851259020
H            1.46289907019079       -0.60192839634606       -1.09416542331427
H           -1.00591976670144       -3.70515466296800       -2.20081172514303
H           -1.16819107570165       -2.55684736046317       -3.56093772151275
H            0.38848040425941       -3.36626772180717       -3.25528417869801
H           -2.71781626560592       -2.16496863614166       -1.84758671696521
H           -4.87097575285946       -1.54809759922904       -1.38501343889211
H           -5.28994198013953       -0.14477204340965       -0.40345807320834
H           -4.63072211914891       -3.80964444719093        1.37200176697194
H           -3.14251387302223       -3.03577315794478        0.78608144339164
H           -4.37039153051839       -3.61957255092986       -0.36516033211979
H           -5.44743049282469       -0.35237071132088        1.93107043592887
H           -5.30610215913606       -1.94894025836097        2.67903022209153
H           -3.83766234479134       -1.04497947723362        2.25468496225277
H           -2.91352900007242        1.73734605674514        1.79142959587426
H           -4.38824824274087        3.10560154758192        2.56637193699480
H           -6.63738494969287        3.66813173281620        0.57536898958549
H           -6.43208664739459        4.46131984900378        2.22566688140633
H           -0.85480770653588        1.51320959849876        0.80301516905699
H            6.46039059917189        3.31119503387673        0.48885085841137
H            9.04919212592303       -0.38081428546286       -1.26797134993338
H            7.99958303200474       -2.58833459460296       -1.78745287022193
H            5.57256216662797       -2.90041789776962       -1.39186591670436
H            4.21198393883135       -1.00605228505429       -0.50293217134439