65
 
C           -6.01445442042371        2.44947403180733        0.25227729456124
N           -5.21715536482592        2.90214444779973       -0.68400764769774
C           -3.96236895842693        2.41511856651000       -0.70076198313176
N           -3.18513819426967        2.92988600132084       -1.67648879689885
C           -1.84857761258028        2.70906299201410       -1.97984733546594
C           -0.97435287536936        2.04920580564714       -1.13503616389774
C            0.35494690485617        1.84261925305590       -1.50006403707689
N            1.16257246160907        1.14204666218634       -0.59442233328189
C            2.48902309369641        0.86630953596024       -0.67907045121749
O            3.20898803976353        1.19518782575547       -1.59621335078411
C            3.03503826231481        0.09567024382446        0.52158348124779
C            3.80392312767660       -1.12703980048399        0.01945723522193
S            2.57777783006595       -2.35232371460578       -0.57758687714939
C            3.68141198986175       -3.53432739551746       -1.38598679722561
C            4.78639717389234       -1.74283831806863        1.02992262599973
N            4.25725895939561       -2.88444501522609        1.75317229800900
C            5.31901536788515       -3.66047094020580        2.36017912576912
C            3.26308563388997       -2.51246202101444        2.73673791065091
C            0.81296730822531        2.33048590829322       -2.71446384086087
C           -0.05053010340070        3.02024117105873       -3.55286627672403
C           -1.37598931452596        3.21719633549830       -3.20846308743930
O           -2.30333902202898        3.88245107362504       -3.96934416483264
C           -1.88316610761760        4.44734136304791       -5.18738388601239
N           -3.48492616950765        1.50190389882307        0.13975538941244
C           -4.28407111036687        1.03531532875574        1.09472328056601
C           -3.71789574127527        0.05378110726861        1.98421310439710
C           -4.08488108227537       -0.27615047696459        3.29949550239661
N           -3.28608108764756       -1.18851086023295        3.82341304966818
N           -2.39980033613136       -1.48931368948096        2.88085486329579
C           -1.40924332381270       -2.39836664237913        3.00335081368883
C           -0.57183881775719       -2.61691593685405        1.95144993480761
C           -0.75216738053034       -1.91273597728762        0.74290853158634
C           -1.76250438752163       -0.99773622371101        0.62611261861870
C           -2.59824104537945       -0.76207035036432        1.72517123248396
C           -5.61439935328143        1.50456823650441        1.20548943961358
C           -6.53594202632710        1.05199460061653        2.16063212928155
N           -7.33221744662406        0.70592537770799        2.91293790045974
H           -7.02248034543441        2.84447046177538        0.25705894084979
H           -3.66924289132391        3.55170234621308       -2.31230100155664
H           -1.34346151517815        1.70171836830285       -0.18496179511735
H            0.66278505233307        0.79102322212070        0.21087317771657
H            3.72926425122232        0.76002089132056        1.04305920839821
H            2.23825680114474       -0.19047918771475        1.20733049025840
H            4.36526035972161       -0.80754540272082       -0.86486091070071
H            4.27631934291137       -4.03496622997715       -0.62907313165955
H            3.05004200639509       -4.24991125261485       -1.90257722640409
H            4.30811721979307       -3.00711996316912       -2.10023000776787
H            5.66138866728597       -2.09444990668070        0.47653652876425
H            5.13124294864792       -0.94791314309510        1.71707288515210
H            5.87685871814780       -3.09650779142248        3.12391208218390
H            6.01987840964799       -3.98770282282758        1.59257649011262
H            4.88596968359076       -4.54284249739729        2.82910830804597
H            2.92814551671388       -3.40964764090172        3.25502961427461
H            3.65169648593452       -1.80108719959649        3.48306180092371
H            2.40650976524719       -2.07025023721113        2.23494099099212
H            1.83811503499937        2.17919799003090       -3.00391888053347
H            0.33381023012521        3.39582050922102       -4.48720178021956
H           -2.76329966258498        4.93510691582045       -5.60358485269999
H           -1.09513512146320        5.19100082115994       -5.03344307550165
H           -1.53071509361724        3.68105720817230       -5.88457123304456
H           -4.88291851484024        0.12970226231097        3.88805418926094
H           -1.34972342741364       -2.90862481331640        3.95120602708838
H            0.22229326754805       -3.33971579973403        2.03346463654182
H           -0.08565941283031       -2.10784374574996       -0.08182045993519
H           -1.94644264795415       -0.45643576698083       -0.28688683540564