25
 
C           -3.73855897166715       -1.15829892335366        0.39257134583846
C           -4.19665670667136       -0.13116372322638       -0.41721801605964
C           -3.30317109993158        0.84908654995268       -0.82846341432119
C           -1.98070072561305        0.81458533153268       -0.44605731338187
C           -1.50414631071392       -0.21957754733902        0.37382204978490
N           -0.20861546538418       -0.30777347035802        0.77946298430832
C            0.92248217061534        0.55053801366327        0.51502180393115
C            2.06590781510288        0.12514071546165        1.17604892032284
C            3.32953527697735        0.79306831542909        1.02633112330994
O            0.77563797490632        1.56067990827274       -0.19030313666992
C           -2.41748395213021       -1.20607659957566        0.78364874745307
H           -3.65022876792114        1.65542807170312       -1.46243031172109
H           -1.28046134400185        1.57047000802089       -0.76122891775142
H            0.00734273073900       -1.10129734287311        1.36612396411678
H            2.04338227716787       -0.78934286108123        1.75681312057881
H            3.22735047136885        1.77233458980624        0.56694472594725
H            3.95563852919951        0.82498723989417        1.91588519115829
H           -2.07016743208480       -2.01461021589182        1.41711581820622
H           -5.23403532492565       -0.09570704232539       -0.72315560859043
H           -4.42161596574021       -1.93215515530108        0.72344055829359
S            4.57654325346763       -0.11767744589224       -0.19453278229039
C            3.44455823601326       -0.32848585812652       -1.58151586209100
H            2.43834765356840       -0.38654682439988       -1.16451858802116
H            3.52253245883913        0.52124608422583       -2.25620747096806
H            3.69658321882383       -1.24885181821937       -2.10176047498868