26
 
C            3.77148340990720        1.09779742469583       -0.74217952340112
C            2.42200369807002        0.79750713688281       -0.69616520827330
C            1.94079433954817       -0.05854956915914        0.28913893221411
N            0.58882312848065       -0.40870900759677        0.40069500028694
C           -0.46961069925454       -0.01922951956003       -0.36498817273574
O           -0.40473230428115        0.73291091637160       -1.30914752313633
C           -1.77774092134933       -0.63967354057582        0.11775012040841
C           -2.92058739219081       -0.29831485512801       -0.82482821498477
S           -4.50198190935806       -1.01884596504582       -0.28136615047189
C           -4.95768557680440        0.16620497844675        1.01723893673615
C            2.82636102738203       -0.60246135583091        1.21762902773664
C            4.17184718977425       -0.29502949137098        1.16181869389104
H            4.84782316692527       -0.72323254266182        1.88718163226620
C            4.65042848001807        0.55730183869393        0.18067218668888
H            5.70200443115313        0.79698135273263        0.13718144912265
H            4.13722463965419        1.76265374667937       -1.51038874827421
H            1.74035288230397        1.21882272190568       -1.41519233605232
H            0.39003282471996       -1.04461317084560        1.16157978142766
H           -1.66726885052226       -1.72484112182789        0.18260515278132
H           -1.98706390760542       -0.25827277931485        1.12130224305329
H           -2.73005290756863       -0.71114890038440       -1.81429282398312
H           -3.04679692794150        0.77978285108961       -0.91586835840099
H           -5.93397707184988       -0.13388569488623        1.38227841458889
H           -5.00980286595331        1.16447948896910        0.59188674412700
H           -4.23644834736937        0.13102524224174        1.82876396691815
H            2.45457046411171       -1.26866018452093        1.98467723551757