49
 
C            7.20419951384175        2.36328957489331       -1.89126365677848
N            6.60636412381667        1.42390622217325       -0.97550688117356
C            5.52312478540236        0.68585698060124       -1.29659919742863
C            5.03033559282514       -0.22368079320296       -0.22752878725233
C            3.65957359203256       -0.55275483206107       -0.15004632796414
N            2.80825903361737       -0.07293928531463       -1.12282104383332
C            1.45804523500109       -0.00626260005122       -1.14480888227313
C            0.80653302479909        0.47642952737677       -2.30957374891823
Cl           1.71571489292987        0.95695134702296       -3.70317978588912
C           -0.56639985558728        0.54246840347413       -2.28641042716059
N           -1.28289711809102        0.19033678533681       -1.22582454603749
C           -0.60314765688690       -0.23938456293712       -0.16672283508676
N           -1.23745370488356       -0.60671840797499        0.97431970659335
C           -2.58324403492006       -0.58833173171693        1.31778164619074
C           -2.93180364018428       -0.97725048888608        2.61267077926083
C           -4.25694312885972       -0.97176857097841        3.00077839759752
C           -5.25743385642254       -0.58684145238875        2.12577903338591
C           -4.91423953975455       -0.20061165929255        0.83402714747679
N           -5.85755093572828        0.19635643751186       -0.11632932408814
C           -7.20854119217627        0.32938097858212        0.01241119818785
C           -7.89659766312884        0.74968431017452       -1.24024656649136
C           -7.53055053757887        0.42252441298758       -2.46960516289577
O           -7.83258943395753        0.13576162176121        1.03573651402398
C           -3.58044728042970       -0.20287377030422        0.43291114733022
N            0.72921740451153       -0.35889824478461       -0.09455050330758
C            3.21659823748380       -1.37164420435616        0.89038717307830
C            4.10604977767668       -1.88658715045128        1.80949411000141
C            5.46017189994910       -1.60434334595937        1.71038650481194
C            5.90985008112704       -0.77732893858076        0.70037749516442
O            4.98139946612111        0.78566803941912       -2.39208436663768
H            7.13780082258543        3.38056779781524       -1.50047341738403
H            8.25231360340551        2.11443513885645       -2.06660217357854
H            6.65562025484637        2.30096288202465       -2.82970581260672
H            6.98656517846339        1.37332472263332       -0.04480163449207
H            3.29515688235459        0.31788000474796       -1.93769442775357
H           -1.12881536887255        0.89090129631894       -3.14156690874173
H           -0.60094118889764       -0.89938415480608        1.70376099635190
H           -2.16122294337672       -1.27928404489580        3.30724321221254
H           -4.51917750824416       -1.27195923077754        4.00401500293597
H           -6.28866923203327       -0.58135437675116        2.43300659592125
H           -5.46209906786134        0.43690896685321       -1.01484953110992
H           -8.81334937067054        1.29409371186465       -1.06164102234588
H           -6.65647742006446       -0.17282724324052       -2.68248449114140
H           -8.11323920606071        0.71761451012263       -3.32640293604489
H           -3.30253343954828        0.09585926221359       -0.56431776544479
H            2.16664464437789       -1.60145188928274        0.94653712770799
H            3.74599397236494       -2.52878598766391        2.59935023855780
H            6.16020235890976       -2.02926776804261        2.41326998952048
H            6.97062994578133       -0.58862820006259        0.61367994383399