25
 
C            2.73321743303189       -0.63662944679745        1.93520987027023
C            3.76909612134241       -0.68635603582172        1.01529557780850
C            3.51298131159641       -0.34828078707117       -0.30514140836737
C            2.25243627963093        0.03650533727316       -0.71021766785097
C            1.19784786870339        0.08752527922316        0.21051641586159
N           -0.06569414393174        0.48069636735691       -0.12234178684823
C           -0.64714353117716        0.68913468127397       -1.39928103782529
C           -1.97376888515636        1.16191969802167       -1.34362265550894
C           -2.63674862301992        1.60199824696084       -0.18457576501408
O           -0.01369477183341        0.45725711509464       -2.43633978564438
C            1.46724416103231       -0.25718642248903        1.54389068852771
H            4.31487753005313       -0.38511606819212       -1.03202061553219
H            2.04784094378293        0.28833632393218       -1.73774435157782
H           -0.73811253485025        0.45388168016292        0.63310296238250
H           -2.52890218771942        1.11366883845126       -2.27085946279532
H           -3.59331592814006        2.08391347107707       -0.34430230510603
H           -2.05532402566135        2.09962218223086        0.58219125914766
H            0.66146644615344       -0.22345899957937        2.26601549634807
H            4.76176604543618       -0.98667186908861        1.32413064183821
H            2.91679074837737       -0.89906083254426        2.97003362270207
S           -3.30452020267616        0.01594162048598        1.08419256279914
C           -3.06209473226647       -1.34420476758818       -0.06308722335171
H           -2.46819505471068       -2.12100299861561        0.41356979933808
H           -2.52323966571373       -0.93544372183661       -0.92801859567825
H           -4.02481060228230       -1.74698889192092       -0.37361976422611