36
 
C           -4.76061599600001       -0.79826574335343       -1.85912291324554
C           -5.21704465038177        0.33377917796017       -2.52003683201020
C           -4.38298174826544        1.43608375991056       -2.61584936747755
C           -3.12031142983129        1.40896531700154       -2.06320934758165
C           -2.64756597300750        0.26856086638346       -1.39305108706613
N           -1.38976657602795        0.28337384703734       -0.87116172479965
C           -0.68602151315199       -0.69876548875942       -0.08824776982403
C            0.54783612709344       -0.22430421988087        0.35121782799564
C            1.43096979189856       -1.01786253503926        1.14423121878688
C            2.16637917246133       -0.32499092574599        2.28251897643882
N            2.51853618752912        1.06191135974857        2.01927800685762
C            3.58588016454875        1.18535223523043        1.05214705817392
C            2.85392264340860        1.75614177448949        3.23928408674137
O           -1.21384906215988       -1.79386439267774        0.14871572534530
C           -3.50065877215736       -0.84082098793669       -1.30383780893099
H           -4.72298909459139        2.32883779414646       -3.12736636720241
H           -2.47658111628247        2.27732966014579       -2.14232103850005
H           -0.88365721804714        1.14975407235542       -0.98936012907402
H            0.86762517557901        0.77048389030702        0.07728585855432
H            0.94303973062493       -1.92453567743698        1.50073486958766
H            1.48399673930693       -0.31989348949698        3.14071093398700
H            3.05855034860141       -0.91789131873238        2.56053508040244
H            3.32686862721066        0.61995363758505        0.16255449779826
H            3.71084566217472        2.23797907292672        0.78917973165919
H            4.54608135473061        0.79789666311253        1.43319578382670
H            3.06695822964333        2.80122728003763        3.00779810042784
H            2.00687345399402        1.71950029711314        3.92483908375642
H            3.73649110134213        1.32966567087926        3.75177955165326
H           -3.13978522115202       -1.71521442275545       -0.78757033174308
H           -6.20797873089970        0.35734856036158       -2.95388303176897
H           -5.40462144750615       -1.66495675276177       -1.77808136502657
S            2.90758886987150       -1.90501211916713        0.05973442008499
C            1.89912019044120       -2.42641404870238       -1.33684788319080
H            1.06430518535421       -1.72652759861361       -1.40551551200682
H            2.50572052518413       -2.38966344182539       -2.23847480682271
H            1.52683926848338       -3.43516177385857       -1.17180349580842