74
 
C            7.09455872720338        0.43113604742586        1.48540533340200
N            6.40281350576452        1.52519976458755        0.85508911294699
C            5.04422726255893        1.62388613187209        0.88591389594580
C            4.50899672481843        2.75773723627418        0.07870206907369
C            3.42849076180898        2.58270713395936       -0.80815154968760
N            2.87235123880345        1.35891301738706       -1.06806621856965
C            3.49128843698098        0.17247188171265       -1.08292899595371
C            4.82790671418819       -0.06516703054994       -1.49817518239324
Cl           5.82076022472244        1.17897699358139       -2.19937470655641
C            5.30427553066100       -1.35275722155386       -1.41932874829312
N            4.56203857587200       -2.37918801673755       -1.02813552532370
C            3.27445964253898       -2.09317742025514       -0.77114372017203
N            2.49523543667022       -3.16372321427326       -0.47367977874081
C            1.13282199389965       -3.20414444876846       -0.20620405426559
C            0.58629171972956       -4.42518608442797        0.23774464733403
O            1.48366954610209       -5.47549143563584        0.36634940912100
C            0.99323353774049       -6.69884170122633        0.83857527743171
C           -0.76745291633358       -4.50381580272117        0.50764314207966
C           -1.59740150160744       -3.40243844309190        0.34935680338986
C           -1.06712967519423       -2.19763768800741       -0.09453547588010
N           -1.81164496538419       -1.04164441644199       -0.30428998424412
C           -3.08919942970276       -0.79971050257433        0.05851420274277
C           -3.57783608445585        0.55961555503690       -0.32753311991383
C           -4.58809124996729        1.17380466370777        0.60842403222600
N           -5.87709063422401        1.34732477585833       -0.05126863693154
C           -6.38974632893532        0.06912143740119       -0.54152583623819
C           -7.89895161007919        0.13431623218071       -0.72226718752387
O           -8.59028917304270        0.34060492914995        0.49967484546804
C           -7.82245281087443        1.05130941942112        1.45413718482402
C           -6.86079231719832        2.02913792361707        0.77876016825625
C           -3.22220862101029        1.15718799270046       -1.45918499328748
O           -3.81890454000011       -1.58533457151248        0.65404947781369
C            0.29597216333062       -2.11696962449483       -0.37548512792226
N            2.74204725688892       -0.88497820429230       -0.78318925194098
C            2.85842600785022        3.71409286029706       -1.40513437422789
C            3.37258806937887        4.96976467096717       -1.17323028809783
C            4.47413736198908        5.13452330980001       -0.34386629948514
C            5.02635911123465        4.03116356114983        0.27992446705396
O            4.35646527283085        0.89830617680159        1.57776168190547
H            7.50351797207340       -0.26081186129668        0.74403495119816
H            7.90533478927802        0.80312278338222        2.11654565951976
H            6.36575637462102       -0.09740594490245        2.09904458659182
H            6.89951702558784        2.04991336773708        0.15208859608073
H            1.75740149514945        1.31613466711994       -1.09705961990522
H            6.32592505816559       -1.58461918659958       -1.69714170574131
H            2.98473850355161       -4.04337670460702       -0.39384972233726
H            0.56062185431479       -6.60260101736142        1.84091630059233
H            0.24173211915084       -7.12352753823313        0.16273484706927
H            1.85338917213763       -7.36727536646496        0.88240555052709
H           -1.20509246822623       -5.42863168117609        0.85196071138039
H           -2.64685591233929       -3.48083094397952        0.57625296288657
H           -1.24860318796858       -0.23637793056948       -0.65647368674749
H           -4.67268406644506        0.53492272808410        1.50365818620856
H           -4.23906656439565        2.16568785075989        0.91226213706984
H           -6.13643067850399       -0.75498517579972        0.14256313594165
H           -5.91587628852577       -0.14155845733962       -1.50459514063954
H           -8.14752118572750        0.94190657237136       -1.42739363299175
H           -8.27495149785541       -0.80877972454478       -1.12890886857985
H           -8.53768629755336        1.57804813333102        2.09311436140016
H           -7.25118351142458        0.34630868848441        2.07656212594176
H           -6.35422316302371        2.63048783969887        1.53596574493972
H           -7.44174010785556        2.70763722407416        0.14060841261387
H           -3.61994906013531        2.12598663032121       -1.71289584371572
H           -2.53714729251676        0.71827562900931       -2.16118400673588
H            0.71508444242111       -1.18669903623631       -0.71836395696807
H            1.99784767534998        3.57170199560684       -2.04093855488880
H            2.91864481599009        5.83136355295449       -1.64293890536548
H            4.88636282298078        6.11837768503898       -0.16990994619990
H            5.85375251726280        4.15765341525091        0.96604927054575
S           -0.05691658515677        1.43979200435133       -1.01824047350531
C            0.00421778489308        1.75860559123655        0.76457788507611
H            0.46176880481805        2.73182743347127        0.93980429917681
H           -1.01300695859142        1.75465146918687        1.15532330955523
H            0.59309863286299        0.98397941886305        1.25165475383789