37
 
C            4.99348002608224        0.22300451402061       -1.26761316394206
C            5.62805395930759        0.07149754652783       -0.04529595011158
C            4.85554683237707       -0.07511179996759        1.09870658175320
C            3.47969428483504       -0.07792011260715        1.03465848225922
C            2.82556396042137        0.07574855188202       -0.19627100317923
N            1.47001184016903        0.05208248410983       -0.32460553520704
C            0.44919670282524        0.09952983400493        0.69209602558584
C           -0.83666860457554       -0.18763783846083        0.24003526014851
C           -1.95407422506795        0.03086675377019        1.13043674689828
C           -3.06208229941859       -1.01484940645152        1.06840087436843
N           -3.41136336986161       -1.50242970248657       -0.25617687463816
C           -4.31977112760009       -0.63383126185754       -0.97651761044521
C           -2.21241191525587       -1.83000518998996       -1.00423830926647
C           -1.20719576656191       -0.67395629020617       -1.13777226423005
O            0.77662223849472        0.36220750911164        1.86295304218154
C            3.61704590414708        0.22714246284308       -1.34639807656845
H            5.34112560797160       -0.19228949191046        2.05939218248210
H            2.87538849610922       -0.17597029326301        1.92113237648956
H            1.13062251435133        0.17085812288885       -1.26715797191987
H           -1.62324730228866        0.18635344981821        2.15713273116344
H           -2.71279347720223       -1.88584131729523        1.64025592193829
H           -3.96970885841852       -0.63346153118305        1.54400194531297
H           -4.55341843543104       -1.09640075743011       -1.93801482698208
H           -3.93304238385613        0.37612810507204       -1.14909090854473
H           -5.24100725569530       -0.54558263888754       -0.39929193332081
H           -2.51732631549198       -2.19181224051161       -1.99377463882583
H           -1.72212422499650       -2.65491440962552       -0.47373213210624
H           -0.34362596974995       -1.05572279449337       -1.68880793147914
H           -1.66473818067505        0.12741398753898       -1.73697417373593
H            3.13185049406418        0.34696715909025       -2.30845125238494
H            6.70836454959773        0.06964320487677        0.01476305022729
H            5.58045493508130        0.34044642363352       -2.17086499109594
S           -2.84268890866614        1.78380748480040        0.79447145861029
C           -1.39540628386640        2.82303732583506        1.06970769123772
H           -0.53558450268372        2.32060776437042        0.63011812964698
H           -1.56855116931265        3.78059352605167        0.58565522380843
H           -1.23619176915869        2.95980086638097        2.13713182387290