32
 
C            1.39118639119766       -0.55539195326226       -0.57009332184267
C            0.89458291169868        0.02817457474023        0.51733453155842
C           -0.54334894167265       -0.04295282635813        0.90971505589024
O           -0.88437299635586       -0.15485483044029        2.06974605301652
N           -1.40373281134252        0.04027806878934       -0.14833211585264
C           -2.80032508529056       -0.01273272366264       -0.15349744754432
C           -3.55191352937135       -0.26198089888424        0.99114881514094
C           -4.93179796361189       -0.30457435065793        0.91029698625405
C           -5.57840052651696       -0.10294393844174       -0.29699709360122
H           -6.65603137390137       -0.13739289750535       -0.35122235584068
C           -4.83202818284533        0.14359451020135       -1.43751991842197
H           -5.32515444849188        0.30241058291598       -2.38551099480665
C           -3.45331634666192        0.18841909277346       -1.36906128340881
C            1.79633756269793        0.71821244262814        1.49647749392950
C            3.23579398202938        0.25258839712059        1.31235177581335
N            3.59894124910482        0.38717161800190       -0.08657394897295
C            5.02051341916402        0.25715194254676       -0.30929322510726
C            2.84803260828816       -0.54265048504175       -0.90367592189920
H            0.77185442534506       -1.12288877508471       -1.25243449341439
H           -0.98410672373458        0.19802254040413       -1.05424736236522
H           -3.05215134405956       -0.41648295000285        1.93204382819378
H           -5.50573929420340       -0.49901568284344        1.80399282144174
H           -2.87286333024847        0.38105482307753       -2.26159002369816
H            1.73857261043535        1.79817803414575        1.33460543367274
H            1.44158158588184        0.50945448616789        2.50748541076690
H            3.33534092771290       -0.79148142622747        1.65921760283389
H            3.90775602595609        0.87527620808544        1.90660662539610
H            5.41342185313105       -0.72937519360799       -0.01201115092205
H            5.23160141724675        0.40760754909746       -1.36737492657716
H            5.54200401884609        1.02456348738335        0.26016122146682
H            3.23041684835902       -1.58098282870623       -0.80253310291165
H            2.97734506121960       -0.25645659734318       -1.95416020603107