42
 
C            6.12955726957185       -0.25518046866131       -1.93260623343892
N            5.39080706930665       -1.23650037140338       -1.49794182498782
C            4.21622997310722       -0.94634862000590       -0.90614691029874
C            3.40675879713338       -2.00145757998726       -0.43554624507058
C            2.20975822511998       -1.75189547773543        0.17095699361095
H            1.59168937392239       -2.56006500551774        0.52499693733751
C            1.75684485514977       -0.42513733910150        0.33910739740152
N            0.54877127591812       -0.12592426682153        0.97037706372380
C           -0.47764412497404       -0.95657126656962        1.29745035160250
O           -0.48092330033065       -2.15714628832161        1.13425266464609
C           -1.65571428242365       -0.22498511258605        1.93387403549988
C           -2.34787009585659        0.77926332549972        1.01067383543046
S           -1.37777213046126        2.32270592823739        0.75728825685740
C           -1.77880710133092        3.19227070375146        2.30088738221674
C           -2.67466815963126        0.15530714391498       -0.34974647781894
N           -3.68059458351681       -0.87651272677978       -0.16255530193889
C           -3.33943977593614       -2.13887063090592       -0.78530851989275
C           -5.00794423059616       -0.42822795384014       -0.52098502401847
C            2.52701656030960        0.62453587221662       -0.10981563596390
C            3.76083583380019        0.39175927473526       -0.73854913637159
C            4.58984307242834        1.42512227941858       -1.22509239570366
H            4.27368223281108        2.45412776287112       -1.11823388170292
C            5.77635709132833        1.10270720356371       -1.82418801186687
H            6.43688784294394        1.86414211358401       -2.21021124797529
H            7.06409112113092       -0.53962008787047       -2.40026503739768
H            3.76313896561210       -3.01053592765131       -0.56890263038729
H            0.35979041027289        0.86967731988265        1.05656074937297
H           -1.31470431622151        0.26887195139852        2.84740696009309
H           -2.39157101441623       -0.98517543823105        2.20160951873358
H           -3.27947818692148        1.10630119677195        1.48055807543895
H           -1.24866655295527        4.13819617610979        2.27113346620804
H           -2.84990651509062        3.36767642967364        2.34748149924248
H           -1.44831647932911        2.60925978561671        3.15580157617470
H           -1.76366941867374       -0.27378117486154       -0.77398371940491
H           -3.01752607796952        0.94282799133773       -1.03559270214582
H           -3.27183356291707       -2.07133101630345       -1.88163939335113
H           -2.38724131051036       -2.48537672519454       -0.38834209720123
H           -4.10424164239158       -2.87117772001715       -0.53089103904117
H           -5.24005959441914        0.48826310808720        0.02057464924012
H           -5.73016261410487       -1.19002432101180       -0.23084246340988
H           -5.11752167106457       -0.23475361551761       -1.60014731392379
H            2.18421677217220        1.64358356822274        0.01270327828826