36
 
C            1.81859556106751       -1.74596493605132       -0.73601245131964
C            0.35802851503819       -2.00216521297616       -0.67077260954786
O           -0.09725813653390       -3.11484467011680       -0.83380527600670
N           -0.39004456029595       -0.88270068414185       -0.42250500021611
C           -1.76632001691422       -0.75602723753393       -0.23905634052514
C           -2.63697475393505       -1.86711138140558       -0.29645734987811
H           -2.22056975868720       -2.83958162619879       -0.49928823449466
C           -3.97738300155981       -1.70569124463545       -0.09933385482263
C           -4.52526692205033       -0.43306803577452        0.16719351109790
N           -5.85281132369726       -0.31918647265945        0.36077243307723
C           -6.34883180072815        0.85990512929271        0.60862057322242
C           -5.57925504556421        2.03539722609342        0.68766721265761
H           -6.05739241099081        2.97999332029100        0.89761130925676
C           -4.22812753616765        1.94789993183193        0.49395522807730
H           -3.59429920679227        2.82319294784315        0.54480756713379
C           -3.65111748953090        0.68866577477096        0.22347684306970
C           -2.27541257338121        0.49871981315257        0.01490889451281
C            2.47885918638752       -0.82930312573731       -0.03853822323739
C            3.96615924097057       -0.66510870825537       -0.07199488900912
N            4.34323855528007        0.74293528395271       -0.09373745657894
C            4.30928440523572        1.33728908152171        1.22627275198127
C            5.63480145424346        0.94747326688547       -0.71554021622801
H            2.35261915050327       -2.45970693494845       -1.34826464705313
H            0.11941292982031       -0.01103519486762       -0.37327801083975
H           -4.65095451305344       -2.54676874982998       -0.14116486158322
H           -7.42075520203680        0.89940744423299        0.75728812863355
H           -1.61808859541434        1.35797116030210        0.05944456046425
H            1.95765188426385       -0.15171066135932        0.62459271704562
H            4.35701673782971       -1.15000564504627       -0.96877348103704
H            4.40273718707208       -1.18398481428730        0.80319713373912
H            4.50205724980897        2.40547511761301        1.13815774392639
H            5.05930816208606        0.90007535448516        1.90535631165494
H            3.32561179979733        1.20371712970626        1.67146302439983
H            5.83617134540766        2.01675987347899       -0.76218858392482
H            5.61259775971247        0.55728676379382       -1.73175017956563
H            6.45671172280789        0.46180071657782       -0.16641345803726