28
Properties=species:S:1:pos:R:3:forces:R:3 charge=0 spin=1 energy=-173.10202026367188 free_energy=-173.10202026367188 stress="0.0 0.0 0.0 0.0 0.0 0.0 0.0 0.0 0.0" pbc="F F F"
O        2.76450203       2.16561493      -1.37880974       0.00465181       0.00192064       0.00088152
C        3.25336119       1.22968898      -0.74645363      -0.00526500      -0.00401863      -0.00145823
C        4.71173960       1.14861895      -0.43521974      -0.00176361       0.00034294      -0.00754228
C        5.20759340       0.57281180       0.66605580       0.00478578       0.00156182       0.00540590
N        2.48852325       0.18294995      -0.23418277       0.00212808       0.00809865       0.00023836
C        1.10026169       0.05185201      -0.25372805       0.00805141      -0.00276708       0.00161527
C        0.55034879      -1.16692299       0.19225949      -0.00170568      -0.00468898      -0.00080368
C       -0.81732423      -1.36196871       0.22686674       0.00376266       0.00309601      -0.00070275
C       -1.70754534      -0.34221206      -0.18993341      -0.00620684      -0.00079540       0.00100122
N       -3.07552416      -0.53129684      -0.15663339       0.00925095      -0.00186319       0.00290426
C       -3.63061072      -1.75502156       0.39496915      -0.00269324       0.00515583      -0.00017272
C       -3.97420172       0.51093408      -0.62358788      -0.00234699       0.00251903      -0.00112975
C       -1.14145336       0.87492422      -0.63866211       0.00146843       0.00390285       0.00111932
C        0.23094792       1.07793631      -0.66914978       0.00198656       0.00024247      -0.00163504
H        5.33779647       1.72468013      -1.11748122       0.00004926      -0.00063711      -0.00429550
H        6.27775084       0.60040534       0.87356031       0.00068322       0.00350084      -0.00052378
H        4.58062615       0.07907533       1.40816587      -0.00088121      -0.00144315       0.00358236
H        3.00922677      -0.61052912       0.13241234      -0.00188317       0.00193890       0.00367925
H        1.21721868      -1.97115486       0.51283274      -0.00163502       0.00262436      -0.00199128
H       -1.21288468      -2.31867787       0.56803669      -0.00480399      -0.00134209       0.00011197
H       -3.30384688      -1.91157304       1.43501890      -0.00594103      -0.00189193      -0.00027004
H       -3.33321995      -2.63820145      -0.19249035      -0.00144028      -0.00184581      -0.00277515
H       -4.72405635      -1.69538906       0.38707255      -0.00125170      -0.00315467      -0.00149447
H       -3.78226340       0.76369748      -1.67778358       0.00294677       0.00077799       0.00272880
H       -3.87577110       1.43405428      -0.03032561      -0.00236630      -0.00392528       0.00412114
H       -5.00923610       0.16300236      -0.54023100      -0.00058836       0.00214497      -0.00280567
H       -1.79825326       1.68081600      -0.96579895       0.00096950      -0.00410354       0.00158361
H        0.65581604       2.02007824      -1.02082960       0.00003795      -0.00535056      -0.00137259
