25
Properties=species:S:1:pos:R:3:forces:R:3 charge=-1 spin=1 energy=-152.04522705078125 free_energy=-152.04522705078125 stress="0.0 0.0 0.0 0.0 0.0 0.0 0.0 0.0 0.0" pbc="F F F"
O        1.07286049       0.99607497       0.78554230       0.00334566      -0.00131519       0.00082301
C        0.93848338      -0.24315800       0.70095831       0.00335111       0.00612402       0.00297810
C        2.02905035      -1.16591957       0.79742397      -0.00637674      -0.00155339      -0.00009570
C        3.39077656      -0.65836754       1.00414327       0.00402656       0.00177599      -0.00229594
N       -0.30545882      -0.84692886       0.45275148       0.00544962       0.00207856      -0.00231706
C       -1.56020589      -0.24244829       0.32428053      -0.00023565      -0.00085088      -0.00329889
C       -1.79125710       1.11295594       0.62309123      -0.00087433       0.00407785       0.00173511
C       -3.07485114       1.63935501       0.48054245       0.00325482      -0.00192297      -0.00231543
C       -4.13869402       0.83933042       0.04991552      -0.00675571       0.00686999       0.00111805
C       -3.91065264      -0.50869972      -0.24227126      -0.00328586       0.00155917       0.00091243
C       -2.63521906      -1.04568269      -0.10784594       0.00638437      -0.00034337       0.00084504
H        1.84992893      -2.23752863       0.67998573       0.00026712      -0.00483505       0.00480206
H        3.42226261       0.38155143       1.35471817      -0.00089997      -0.00067276       0.00244714
H        4.01733698      -1.30941367       1.62563891       0.00134146       0.00190218      -0.00047040
H       -0.28773724      -1.85619050       0.33438905      -0.00127829      -0.00320341       0.00107759
H       -0.94773530       1.72070255       0.95747452      -0.00368178      -0.00344837      -0.00307341
H       -3.24570815       2.69387821       0.70824213      -0.00239497       0.00247681       0.00620774
H       -4.73147621      -1.14486456      -0.58256326       0.00222549      -0.00165087       0.00013976
H       -2.45384754      -2.09738101      -0.34314708       0.00349890       0.00174755      -0.00705256
H       -5.14117014       1.26504929      -0.05929413       0.00308114      -0.00415333      -0.00229250
S        4.10014623      -0.79979621      -0.68048707       0.00262749      -0.00338654      -0.00402422
C        3.43545595       0.65158837      -1.50374915      -0.00223520       0.00116104       0.00482987
H        3.71090668       1.57443653      -0.97813042      -0.00247357       0.00031218      -0.00128258
H        3.89914454       0.65671696      -2.49840144      -0.00657175      -0.00253430       0.00260010
H        2.34447534       0.60715858      -1.60916700      -0.00179023      -0.00021486      -0.00199731
