33
Properties=species:S:1:pos:R:3:forces:R:3 charge=-1 spin=1 energy=-196.6830291748047 free_energy=-196.6830291748047 stress="0.0 0.0 0.0 0.0 0.0 0.0 0.0 0.0 0.0" pbc="F F F"
O        2.50398632       1.25516847       0.08819059       0.00303557       0.00470512      -0.00363262
C        2.35727204       0.58544883       1.13405348       0.00015055       0.00310937       0.00211006
C        3.40467659       0.28916950       2.05351297      -0.00004190       0.00571550      -0.00234750
C        4.77058547       0.74714851       1.76507200      -0.00200915      -0.00572933       0.00326377
N        1.11392162       0.00661518       1.46782709      -0.00021297      -0.00412239       0.00295976
C       -0.08442827       0.09936781       0.77896761       0.00001484       0.00274587      -0.00430081
C       -1.13097329      -0.78188491       1.12983479      -0.00101383      -0.00011948      -0.00285515
C       -2.35049214      -0.73422387       0.48382791      -0.00472399      -0.00232664       0.00017372
C       -2.59079465       0.20044838      -0.55387443      -0.00585012       0.00246121      -0.00621238
N       -3.80487261       0.24472759      -1.20981317       0.00343163      -0.00713948       0.00552868
C       -4.00592264       1.15716519      -2.32352199       0.00198729      -0.00145554      -0.00196289
C       -4.84260115      -0.72145888      -0.89155858      -0.00589678       0.00399016      -0.00070968
C       -1.53719392       1.08618516      -0.88950958       0.00518176      -0.00577620      -0.00118279
C       -0.31360652       1.04484799      -0.24170324      -0.00278245      -0.00701940       0.00292066
H        3.20160304      -0.31401399       2.94195531      -0.00460398      -0.00272648       0.00147703
H        4.81112692       1.54119407       1.00819307       0.00618915       0.00276184      -0.00233328
H        5.34658820       1.01871037       2.65791293      -0.00128759       0.00253004      -0.00170171
H        1.11808357      -0.59959788       2.28381683       0.00195691       0.00094407       0.00907134
H       -0.96484139      -1.52112135       1.91664941      -0.00069364      -0.00174704      -0.00136635
H       -3.13687954      -1.43101362       0.77513211       0.00046951       0.00172968      -0.00327446
H       -5.02529903       1.04368229      -2.70742635       0.00394416       0.00422255       0.00454894
H       -3.87426598       2.20416051      -2.01128686      -0.00029972       0.00559285       0.00024109
H       -3.30362004       0.95767856      -3.14893784      -0.00020523       0.00031244       0.00236312
H       -4.51771160      -1.75490451      -1.09463692       0.00129165      -0.00093878       0.00354891
H       -5.72837313      -0.51675251      -1.50189368      -0.00610623       0.00167077       0.00487760
H       -5.13708700      -0.65780826       0.16725517       0.00143794       0.00216515      -0.00776922
H       -1.69081191       1.82040619      -1.68012721      -0.00140024      -0.00422177       0.00037298
H        0.50025494       1.72347113      -0.50806675       0.00577086      -0.00519782      -0.00189257
S        5.57352202      -0.78396097       1.15149593       0.00071387       0.00602230      -0.00283086
C        4.91894075      -0.92272294      -0.51617185       0.00180314      -0.00559417       0.00024655
H        5.49166663      -1.73266353      -0.98551428       0.00214503       0.00005420      -0.00104862
H        5.06938313       0.00130784      -1.08752469      -0.00017834      -0.00043311       0.00224374
H        3.85354829      -1.18454491      -0.52525965      -0.00221776       0.00381492      -0.00052723
