25
Properties=species:S:1:pos:R:3:forces:R:3 charge=-1 spin=1 energy=-152.03915405273438 free_energy=-152.03915405273438 stress="0.0 0.0 0.0 0.0 0.0 0.0 0.0 0.0 0.0" pbc="F F F"
O        0.66509595       0.96227637       1.12233216      -0.00180987       0.00144815       0.00200186
C        0.65434298      -0.26524800       0.88987719       0.00419389      -0.00559843       0.00251777
C        1.66926238      -1.16621757       1.34583659       0.00073075       0.00721791       0.00425397
C        2.80352681      -0.64495756       2.11944346      -0.00133404       0.00469834       0.00169939
N       -0.34385353      -0.87166324       0.10954584       0.00002462       0.00144319       0.00068920
C       -1.49599999      -0.30068166      -0.44087333      -0.00476883      -0.00023611       0.00354537
C       -1.90919102       1.01581442      -0.16441924      -0.00391313       0.00076532      -0.00340779
C       -3.08763990       1.49987557      -0.73308412       0.00075404       0.00247997       0.00503010
C       -3.86742766       0.69642707      -1.57179680       0.00134157      -0.00308771      -0.00123797
C       -3.45523412      -0.61051382      -1.84905563      -0.00350872       0.00578028       0.00099522
C       -2.28086167      -1.10457619      -1.29261320       0.00071892      -0.00087491      -0.00080508
H        1.61360746      -2.22748338       1.09120802      -0.00149048       0.00040409      -0.00097817
H        3.17510284      -1.33687496       2.88481385       0.00080511       0.00090769      -0.00429413
H        2.62527690       0.35492520       2.53640995       0.00048890      -0.00171942      -0.00182271
H       -0.21640948      -1.86369137      -0.07084783       0.00385358      -0.00309295      -0.00053935
H       -1.28714869       1.62728115       0.49248488      -0.00315894      -0.00345191       0.00195003
H       -3.40210289       2.52326311      -0.51535050       0.00201757      -0.00453699      -0.00075731
H       -4.79196025       1.08688110      -2.00875307       0.00887498       0.00234996      -0.00277553
H       -4.05122991      -1.24875593      -2.50582918       0.00056219       0.00047353      -0.00140786
H       -1.95234103      -2.12296542      -1.51464099      -0.00371520      -0.00173765       0.00145400
S        4.12466070      -0.59467265       0.84989449       0.00160205      -0.00229022       0.00106520
C        3.73898827       0.91197175      -0.04801352      -0.00121228      -0.00114465       0.00312772
H        4.54938623       1.02803072      -0.77882204       0.00092446      -0.00075831      -0.00364058
H        2.77866875       0.84853546      -0.57445336       0.00072564       0.00124426      -0.00293311
H        3.73029560       1.78543842       0.61595615      -0.00270711      -0.00068361      -0.00373027
