20
Properties=species:S:1:pos:R:3:forces:R:3 charge=0 spin=1 energy=-128.5934600830078 free_energy=-128.5934600830078 stress="0.0 0.0 0.0 0.0 0.0 0.0 0.0 0.0 0.0" pbc="F F F"
O        1.16663558      -2.25353057       0.69502274       0.00099323       0.00753037       0.00093123
C        1.63837098      -1.16078686       0.37584645       0.00030163      -0.00159514      -0.00337228
C        3.11281125      -0.94275745       0.26110907       0.00227378      -0.00287360       0.00229125
C        3.71596599       0.22038934       0.52595451       0.00622047       0.00143987      -0.00671935
N        0.85515402      -0.03939449       0.14320509      -0.00245948       0.00262791       0.00065323
C       -0.53569505       0.05174520       0.29229274      -0.00557713      -0.00550698       0.00261048
C       -1.37527902      -0.93420465       0.82618815      -0.00447299       0.00090957       0.00687674
C       -2.75168546      -0.69317904       0.92780054       0.00096720       0.00058985      -0.00547965
C       -3.30024709       0.51961385       0.50606890       0.00437614       0.00060876      -0.00227166
C       -2.48013115       1.52207935      -0.02568323      -0.00383481      -0.00169238       0.00082192
C       -1.12622383       1.26259668      -0.11916783       0.00259280       0.00422651       0.00036244
F       -0.26952832       2.21302437      -0.63033170      -0.00765204      -0.00409280      -0.00198599
H        3.67290526      -1.86087269       0.07826000      -0.00214680       0.00213206      -0.00225955
H        4.80330760       0.30285398       0.49623361      -0.00427541      -0.00263037       0.00436666
H        3.16752470       1.12214035       0.79772808       0.00640907      -0.00407773       0.00278793
H        1.29329508       0.78692077      -0.26273426       0.00528707       0.00495726       0.00153995
H       -0.92529321      -1.87620259       1.14340659       0.00389588      -0.00716352       0.00006481
H       -3.39978164      -1.47050765       1.33838113       0.00130498       0.00265884       0.00159569
H       -4.37749207       0.69647559       0.58630206      -0.00108045       0.00092765      -0.00026681
H       -2.87351599       2.48045269      -0.36351358      -0.00312310       0.00102365      -0.00254701
