20
Properties=species:S:1:pos:R:3:forces:R:3 charge=0 spin=1 energy=-127.11570739746094 free_energy=-127.11570739746094 stress="0.0 0.0 0.0 0.0 0.0 0.0 0.0 0.0 0.0" pbc="F F F"
O        1.71746775       0.20417454      -1.45288879      -0.00599624       0.00057394      -0.00765386
C        1.81014815       0.05000385      -0.23574859       0.00600904      -0.00101896       0.00109351
C        3.10701543      -0.02476762       0.49949296       0.00501831       0.00025838       0.00039928
C        4.26102372       0.07929869      -0.16197620       0.00149521       0.00062865      -0.00307360
N        0.70315101      -0.07156179       0.60449891      -0.00350831      -0.00197130      -0.00454777
C       -0.65848908      -0.04471876       0.26704377       0.00196424      -0.00037661      -0.00090772
C       -1.58387575      -0.19245944       1.31661493      -0.00517893      -0.00307140       0.00448351
C       -2.95023730      -0.17211850       1.05069047      -0.00706407       0.00217976      -0.00320125
C       -3.42047050      -0.00734839      -0.25345517       0.00183403      -0.00095448       0.00149874
C       -2.48877988       0.13856222      -1.28667293      -0.00386108      -0.00011179      -0.00262175
Cl      -3.06716646       0.34282223      -2.90668740       0.00617812      -0.00185035      -0.00003918
C       -1.11174782       0.12322929      -1.05232043      -0.00241609       0.00060725      -0.00184730
H        3.06233214      -0.16542107       1.58231239       0.00395583       0.00004257       0.00449982
H        5.22286955       0.02870774       0.35200406      -0.00842407       0.00102318      -0.00160898
H        4.26433457       0.21778693      -1.24387564       0.00330554      -0.00038725       0.00226432
H        0.90754696      -0.19725706       1.59242398       0.00069183       0.00073220       0.00722724
H       -1.22325078      -0.32384444       2.34004806      -0.00181094       0.00367125      -0.00373271
H       -3.66015930      -0.28705137       1.87394455       0.00229967      -0.00132440       0.00197786
H       -4.48836569       0.01228927      -0.48236724       0.00274834      -0.00152823       0.00496516
H       -0.39224827       0.23652819      -1.86264269       0.00275952       0.00287757       0.00082472
