26
Properties=species:S:1:pos:R:3:forces:R:3 charge=0 spin=1 energy=-156.97605895996094 free_energy=-156.97605895996094 stress="0.0 0.0 0.0 0.0 0.0 0.0 0.0 0.0 0.0" pbc="F F F"
C       -3.56288626       1.29641042       0.97642111       0.00198519      -0.00314021       0.00277367
C       -4.01849528       0.02586336       1.33743045      -0.00052944      -0.00114349      -0.00189918
C       -3.25246102      -1.09957137       1.01701204      -0.00466323       0.00049403       0.00351524
H       -3.60231404      -2.09679708       1.29317197       0.00007445       0.00014812       0.00017752
C       -2.04072940      -0.96971530       0.33769785       0.00360309      -0.00488156      -0.00088689
C       -1.58792643       0.30679187      -0.02072623      -0.00113666      -0.00227020      -0.00287552
N       -0.39285129       0.50718113      -0.74517154      -0.00191137       0.00109619       0.00222881
C        0.69984541      -0.33196889      -0.79322919      -0.00214472      -0.00549689       0.00297537
O        0.77085444      -1.38538697      -0.15719640       0.00018224       0.00534385      -0.00292642
C        1.80145034       0.16438242      -1.72219453       0.00412667      -0.00354493      -0.00203129
C        3.13182209      -0.54341875      -1.52417288      -0.00505781      -0.00050938       0.00011149
S        4.21867092       0.20673429      -0.28057386       0.00096394       0.00231701       0.00227740
C        3.37134335      -0.14540494       1.27497747      -0.00428796      -0.00194710      -0.00261337
C       -2.35175025       1.43986490       0.30382249       0.00217287       0.00148121      -0.00014976
H       -4.14983823       2.18460276       1.22128285      -0.00128517       0.00580364      -0.00061515
H       -4.97012943      -0.08563440       1.86619706       0.00337926      -0.00234740      -0.00129959
H       -1.43186644      -1.83735797       0.08103337      -0.00208740       0.00130922       0.00004508
H       -0.33006891       1.37589996      -1.26997478       0.00133358       0.00005048      -0.00064137
H        1.91528932       1.25484715      -1.61504294      -0.00112002       0.00335658      -0.00013281
H        1.43480889      -0.01169392      -2.75025662      -0.00180777      -0.00029853      -0.00085258
H        3.71574569      -0.47415684      -2.45178950       0.00200430       0.00208619      -0.00063670
H        2.96514999      -1.60802283      -1.30887622       0.00127403      -0.00047345       0.00101697
H        2.46259329       0.45849227       1.40097091       0.00040394      -0.00198099      -0.00059809
H        4.07775390       0.12364279       2.07019458       0.00171096       0.00025017       0.00317308
H        3.10596942      -1.20555659       1.36462367       0.00218673      -0.00018521       0.00094787
H       -1.98495288       2.43327323       0.03593093       0.00063019       0.00448290      -0.00108377
