20
Properties=species:S:1:pos:R:3:forces:R:3 charge=0 spin=1 energy=-128.4886474609375 free_energy=-128.4886474609375 stress="0.0 0.0 0.0 0.0 0.0 0.0 0.0 0.0 0.0" pbc="F F F"
C        3.66398290       0.71337126      -0.00796187      -0.00222465      -0.00664523      -0.00022508
C        3.18996901      -0.45422052      -0.45404692       0.00311679      -0.00042616      -0.00072713
C        1.76591079      -0.88785395      -0.30319674      -0.00721437      -0.00076920      -0.00156261
O        1.45849158      -2.07167275      -0.16577273       0.00579400      -0.00171079       0.00285573
N        0.83417348       0.14200515      -0.29612150       0.00223620      -0.00327724       0.00330855
C       -0.54848962       0.02587858      -0.06608890       0.00195098      -0.00847774      -0.00137314
C       -1.11192285      -1.07270983       0.60367976       0.00188990       0.00729993       0.00274175
C       -2.48879734      -1.10404756       0.82726045      -0.00274019      -0.00407860       0.00436065
C       -3.31154849      -0.05641753       0.39977943       0.00002643      -0.00555455      -0.00132323
C       -2.74705216       1.03741347      -0.26117869      -0.00227511       0.00059488       0.00403432
H       -3.37674625       1.86185764      -0.60346817      -0.00250846       0.00236526      -0.00245450
C       -1.37535764       1.08001100      -0.49517744       0.00414458       0.00904709      -0.00046418
H        3.03076350       1.46374206       0.46544781       0.00004380       0.00418147      -0.00230967
H        4.72664987       0.94787139      -0.08031190      -0.00176387      -0.00136696       0.00150459
H        3.84316143      -1.23909048      -0.83773263      -0.00284436       0.00488642       0.00028756
H        1.16458498       1.05586207      -0.59659430       0.00392490       0.00576896      -0.00260404
H       -0.45807592      -1.88521162       0.92421811       0.00075376      -0.00033915      -0.00131704
H       -2.92367705      -1.96352044       1.34239335      -0.00268871       0.00151080      -0.00092435
H       -4.39063315      -0.09334994       0.57928640       0.00056061      -0.00035051      -0.00040807
H       -0.93428977       1.92774340      -1.02515937      -0.00018236      -0.00265843      -0.00340015
