26
Properties=species:S:1:pos:R:3:forces:R:3 charge=0 spin=1 energy=-157.0404815673828 free_energy=-157.0404815673828 stress="0.0 0.0 0.0 0.0 0.0 0.0 0.0 0.0 0.0" pbc="F F F"
C       -4.16149390       0.29074911       0.93092778      -0.00049853       0.00122814       0.00462830
C       -3.75492888      -0.96935033       0.48213576       0.00360191      -0.00518653       0.00472668
C       -2.43223109      -1.20453357       0.10245308      -0.00578022      -0.00055641      -0.00275671
C       -1.49797995      -0.15757230       0.17594586       0.00253744      -0.00202480       0.00676810
N       -0.14920204      -0.29998675      -0.19802891       0.00342914      -0.00044719      -0.00394596
C        0.51654530      -1.45205657      -0.56089722      -0.00106329      -0.00085276       0.00798402
O        0.00720438      -2.57029518      -0.62456195       0.00484810       0.00458508      -0.00636405
C        1.99272268      -1.20515749      -0.88044939      -0.00274808      -0.00135979       0.00018582
C        2.79346089      -0.58909294       0.26991219       0.00059597      -0.00297832      -0.00004549
S        2.61056985       1.20846342       0.50959920       0.00028178       0.00168102      -0.00642724
C        3.47588855       1.83939258      -0.94273261       0.00554783      -0.00317429      -0.00007880
C       -1.90835402       1.11174446       0.62693162      -0.00038019      -0.00425085       0.00433238
H       -1.17419205       1.91898335       0.68066070      -0.00201435       0.00512104      -0.00080341
C       -3.23035371       1.33124341       1.00043341       0.00070880       0.00508866      -0.00371617
H       -5.20169901       0.46269339       1.22467351      -0.00044659      -0.00005225      -0.00330511
H       -4.47634703      -1.78765693       0.42394713       0.00022468       0.00348395      -0.00343168
H       -2.10191790      -2.18295381      -0.24888925      -0.00118183      -0.00391203      -0.00160422
H        0.45166731       0.53608461      -0.11640457       0.00303435       0.00867860       0.00074317
H        2.04762092      -0.57284859      -1.78142621       0.00377421      -0.00168040      -0.00610268
H        2.40286186      -2.18908980      -1.14095896      -0.00076409      -0.00430162       0.00591721
H        3.86259831      -0.81051311       0.14180639      -0.00352094       0.00067691      -0.00004155
H        2.49095997      -1.03652112       1.22817143       0.00115543      -0.00126325       0.00302166
H        2.98450477       1.54560865      -1.87919422       0.00055128      -0.00072631       0.00364761
H        4.52319944       1.51098181      -0.95657669      -0.00753607       0.00187735       0.00019763
H        3.45817446       2.93321778      -0.87166425      -0.00232944       0.00359198      -0.00259048
H       -3.53424593       2.32175574       1.34689054      -0.00202721      -0.00324541      -0.00093901
