20
Properties=species:S:1:pos:R:3:forces:R:3 charge=0 spin=1 energy=-128.4849090576172 free_energy=-128.4849090576172 stress="0.0 0.0 0.0 0.0 0.0 0.0 0.0 0.0 0.0" pbc="F F F"
C        2.88469293      -0.95740462       2.31694007       0.00303130      -0.00293025      -0.00678910
C        2.67196095      -1.57206657       1.14915358       0.00164609       0.00123623       0.00050993
C        1.43587228      -1.38922060       0.32467520       0.00275841       0.00269967       0.00718191
O        0.96299212      -2.30762490      -0.34406794       0.00313891       0.00141156      -0.00794071
N        0.85734245      -0.12920862       0.40871769      -0.00286609      -0.00428730       0.00456186
C       -0.36509001       0.29463013      -0.14370955      -0.00112082       0.00313153       0.00375843
C       -0.63621089       1.67567891      -0.13612584      -0.00099716       0.00447708       0.00139232
C       -1.84250883       2.15924840      -0.63405732      -0.00071831      -0.00054532       0.00068615
C       -2.79262642       1.27392315      -1.15023718      -0.00285460       0.00343862      -0.00177430
H       -3.74075175       1.65205447      -1.54546850       0.00518939       0.00152011      -0.00009397
C       -2.52262487      -0.09799828      -1.15996542      -0.00519517       0.00204101      -0.00201577
C       -1.31910615      -0.59822267      -0.65987765       0.00097355      -0.00406253       0.00542305
H        3.76767677      -1.18785900       2.91438264      -0.00543426      -0.00076216      -0.00436482
H        2.18641805      -0.23361063       2.73726583      -0.00158108       0.00641339      -0.00152987
H        3.32067345      -2.36985875       0.78569737       0.00244676      -0.00077796      -0.00144157
H        1.42121639       0.59339255       0.85046941      -0.00542847       0.00107069       0.00588715
H        0.11136248       2.36751287       0.26050280       0.00100563      -0.00412869      -0.00075354
H       -2.03817045       3.23405120      -0.62162035       0.00273020      -0.00542074      -0.00113993
H       -3.25980154      -0.79513282      -1.56488656       0.00513175      -0.00173989      -0.00310248
H       -1.09222052      -1.66542947      -0.66659552      -0.00185622      -0.00278538       0.00154518
