30
Properties=species:S:1:pos:R:3:forces:R:3 charge=0 spin=1 energy=-197.15963745117188 free_energy=-197.15963745117188 stress="0.0 0.0 0.0 0.0 0.0 0.0 0.0 0.0 0.0" pbc="F F F"
C        5.06030155       1.33433343       0.24555688       0.00254453       0.00202361       0.00381659
C        5.01437515      -0.00001562       0.17629111      -0.00039177      -0.00690494       0.00144307
C        3.81080878      -0.81262584       0.53517489       0.00217640      -0.00032115      -0.00410733
O        3.91240733      -1.93817467       1.02365285      -0.00051994      -0.00111357       0.00177688
N        2.59138330      -0.19006782       0.31074105       0.00236645       0.00683339      -0.00120357
C        1.31744154      -0.67167281       0.65830228       0.00257584       0.00038068      -0.00558900
C        1.12259086      -1.69115662       1.60207723      -0.00226819      -0.00362208       0.00310802
C       -0.17917740      -2.08745235       1.90813244      -0.00072227       0.00404593      -0.00050005
C       -1.28114313      -1.48054947       1.29455058       0.00294341      -0.00029704      -0.00047237
C       -1.09769508      -0.45623749       0.35586337       0.00176452       0.00291996       0.00017171
C       -2.26127284       0.20598446      -0.30425249       0.00556834      -0.00149187      -0.00061767
C       -2.24356890       1.58261568      -0.57619963       0.00296102       0.00657931       0.00278433
C       -3.33137090       2.20569466      -1.19608684      -0.00452473      -0.00524125      -0.00173865
C       -4.45449249       1.45702798      -1.55740139       0.00227037      -0.00097461       0.00172207
C       -4.48455085       0.08490358      -1.29371665      -0.00300422      -0.00214534      -0.00132385
C       -3.39584121      -0.53278770      -0.66987637      -0.00529191      -0.00023180      -0.00215940
C        0.20722712      -0.06031980       0.04520041      -0.00167255       0.00020797      -0.00058433
H        5.98776683       1.87047158       0.04203601       0.00000127       0.00088659      -0.00142039
H        4.19956857       1.94103806       0.52740014      -0.00185396      -0.00167367      -0.00002455
H        5.90317495      -0.60335738      -0.01198623      -0.00090894       0.00157794      -0.00142761
H        2.61165522       0.65641832      -0.25221646      -0.00135557      -0.00179048       0.00214152
H        1.99421082      -2.15840340       2.06268520       0.00206745       0.00345430       0.00197043
H       -0.33914983      -2.88204841       2.63866643      -0.00030006      -0.00167298      -0.00273529
H       -2.29490801      -1.78832307       1.56285965      -0.00512516       0.00301118       0.00300044
H       -1.37767768       2.17767707      -0.27560059      -0.00104505      -0.00276887       0.00138135
H       -3.29639031       3.27880613      -1.39602187       0.00089169      -0.00074929       0.00291431
H       -5.30529424       1.94147832      -2.04561762       0.00064948      -0.00238816      -0.00086358
H       -5.35427258      -0.51238834      -1.57673282       0.00060976       0.00120577      -0.00180864
H       -3.41297083      -1.60991085      -0.48680639       0.00022891      -0.00049505      -0.00045593
H        0.37158988       0.70692055      -0.71429429      -0.00063514       0.00075553       0.00080143
