35
Properties=species:S:1:pos:R:3:forces:R:3 charge=-1 spin=1 energy=-220.7099151611328 free_energy=-220.7099151611328 stress="0.0 0.0 0.0 0.0 0.0 0.0 0.0 0.0 0.0" pbc="F F F"
O        2.56043070      -0.85825368       1.22418851       0.00203248      -0.00219782       0.00089246
C        1.82091672      -1.03993444       0.23286885      -0.00190361       0.00153404      -0.00213820
C        2.29355300      -1.48624069      -1.03944896      -0.00137544      -0.00138268       0.00460283
C        3.72639920      -1.75295145      -1.22211628      -0.00048932      -0.00298142      -0.00209502
N        0.44257384      -0.75716187       0.26668404       0.00424698       0.00098559       0.00025225
C       -0.31543498      -0.32093157       1.34955503      -0.00173349      -0.00240135       0.00483583
C        0.14812930      -0.44284974       2.67518318      -0.00320926      -0.00086522      -0.00211102
C       -0.66256268      -0.08369995       3.74549216      -0.00005844      -0.00055995       0.00443190
C       -1.95768998       0.39392433       3.52308881      -0.00528055       0.00051652       0.00597194
C       -2.42062776       0.51711826       2.21344729      -0.00638279       0.00195324       0.00471416
C       -1.62740128       0.19031347       1.10582878       0.00543261      -0.00402713      -0.00226927
C       -2.16678600       0.40888975      -0.26564723       0.00065417      -0.00123991      -0.00362212
C       -3.48319563       0.01884065      -0.57331154      -0.00327045      -0.00087543      -0.00100918
C       -4.02611991       0.25402548      -1.83792656       0.00080279       0.00484253      -0.00469807
C       -3.26421798       0.89225047      -2.82010898      -0.00341187       0.00164157       0.00159027
C       -1.96026315       1.29919385      -2.52798091       0.00171660       0.00062236      -0.00481510
C       -1.41834328       1.06454398      -1.26191875       0.00113171       0.00044248       0.00350833
H        1.59839655      -1.58841819      -1.87637058       0.00079939       0.00089267       0.00124414
H        3.93956467      -2.56619874      -1.92557649      -0.00424351      -0.00203997      -0.00433434
H        4.26694357      -1.89027160      -0.27677346       0.00336030       0.00216480       0.00281143
H       -0.05774810      -0.87036098      -0.61157805       0.00264544      -0.00290860       0.00137775
H        1.15694393      -0.83485784       2.81304386       0.00211412       0.00107984       0.00041103
H       -0.27877257      -0.18516457       4.76299343      -0.00196774      -0.00004620       0.00714719
H       -2.60344782       0.67375006       4.35908270       0.00272995      -0.00034197      -0.00432265
H       -3.42013745       0.91513316       2.02501082      -0.00423318       0.00188504      -0.00438053
H       -4.07272204      -0.49765453       0.18796142       0.00653327       0.00001028       0.00014862
H       -5.04788621      -0.06519915      -2.05502002       0.00185692      -0.00141563      -0.00167451
H       -3.68724349       1.07491199      -3.81196155       0.00018774       0.00087807      -0.00040343
H       -1.36003423       1.80876257      -3.28433822      -0.00152850      -0.00399587       0.00457171
H       -0.41300242       1.42065266      -1.02563828       0.00419283       0.00234403      -0.00010843
S        4.29217587      -0.23142235      -2.07453880      -0.00315946       0.00170156      -0.00106291
C        4.46010995       0.93046882      -0.71479495       0.00666794       0.00016636      -0.00727049
H        4.86136685       1.84686389      -1.16582435       0.00073185       0.00362796      -0.00073691
H        5.16650662       0.56647477       0.04134297      -0.00231500      -0.00102194      -0.00064070
H        3.49923639       1.14952928      -0.23385027      -0.00327454       0.00101189      -0.00081921
