32
Properties=species:S:1:pos:R:3:forces:R:3 charge=0 spin=1 energy=-196.0448455810547 free_energy=-196.0448455810547 stress="0.0 0.0 0.0 0.0 0.0 0.0 0.0 0.0 0.0" pbc="F F F"
C       -3.60467962      -2.43287427       0.03116653      -0.00817302      -0.00011368       0.00295386
C       -2.44930947      -3.12330831      -0.36463182       0.00046498       0.00414747       0.00091791
C       -1.23509545      -2.45995833      -0.50286409      -0.00367491      -0.00339371      -0.00113805
C       -1.14323495      -1.08170646      -0.24463456       0.00356713      -0.00052193       0.00010875
N        0.04352490      -0.36038074      -0.34887889      -0.00518641       0.00550550       0.00211489
C        1.28312413      -0.81178911      -0.76246219       0.00765675       0.00539106       0.00058474
O        1.51468622      -1.96549317      -1.13320801      -0.00051671      -0.00886975      -0.00159941
C        2.35640017       0.26588143      -0.71076486      -0.00406286      -0.00160274      -0.00630260
C        3.69480148      -0.24792736      -1.21393512      -0.00434601      -0.00065218       0.00276498
S        4.99508447       1.00623887      -1.27836041      -0.00103794       0.00352401       0.00099946
C        5.32516328       1.27684177       0.47280090       0.00514595       0.00013680      -0.00191766
C       -2.31976347      -0.37267094       0.16081892       0.00379497       0.00355432       0.00095213
C       -2.27011641       1.07051991       0.45070311      -0.00226453      -0.00583494      -0.00080315
O       -1.26884157       1.80204345       0.39528152       0.00495812       0.00275701       0.00347693
O       -3.49044028       1.54858917       0.80627723       0.00385457       0.00534428       0.00380606
C       -3.55775060       2.95199545       1.11773136       0.00392564       0.00339998       0.00183066
C       -3.53416214      -1.07238651       0.28794957      -0.00400496      -0.00514797       0.00064882
H       -4.55751169      -2.95941404       0.13649413      -0.00558567       0.00108263      -0.00336584
H       -2.49606595      -4.19480535      -0.57036134       0.00071494      -0.00373596      -0.00204159
H       -0.32619832      -2.97793866      -0.81254942      -0.00061151       0.00629082       0.00421562
H       -0.08258345       0.63828384      -0.08451634       0.00040629      -0.00501898      -0.00294183
H        2.41869963       0.62447978       0.33029746       0.00283415       0.00110488       0.00278541
H        2.01775442       1.12801166      -1.30744805       0.00155802      -0.00146545       0.00113072
H        4.01967993      -1.11618903      -0.62375902       0.00333333      -0.00140905       0.00397065
H        3.58148283      -0.60332575      -2.24741977       0.00348908      -0.00068715      -0.00507855
H        4.46277296       1.70468908       1.00275050      -0.00090583       0.00340304      -0.00233375
H        5.64035054       0.35406291       0.97911351      -0.00059380       0.00252089      -0.00114559
H        6.14977695       1.99867413       0.52547048      -0.00078069       0.00026530       0.00189880
H       -3.26315323       3.55379131       0.24685598      -0.00019087      -0.00270477       0.00061201
H       -2.89100781       3.19198702       1.95805481      -0.00608994      -0.00335039      -0.00492519
H       -4.60207908       3.14887187       1.38624106       0.00047889      -0.00356270      -0.00104492
H       -4.41888783      -0.51115062       0.59433343       0.00184268      -0.00035648      -0.00113443
