21
Properties=species:S:1:pos:R:3:forces:R:3 charge=0 spin=1 energy=-141.0779266357422 free_energy=-141.0779266357422 stress="0.0 0.0 0.0 0.0 0.0 0.0 0.0 0.0 0.0" pbc="F F F"
O       -1.83390144       1.98890647      -0.11655632       0.00081336      -0.00521978      -0.00029806
C       -2.11425302       0.80256037       0.04749285      -0.00133631       0.00854284      -0.00029211
C       -3.52894747       0.32046274       0.08351617       0.00404346       0.00216709      -0.00461317
C       -3.91432127      -0.88290961      -0.35463639      -0.00112163      -0.00048158       0.00156242
N       -1.15090740      -0.19159278       0.18108631      -0.00309673      -0.00302103       0.00480712
C        0.24070526      -0.04195899       0.07994067       0.00292124      -0.00463233       0.00008897
C        1.04607609      -1.07763769       0.59420461      -0.00364980       0.00274584      -0.00335591
C        2.42882700      -1.00995029       0.49639460       0.00087135      -0.00283766       0.00496793
C        3.03624697       0.09993292      -0.11806367       0.00306778       0.00693846       0.00188350
C        4.46585348       0.17977086      -0.21363348      -0.00400935       0.00162703      -0.00217619
N        5.62994537       0.24540361      -0.28619428      -0.00032333      -0.00136305      -0.00005088
C        2.23053599       1.13149240      -0.63247833       0.00064271       0.00436762       0.00306448
C        0.84160465       1.06697944      -0.53965012      -0.00064116       0.00045943      -0.00211802
H       -4.24544800       1.09265634       0.36600780      -0.00085229       0.00180387      -0.00207667
H       -3.21112619      -1.62421565      -0.73415791      -0.00322722      -0.00284541      -0.00256661
H       -4.96975523      -1.15753776      -0.37271645       0.00333810      -0.00223334       0.00231235
H       -1.48159656      -1.10604998       0.47920578      -0.00138477       0.00397631       0.00145773
H        0.57310987      -1.93310719       1.07965255       0.00065951      -0.00455000       0.00202972
H        3.05299189      -1.81142832       0.89710832      -0.00137794      -0.00119707      -0.00046171
H        2.70605140       1.99034289      -1.10966331       0.00061892       0.00151202      -0.00269492
H        0.20461438       1.86287594      -0.92603551       0.00404423      -0.00575909      -0.00147004
