24
Properties=species:S:1:pos:R:3:forces:R:3 charge=0 spin=1 energy=-151.13343811035156 free_energy=-151.13343811035156 stress="0.0 0.0 0.0 0.0 0.0 0.0 0.0 0.0 0.0" pbc="F F F"
O        1.73775288      -1.95465657       1.84057678       0.00432792       0.00367823      -0.00318985
C        1.98744670      -0.90786357       1.23953172      -0.00276357       0.00465983       0.00115633
C        3.36427099      -0.32769656       1.20952996      -0.00791089      -0.00086358      -0.00079530
C        3.85053042       0.41962229       0.21259713      -0.00280556      -0.00350633      -0.00739026
N        1.02993297      -0.20843860       0.51344736      -0.00031570       0.00337000       0.00028788
C       -0.30468449      -0.57739398       0.30247021       0.00590560       0.00120890       0.00409813
C       -0.88415044      -1.78087239       0.71465838      -0.00643789       0.00044245      -0.00164336
C       -2.23147524      -2.03991585       0.44253379       0.00141664      -0.00043941       0.00036322
C       -3.00559074      -1.10640127      -0.24395851      -0.00106582       0.00833607      -0.00513550
C       -2.44133259       0.10284882      -0.66805832       0.00061449      -0.00138158      -0.00000344
C       -1.10241654       0.36816640      -0.39997151       0.00175348       0.00562946       0.00131571
O       -0.42501663       1.50697328      -0.76168740      -0.00147197      -0.00127196       0.00316641
C       -1.12301854       2.52601657      -1.49209906      -0.00210828      -0.00491771      -0.00016350
H        3.99529525      -0.68434295       2.02471173       0.00243430       0.00109507       0.00663292
H        3.25848293       0.70899196      -0.65561699       0.00389658      -0.00453649       0.00106707
H        4.88991977       0.74946627       0.22348786      -0.00000045       0.00141306      -0.00387420
H        1.27446864       0.71352056       0.15264161       0.00058086      -0.00105758      -0.00083260
H       -0.25341907      -2.48882453       1.25411597       0.00159426      -0.00447974      -0.00151265
H       -2.67206669      -2.98354638       0.77294919      -0.00152652      -0.00348815      -0.00033583
H       -4.05804200      -1.30429380      -0.46326819      -0.00513861      -0.00068443       0.00408334
H       -3.04239055       0.83710289      -1.20451853       0.00343406      -0.00657943      -0.00367749
H       -1.51251097       2.14067173      -2.44853685       0.00389214      -0.00092500       0.00432820
H       -0.38914984       3.31514413      -1.69199190       0.00279483       0.00327718       0.00447461
H       -1.95566252       2.94249443      -0.90279421      -0.00109975       0.00102128      -0.00241955
