24
Properties=species:S:1:pos:R:3:forces:R:3 charge=0 spin=1 energy=-151.19308471679688 free_energy=-151.19308471679688 stress="0.0 0.0 0.0 0.0 0.0 0.0 0.0 0.0 0.0" pbc="F F F"
O       -2.48435137      -0.06173170      -2.21894809       0.00327123       0.00653826       0.00585646
C       -2.75703488       0.26406596      -1.06373861      -0.00043169      -0.00248072      -0.00662440
C       -4.16382050       0.48281689      -0.60980160      -0.00565886       0.00216075       0.00495918
C       -4.59344137       0.21349796       0.62812179      -0.00133400       0.00308830      -0.00164157
N       -1.79177987       0.41840771      -0.07355855       0.00748174       0.00308878       0.00081077
C       -0.42214612       0.14529111      -0.17455663       0.00302336       0.00507830      -0.00487677
C        0.13282373      -0.61499143      -1.22488635       0.00138260      -0.00399715       0.00093871
C        1.49229739      -0.88110624      -1.24031950      -0.00653781      -0.00518043       0.00072598
C        2.32857970      -0.41025195      -0.21354453      -0.00900605      -0.00050013       0.00296908
O        3.63974768      -0.75257035      -0.33765437       0.00578746       0.00559947      -0.00223106
C        4.57725377      -0.34665143       0.66595556       0.00273070      -0.00247836       0.00418997
C        1.78527158       0.35270934       0.83492628       0.00205774      -0.00094594      -0.00567272
C        0.42101231       0.62379129       0.84290214       0.00179493      -0.00692791       0.00403592
H       -4.84952873       0.74141634      -1.41728585      -0.00654782      -0.00237051      -0.00422877
H       -3.93024253      -0.14494700       1.41532115       0.00311510      -0.00529806       0.00322491
H       -5.64775579       0.31770499       0.88697460       0.00141361       0.00732165      -0.00663513
H       -2.10326885       0.85723466       0.78980672      -0.00080000      -0.00411102       0.00398922
H       -0.52712404      -0.97144306      -2.01814453      -0.00227222      -0.00071366       0.00368887
H        1.95055150      -1.46297224      -2.04005825       0.00440440      -0.00317270       0.00105447
H        4.64820019       0.75108924       0.73741326      -0.00454745       0.00448681      -0.00067503
H        5.54440163      -0.75314829       0.34782866      -0.00389192      -0.00054862      -0.00368398
H        4.31597847      -0.75591712       1.65585287       0.00183807       0.00496469       0.00042447
H        2.42267625       0.73333934       1.63338496       0.00021476      -0.00213208       0.00311169
H       -0.00112707       1.22113791       1.65451476       0.00251214      -0.00146984      -0.00370991
