28
Properties=species:S:1:pos:R:3:charge:R:1:forces:R:3 energy=-26020.864647344264 pbc="F F F"
C        2.74515066      -0.82963298      -1.51196112      -0.05373658       0.00275484      -0.00005030       0.00029620
C        1.94945911      -0.82511497      -0.27111400      -0.23966905      -0.00055299      -0.00203672      -0.00090659
C        1.21613232       0.29521179       0.09430395       0.10222380       0.00346333       0.00001744       0.00211128
O        1.04905805       1.34778522      -0.57498307      -0.40512556      -0.00089663       0.00096633      -0.00301193
N        0.59296441       0.24304933       1.39025511      -0.19307250      -0.00180489      -0.00097048       0.00046830
C       -0.64277373       0.96345368       1.54197432       0.00038179      -0.00131055       0.00185901       0.00028504
C       -1.87310343       0.26094358       1.00465898       0.01446660       0.00039013       0.00460873      -0.00023522
C       -3.11315362       0.49660364       1.58928470      -0.04260930      -0.00484221      -0.00649787       0.00417097
C       -4.26820807      -0.11141586       1.11327515      -0.05196881      -0.00413859       0.00054346      -0.00595188
C       -4.19199103      -0.98228655       0.03479814      -0.05867205      -0.00170691      -0.00267059       0.00244913
C       -2.95731274      -1.22939273      -0.54964750      -0.04859472       0.00565144       0.00130902       0.00087419
C       -1.80458028      -0.61926073      -0.07187980      -0.03626643       0.00518977       0.00612783       0.00134060
H        2.75412747      -1.79254696      -2.02761668       0.00306159       0.00356588       0.00113208       0.00072381
H        2.38493064      -0.06305537      -2.19818368       0.00909493       0.00014422      -0.00227499      -0.00029970
H        2.04753078      -1.65882746       0.41584461       0.01602599      -0.00057997      -0.00536389      -0.00045094
H        0.54417548      -0.70306757       1.73135715       0.09976698      -0.00170143      -0.00361014      -0.00013646
H       -0.51733789       1.91703693       1.02645274       0.00393947      -0.00010690      -0.00148688       0.00110494
H       -0.82052304       1.17853076       2.59974003       0.01202889       0.00518029      -0.00333607      -0.00186886
H       -3.16986969       1.16595592       2.43792000       0.02123525       0.00096247       0.00406400      -0.00110127
H       -5.22142284       0.09501051       1.58266771       0.01965426       0.00182155      -0.00100595       0.00118688
H       -5.08128869      -1.46454098      -0.34811238       0.01872562       0.00027947       0.00427488       0.00228763
H       -2.88670761      -1.90519212      -1.39117848       0.02046927      -0.00297515      -0.00059976      -0.00131867
H       -0.85232899      -0.82338295      -0.54178868       0.01983655      -0.00080721      -0.00048576      -0.00211888
S        4.58147680      -0.46816850      -1.32933995      -0.19123407      -0.00138879      -0.00244476       0.00221538
C        4.41601124       1.13270698      -0.52928460      -0.09102903       0.00072809      -0.00082012      -0.00023673
H        3.92663603       1.84098859      -1.19164781       0.01709918      -0.00347378       0.00215482      -0.00527497
H        5.40380646       1.49982006      -0.25371960       0.01084506       0.00310120       0.00441162       0.00101024
H        3.78865549       1.01697609       0.35037570       0.02311424      -0.00694661       0.00218484       0.00238762
