18
Properties=species:S:1:pos:R:3:charge:R:1:forces:R:3 energy=-19729.285688734693 pbc="F F F"
C       -1.79701583       0.20842412       1.34196051      -0.00860702       0.00209932       0.00179926      -0.00250764
N       -0.96066358      -0.10920136       0.20765403      -0.11230776      -0.00114534       0.00198968       0.00164572
C       -1.35181237       0.19958417      -1.03004284       0.19583634      -0.00199695      -0.00711195       0.00471863
O       -2.42470783       0.75600868      -1.28178069      -0.41186085      -0.00181816       0.00047350       0.00221105
C       -0.43516023      -0.15601092      -2.16099487      -0.03305346      -0.00111764       0.00629156       0.00171090
C        0.74822629      -0.75225190      -2.09524419      -0.06011346       0.00473681      -0.00040558      -0.00194168
H       -2.69517239      -0.41095998       1.35577334       0.02055723       0.00424828       0.00094013      -0.00321872
H       -1.22478830       0.03392900       2.24935230       0.02301328      -0.00253032      -0.00090313      -0.00399556
H       -2.10882451       1.25012273       1.29556055       0.02076462      -0.00001517      -0.00132042       0.00002206
H       -0.06443800      -0.55591575       0.40510151       0.06918067      -0.00315691       0.00167411      -0.00085846
H       -0.85027749       0.13589985      -3.11684100       0.01611247       0.00020736      -0.00219803       0.00031907
H        1.29586508      -0.95277667      -3.01041302       0.02314597      -0.00157723       0.00173298      -0.00055374
H        1.21626573      -1.05422504      -1.16561914       0.02604817       0.00103804      -0.00057007       0.00627146
S        1.73120458      -1.39543349       1.64656682      -0.68376285      -0.00113503       0.00039850       0.00066923
C        2.15888812       0.38088673       1.75104320      -0.10814019       0.00292402       0.00316959      -0.00278523
H        2.03950231       0.89830308       0.79129749       0.02137354       0.00255357      -0.00380229       0.00114708
H        1.53112355       0.91566042       2.46896587       0.00944907      -0.00073463      -0.00049810      -0.00102215
H        3.19568922       0.54218325       2.05727614      -0.00764539      -0.00257976      -0.00165977      -0.00183225
