29
Properties=species:S:1:pos:R:3:charge:R:1:forces:R:3 energy=-26036.936334009624 pbc="F F F"
C       -4.27570156       1.23452008       0.05202702      -0.04074119       0.00296240       0.00252840      -0.00481717
C       -4.07617239       0.63718179      -1.18339108      -0.04415769      -0.00173660      -0.00809127      -0.00177133
C       -3.00087073      -0.22119297      -1.36377713      -0.04099187       0.00189597      -0.00054314      -0.00186593
H       -2.83683768      -0.69444886      -2.32105778       0.04596537      -0.00512228       0.00088557      -0.00165883
C       -2.12835397      -0.47913952      -0.31793324      -0.04276473      -0.00298248      -0.00478168      -0.00182342
C       -2.32002253       0.12113825       0.92269850      -0.01026068      -0.00227149      -0.00273869       0.00030609
C       -1.35436966      -0.15436074       2.05145758       0.01834199       0.00439066       0.00057448      -0.00012351
N        0.00027067       0.25044058       1.72257695      -0.11212543       0.00265585       0.00251438      -0.00033446
C        0.95424107      -0.64610233       1.34726278       0.19712171       0.00102223      -0.00133757       0.00429533
O        0.77115763      -1.84967992       1.39187265      -0.32829076       0.00123273      -0.00034833       0.00154119
C        2.25792323      -0.02778160       0.86476750      -0.03854181      -0.00705349      -0.00002776       0.00355756
C        3.29555676      -1.09090836       0.54165666      -0.03585139      -0.00918035      -0.00205558       0.00175660
S        4.89321507      -0.40554818       0.05754703      -0.12702860       0.00327967       0.00234243       0.00596768
C        4.47146730       0.18995950      -1.58885277      -0.06052125       0.00046150      -0.00127839       0.00398032
C       -3.39971491       0.97497210       1.09796136      -0.04361355      -0.00295431       0.00048029      -0.00313097
H       -5.11223165       1.90213787       0.20337854       0.04566129       0.00065592      -0.00068987       0.00146781
H       -4.75272589       0.83424322      -2.00167117       0.04429312      -0.00032808       0.00470692       0.00488663
H       -1.29121543      -1.14986563      -0.45848933       0.03199327       0.00298868       0.00363990      -0.00312680
H       -1.32500769      -1.21651940       2.28063930       0.03073023       0.00134404      -0.00103353      -0.00002704
H       -1.67731741       0.37620535       2.94603544       0.04277736       0.00016708       0.00170217       0.00102544
H        0.16235132       1.22883786       1.55991148       0.13826500      -0.00218469       0.00310759       0.00586417
H        2.04297921       0.58425469      -0.01587560       0.04188619       0.00200660       0.00149866       0.00045466
H        2.63987263       0.64906540       1.63145913       0.04185829       0.00077192      -0.00328071       0.00457050
H        2.93031556      -1.74208953      -0.24783137       0.03784215       0.00253072      -0.00805104      -0.00535031
H        3.46673331      -1.71230400       1.41650967       0.03703060       0.00842735       0.00003783       0.00195836
H        4.05659118      -0.61248533      -2.19373589       0.04200461       0.00169045       0.00194447      -0.00780669
H        3.76639601       1.01467612      -1.55039803       0.04305071      -0.00155482       0.00313883      -0.00583090
H        5.39048953       0.53891821      -2.05121235       0.04211134      -0.00303490       0.00013108      -0.00294171
H       -3.55758019       1.43905021       2.06229372       0.04395563      -0.00008064       0.00502497      -0.00102299
