20
Properties=species:S:1:pos:R:3:charge:R:1:forces:R:3 energy=-20782.7912990638 pbc="F F F"
C        3.16048029      -0.55518544       0.30973278      -0.05784396       0.00179210      -0.00209762      -0.00103929
S        2.30302569       0.45986166      -0.90705066      -0.10161908       0.00594362      -0.00046875      -0.00125654
C        0.73043541       0.64070397      -0.05319203      -0.00337266      -0.00200124       0.00474299       0.00062520
C       -0.20679114       1.61155314      -0.75915197      -0.04570243      -0.00444742       0.00420531      -0.00160915
C       -1.59686906       1.11100521      -0.39245846       0.17286240       0.00195663      -0.00086994       0.00136138
O       -2.63972631       1.71204396      -0.52320430      -0.34645987       0.00046823      -0.00015213      -0.00378718
N       -1.45464025      -0.15001514       0.10404891      -0.08398689      -0.00093689      -0.00326394      -0.00487323
C       -2.58402907      -1.00499192       0.37810540      -0.00826082      -0.00220724       0.00088527       0.00281361
C       -0.09420821      -0.64939026       0.04210982       0.01800225      -0.00106686      -0.00393258       0.00447682
H        4.19185200      -0.65991138      -0.01783311       0.04425153       0.00018259      -0.00162781       0.00412331
H        3.14571089      -0.07775200       1.28561215       0.04406707       0.00023598      -0.00085388      -0.00669712
H        2.71756119      -1.54372740       0.38626077       0.04449749       0.00170383       0.00063166      -0.00026562
H        0.94529566       1.00157609       0.94975852       0.04187790      -0.00384197       0.00108421       0.00652019
H       -0.08983560       1.56513294      -1.84191871       0.03847348      -0.00679783       0.00409251      -0.00261270
H       -0.07756465       2.64171021      -0.44802070       0.04905071       0.00724549       0.00312315      -0.00171169
H       -2.48747163      -1.46272854       1.36128217       0.04317386       0.00230471      -0.00422284      -0.00515611
H       -2.67725517      -1.78965437      -0.37420766       0.04305593      -0.00155292       0.00376377       0.00658230
H       -3.47519087      -0.38780945       0.35803257       0.03283371      -0.00052856      -0.00203256      -0.00337021
H        0.05270303      -1.28152792      -0.83828395       0.03226221      -0.00200995       0.00188296      -0.00130264
H        0.14761580      -1.23403913       0.92963304       0.04283711       0.00355804      -0.00488979       0.00717839
