23
Properties=species:S:1:pos:R:3:charge:R:1:forces:R:3 energy=-12053.11293928031 pbc="F F F"
C        3.79088519      -1.04266245      -0.28283254      -0.06843728       0.00526921      -0.00017056       0.00113463
C        2.62278493      -0.42627167      -0.38612504      -0.05195957      -0.00070009       0.00190271       0.00475592
C        1.46562751      -0.84007594       0.47372622       0.17288175      -0.00166479       0.00324859      -0.00599896
O        1.61670548      -1.65461003       1.37190275      -0.34359643       0.00129304       0.00150912      -0.00387261
N        0.25170989      -0.27001379       0.23050721      -0.09056292      -0.00669057       0.00228159       0.00083682
C       -0.83762681      -0.58228043       1.15497937       0.01465054      -0.00501254      -0.00163497       0.00372287
C       -1.78488736       0.60346296       1.24770546      -0.03618389      -0.00185532       0.00541841      -0.00514305
C       -2.40782495       0.94235763      -0.11452489      -0.03281771       0.00116573      -0.00164960      -0.00337633
C       -1.52518275       0.45763592      -1.26903526      -0.03493832       0.00546565       0.00346254      -0.00025760
C       -0.05107383       0.57780719      -0.92146449       0.02319129       0.00204521      -0.00075088      -0.00195380
H        3.92185976      -1.85291064       0.42107075       0.03612722       0.00972874      -0.00185477       0.00103920
H        4.63564123      -0.74954118      -0.89043022       0.04817811       0.00332641      -0.00688605      -0.00128600
H        2.50121818       0.39947954      -1.07325104       0.04303864      -0.00886682      -0.00001124       0.00330385
H       -0.39130412      -0.81798862       2.11456304       0.02930951      -0.00027947      -0.00125220       0.00604713
H       -1.37120542      -1.47782403       0.82557080       0.03151888      -0.00422755      -0.00227944      -0.00593453
H       -1.21438388       1.45564731       1.62386828       0.02672598       0.00303404       0.00319144      -0.00147327
H       -2.56325165       0.39489011       1.97925700       0.03665973       0.00341233       0.00393502       0.00084989
H       -2.54715688       2.02139460      -0.18776543       0.03038992      -0.00175549      -0.00262127       0.00390168
H       -3.39720113       0.49493785      -0.20944047       0.03072488       0.00229272      -0.00846245       0.00191125
H       -1.73552635       1.03256146      -2.17010577       0.03721560      -0.00436596      -0.00145948       0.00094006
H       -1.73383063      -0.58944382      -1.49664299       0.02572998      -0.00051189       0.00679567       0.00079031
H        0.19877268       1.62377069      -0.71422832       0.03367813      -0.00373254      -0.00278418       0.00418539
H        0.54887641       0.26283532      -1.77193490       0.03847587       0.00262971       0.00007156      -0.00412309
