28
Properties=species:S:1:pos:R:3:charge:R:1:forces:R:3 energy=-26021.126665000582 pbc="F F F"
C       -3.86397029       0.63081747       1.68817276      -0.08848279       0.00085789      -0.00138865      -0.00228010
C       -2.97001512      -0.07027374       0.67049048      -0.02032549      -0.00158726      -0.00117639       0.00184889
C       -1.67986022       0.62578598       0.44909071      -0.23708488      -0.00255767      -0.00069876       0.00175122
C       -0.50236109      -0.08315364       0.31528070       0.09947724      -0.00171929       0.00115618      -0.00268584
O       -0.34207766      -1.32500522       0.37852158      -0.37335521      -0.00192387       0.00045961       0.00914161
N        0.65766695       0.74251539       0.04303178      -0.14185053      -0.00156733       0.00270654      -0.00487881
C        1.98219485       0.39186117      -0.03058846       0.05950791      -0.00147930       0.00656807       0.00438573
C        2.91927864       1.37562568      -0.39331658      -0.07583621       0.00030875       0.00011348       0.00064041
C        4.27055963       1.08862874      -0.47826135      -0.05629044       0.00082484      -0.00304486       0.00134329
C        4.73869106      -0.18899817      -0.20177302      -0.08231978       0.00232721      -0.00084574       0.00730765
C        3.81663130      -1.16634498       0.15882412      -0.05194217      -0.00358653      -0.00155719      -0.00434464
C        2.46093907      -0.89899565       0.24533816      -0.06159078      -0.00225263       0.00463986      -0.00124723
H       -3.37230710       0.63183224       2.66152258       0.01380819      -0.00410899       0.00286140      -0.00442768
H       -4.04125169       1.66616252       1.39250181       0.00843132      -0.00195280      -0.00199816       0.00622151
H       -4.82772631       0.12752364       1.78215545       0.00622522       0.00507072      -0.00091982       0.00544904
H       -2.77675682      -1.09437489       0.98747540       0.00884640       0.00261040      -0.00076573      -0.00170708
H       -1.72792712       1.69908141       0.29524329       0.01524070       0.00071981      -0.00163239      -0.00443725
H        0.45437219       1.71926708      -0.05688779       0.11475978       0.00092914       0.00246246      -0.00574600
H        2.56225107       2.37476261      -0.61096929       0.02027058       0.00271651      -0.00230899       0.00197371
H        4.95937627       1.87454844      -0.76401996       0.01710213      -0.00009593      -0.00265690       0.00188574
H        5.79278122      -0.41731983      -0.26392534       0.01763374       0.00475913      -0.00207377      -0.00310890
H        4.15744418      -2.17078171       0.37930355       0.01627099       0.00393197       0.00006228       0.00143770
H        1.74673623      -1.65531142       0.51958605       0.01413137      -0.00193081       0.00099345      -0.00767341
S       -3.98428993      -0.28310543      -0.89791784      -0.19331056       0.00265820      -0.00255447      -0.00167819
C       -2.79208491      -1.25722465      -1.81885593      -0.08694968      -0.00540854       0.00193901       0.00070485
H       -1.86977590      -0.69311877      -1.91848855       0.02584729       0.00016946       0.00279023       0.00241927
H       -3.20595057      -1.49714902      -2.79774536       0.01058998      -0.00052482      -0.00175978      -0.00250110
H       -2.56304902      -2.16906501      -1.27578739       0.02118685       0.00281174      -0.00137127       0.00020506
