26
Properties=species:S:1:pos:R:3:charge:R:1:forces:R:3 energy=-24966.453405111282 pbc="F F F"
C       -3.42392810      -0.87071924       0.88153451      -0.04253707       0.00305719      -0.00042204      -0.00203075
C       -4.09103691       0.32825075       1.08606080      -0.04658304       0.00269712       0.00141294       0.00374190
C       -3.47188981       1.51709032       0.73007643      -0.04391496      -0.00057606       0.00120131      -0.00538968
H       -3.97995366       2.45837051       0.88786680       0.04386814      -0.00382814       0.00355005      -0.00036646
C       -2.20360110       1.53166276       0.17001550      -0.05569664       0.00317201      -0.00433673       0.00347782
C       -1.54208972       0.32498335      -0.03847389       0.04375463       0.00119843      -0.00305485      -0.00428556
N       -0.26259281       0.23625643      -0.61786739      -0.09664203      -0.00130474       0.00002599       0.00114506
C        0.57112486       1.25429757      -0.98208846       0.18891189      -0.00337429      -0.00348101      -0.00127245
O        0.33747813       2.43141157      -0.79872360      -0.31511748      -0.00292370      -0.00240855      -0.00286310
C        1.86413738       0.79729787      -1.63316454      -0.03509802      -0.00153895       0.00415295      -0.00176464
C        2.79956368       0.10094205      -0.63919226      -0.02659727       0.00275534       0.00134828       0.00256856
S        2.49276935      -1.68675984      -0.57051668      -0.08360605      -0.00022988      -0.00811774       0.00164783
C        3.54416374      -2.08620882       0.83587053      -0.05987504      -0.00460156       0.00163473      -0.00234993
C       -2.15785498      -0.87198624       0.32424015      -0.05195457       0.00531682      -0.00014292       0.00506522
H       -3.88566604      -1.81002543       1.15466147       0.04547087      -0.00164099      -0.00046415       0.00047746
H       -5.08066137       0.33638316       1.51799083       0.04444118      -0.00148922       0.00227309       0.00325144
H       -1.72708721       2.45720172      -0.10214885       0.03022797      -0.00279604      -0.00717061       0.00027148
H        0.07970546      -0.70220396      -0.73818598       0.11733765       0.00246948       0.00375661       0.00220994
H        2.34138004       1.69396368      -2.01331701       0.04679585       0.00382571       0.00523833      -0.00076495
H        1.66504954       0.12938943      -2.47091772       0.03907419       0.00473403       0.00118408      -0.00329190
H        3.83561603       0.24371716      -0.93187292       0.04378192       0.00426013       0.00106077      -0.00261043
H        2.67298215       0.53056637       0.35099152       0.04034756       0.00452577       0.00335452       0.00526520
H        3.46161607      -3.15456732       1.01476513       0.04273051      -0.00415430       0.00324939      -0.00451366
H        3.21009848      -1.55585587       1.72230279       0.04259839       0.00036218      -0.00207544      -0.00268335
H        4.58298847      -1.84191572       0.63215445       0.04222939      -0.00621329      -0.00046314       0.00462750
H       -1.63727650      -1.80825249       0.16950035       0.04605182      -0.00370316      -0.00130584       0.00043732
