17
Properties=species:S:1:pos:R:3:charge:R:1:forces:R:3 energy=-9911.427201701088 pbc="F F F"
C        3.05709596       0.04191294       0.40555087      -0.00470554       0.00368767       0.00391995       0.00295355
N        1.63349416       0.29013434       0.37549942      -0.10606033       0.00600443       0.00284492      -0.00554876
C        0.76322892      -0.54451169      -0.24746643       0.16033190       0.00520435      -0.00098893       0.00050848
O        1.08918238      -1.56074846      -0.83403879      -0.35047591      -0.00131272      -0.00656204       0.00473491
C       -0.64864630      -0.12534505      -0.16583777      -0.02600338      -0.00145120       0.00064061       0.00208091
C       -1.30010957       0.93108457       0.32470391      -0.04833215      -0.00595672       0.00511395       0.00385472
C       -2.65917960       0.41394105      -0.09493614      -0.04296203      -0.00231522      -0.00038631      -0.00030228
C       -1.88837245      -0.82045806      -0.66504467      -0.04444115      -0.00866106      -0.00218302      -0.00263966
H        3.61001742       0.85611184      -0.06220488       0.04587027       0.00261633      -0.00424289      -0.00191162
H        3.41532943      -0.08986492       1.42624632       0.04593515      -0.00031660      -0.00251835       0.00003348
H        3.23876538      -0.87205647      -0.15080179       0.02941940      -0.00293148       0.00699938       0.00245042
H        1.25336648       1.09351771       0.83890285       0.13290775      -0.00148979       0.00019066      -0.00363347
H       -0.99160304       1.83261765       0.83153305       0.05237552      -0.00281209       0.00305101       0.00468675
H       -3.33878091       0.19260902       0.72367197       0.03810857       0.00576270       0.00004422       0.00326379
H       -3.17115155       1.01867791      -0.83876501       0.03808294       0.00753542       0.00228769      -0.00011241
H       -1.94348977      -0.94854780      -1.74205136       0.03993730      -0.00283465      -0.00006874      -0.00797284
H       -2.11141560      -1.76807629      -0.18318735       0.04001161      -0.00072923      -0.00814229      -0.00244617
