25
Properties=species:S:1:pos:R:3:charge:R:1:forces:R:3 energy=-24950.478839622458 pbc="F F F"
C       -2.56212945      -1.52196786      -0.48362335      -0.05362006       0.00131829      -0.00307438       0.00153819
C       -1.93700451      -1.60192591       0.82215030      -0.24957941       0.00044622      -0.00622806       0.00065261
C       -0.63050816      -1.18116094       1.05942865       0.09217796       0.00039198       0.00089671       0.00072489
O        0.00590321      -1.27849439       2.12606603      -0.41640031       0.00003383       0.00170313      -0.00103221
N       -0.02218758      -0.56646192      -0.09375994      -0.14735588       0.00373535       0.00639149       0.00132637
C        1.23996610      -0.01582027      -0.19134724       0.06734665       0.00479162       0.00285934      -0.00101541
C        2.24660040      -0.22330766       0.76094774      -0.06903709       0.00170030       0.00514289       0.00476010
C        3.50382762       0.32723429       0.57105522      -0.05716455       0.00294186      -0.00488995      -0.00640546
C        3.80596486       1.10022505      -0.54384248      -0.07869436      -0.00075575       0.00213416       0.00198952
C        2.81051505       1.31623837      -1.48699872      -0.05756683       0.00366276      -0.00235330       0.00190698
C        1.55140556       0.76658959      -1.31528795      -0.07179535       0.00241026       0.00186144      -0.00515664
H       -1.89601352      -1.85393656      -1.28434123       0.01072941      -0.00178670       0.00135819      -0.00181093
H       -3.48549881      -2.09024262      -0.55885722       0.00454512       0.00090621       0.00022802      -0.00322818
H       -2.51610284      -1.87512075       1.68924930       0.00750638      -0.00691545       0.00437023       0.00127882
H       -0.69250550      -0.20090902      -0.75547737       0.09029647      -0.00157708       0.00636909       0.00398009
H        1.99843172      -0.80663092       1.63129753       0.01419335      -0.00307843      -0.00229258      -0.00104494
H        4.26404600       0.14414694       1.32117470       0.01641501      -0.00513900       0.00137591      -0.00329110
H        4.79166227       1.52478997      -0.67218254       0.01786038      -0.00100831      -0.00329785       0.00001914
H        3.00961792       1.91681161      -2.36696982       0.01775599       0.00021758      -0.00460206       0.00341007
H        0.78415998       0.93622404      -2.05958901       0.02799261       0.00016100       0.00171631      -0.00412482
S       -3.12062225       0.20187521      -1.12013418      -0.14127710       0.00280231      -0.00041599       0.00611531
C       -3.27869002       1.10456973       0.43775908      -0.08237693      -0.00181384      -0.00163723      -0.00092528
H       -4.31210933       1.17123989       0.77653046       0.01282637       0.00235724      -0.00484616       0.00202516
H       -2.89104262       2.11285399       0.30640690       0.01648096      -0.00183389      -0.00402171      -0.00009111
H       -2.68087076       0.57559928       1.17457623       0.02873243      -0.00396895       0.00125231      -0.00160120
