20
Properties=species:S:1:pos:R:3:charge:R:1:forces:R:3 energy=-13025.514267686092 pbc="F F F"
C       -4.18305158       0.37267293       0.17689945      -0.06490669      -0.00497179       0.00022725       0.00499161
C       -3.12573332      -0.38084820      -0.08257412      -0.04477648      -0.00286356       0.00395933      -0.00138459
C       -1.74722349       0.15833668       0.13066132       0.17697749       0.00154511       0.00482705       0.00108615
O       -1.54965367       1.28272473       0.54281351      -0.30364770       0.00326268       0.00489907       0.00145051
N       -0.74535969      -0.72622372      -0.17993949      -0.10162824      -0.00004019      -0.00384271      -0.00099599
C        0.65017804      -0.52886245      -0.09214724       0.04675521       0.00336243      -0.00080998       0.00186254
C        1.46981534      -1.59266428      -0.46661558      -0.04808986       0.00099574      -0.00133530      -0.00073352
C        2.84809573      -1.47789033      -0.40783164      -0.03712186       0.00092637      -0.00442694       0.00232537
C        3.42917303      -0.29536539       0.02693752      -0.04133410      -0.00084192      -0.00382408       0.00215020
C        2.61140256       0.76037228       0.39931464      -0.03930444       0.00462248      -0.00196978      -0.00074311
C        1.22923740       0.65844282       0.34423954      -0.05199314       0.00402294       0.00313636       0.00322130
H       -4.05370511       1.37991136       0.54514180       0.03733473      -0.00191241       0.00295844      -0.00071378
H       -5.18741491       0.00527885       0.03033035       0.04927551      -0.00386841      -0.00220520      -0.00179358
H       -3.24514604      -1.39356495      -0.45191218       0.05389468       0.00329036       0.00018335       0.00041352
H       -1.02556215      -1.63211395      -0.51029248       0.14973748      -0.00513200      -0.00669570      -0.00412475
H        1.01937165      -2.51697188      -0.80604911       0.04869841       0.00473527      -0.00223953      -0.00123738
H        3.46313843      -2.31763979      -0.70189078       0.04728514       0.00403597       0.00353083      -0.00267599
H        4.50345703      -0.19919450       0.07568926       0.04661636      -0.00412434       0.00205265       0.00005504
H        3.04952388       1.68725975       0.74242775       0.04573454      -0.00262351       0.00212862      -0.00304293
H        0.60055539       1.48196068       0.63405163       0.03049289      -0.00442074      -0.00055397      -0.00011079
