25
Properties=species:S:1:pos:R:3:charge:R:1:forces:R:3 energy=-24950.587984065907 pbc="F F F"
C       -3.20531421      -0.13957442       1.36083545      -0.05281559       0.00002574       0.00706388      -0.00084937
C       -4.10150472      -0.90308066       0.62050264      -0.08347204       0.00219980      -0.00158949      -0.00027288
C       -3.69180600      -1.38562277      -0.61514673      -0.05714790      -0.00353299       0.00521088      -0.00432666
C       -2.42190070      -1.10876675      -1.09222812      -0.07637072       0.00030417      -0.00478815      -0.00163904
C       -1.51009980      -0.33986745      -0.34830641       0.05932344      -0.00682641       0.00396665      -0.00263059
C       -1.93065443       0.14440644       0.90107633      -0.06363298       0.00478970      -0.00416261       0.00179888
N       -0.26156809      -0.10983829      -0.87281255      -0.14243460      -0.00178955      -0.00317648       0.00053802
C        0.82375331       0.68408902      -0.33180535       0.09463127      -0.00368956       0.00547372       0.00337940
O        0.74209455       1.05954852       0.86182836      -0.37507904       0.00136158      -0.00166660       0.00552256
C        1.85958735       0.91519321      -1.22063502      -0.24213451      -0.00313246      -0.00347385      -0.00373241
C        3.07943898       1.62241887      -0.78019787      -0.05623849      -0.00183786       0.00034994      -0.00109406
H       -5.09137909      -1.11647612       0.99739037       0.01672649      -0.00028482       0.00190918      -0.00255895
H       -4.36396972      -1.98369713      -1.21832131       0.01619699       0.00394041      -0.00275603      -0.00454334
H       -2.10857223      -1.49028233      -2.05625506       0.01952877      -0.00042138       0.00126038      -0.00157378
H       -1.23378261       0.73125110       1.47345339       0.01421248       0.00351790       0.00149024       0.00173878
H       -0.13293297      -0.39080214      -1.82684889       0.11421242      -0.00391423       0.00072807       0.00153380
H        1.86833577       0.48185721      -2.21577464       0.01460211      -0.00129978      -0.00613435      -0.00640273
H        2.87391165       2.22618755       0.10374543       0.00836789      -0.00320127       0.00069918      -0.00046711
H        3.51354797       2.26372489      -1.54853034       0.00072427      -0.00403511       0.00285404      -0.00141861
H       -3.50306444       0.25025675       2.32663225       0.01540840       0.00413474      -0.00096361       0.00454040
S        4.52714631       0.54140346      -0.29379757      -0.19003898      -0.00230462      -0.00403108       0.00461029
C        3.69666750      -0.35919155       1.01866382      -0.08677191       0.00506779      -0.00283143      -0.00086295
H        4.38490499      -1.08642537       1.44793428       0.00840115       0.00627990       0.00718364       0.00230565
H        2.82200907      -0.85529644       0.60866591       0.02479690       0.00032097       0.00224905       0.00203178
H        3.35196312       0.33100368       1.78267587       0.01899529       0.00432752      -0.00486511       0.00437235
