28
Properties=species:S:1:pos:R:3:charge:R:1:forces:R:3 energy=-26020.663227490488 pbc="F F F"
C       -0.62215729      -0.21954820      -1.78659373      -0.01724032      -0.00006171       0.00113689       0.00417848
N       -0.37814514       0.20938466      -0.43379816      -0.12821974      -0.00097898      -0.00004326       0.00480036
C       -1.46057640       0.44586882       0.38761513       0.06180884      -0.00155643       0.00217164       0.00293560
C       -1.35119857       0.37681857       1.79145596      -0.05607808       0.00200978       0.00127489       0.00156813
C       -2.44758708       0.58927490       2.60327160      -0.05775554       0.00298977       0.00105039      -0.00302436
C       -3.69524735       0.89848475       2.07124397      -0.08160989       0.00372612       0.00129421       0.00523191
C       -3.81159109       0.98920465       0.69307647      -0.06106472      -0.00123582       0.00251489       0.00782301
C       -2.72347185       0.76413659      -0.13622815      -0.08105809      -0.00647965      -0.00481000       0.00029524
C        0.93793658      -0.12092114       0.16905626       0.10153693       0.00515721      -0.00389892       0.00071013
O        1.42584807       0.74046743       0.93404968      -0.39309907      -0.00692488       0.00518318      -0.00046222
C        1.49265767      -1.32733679      -0.20711538      -0.22605842       0.00825687       0.00027769      -0.00273547
C        2.86786966      -1.68119008       0.20372776      -0.04970410      -0.00458987      -0.00316124       0.00680906
H        0.33446210      -0.37177828      -2.27607038       0.02789327      -0.00367307       0.00741303      -0.00479308
H       -1.18695165      -1.15671043      -1.85042018       0.02492381      -0.00081646      -0.00313595      -0.00688672
H       -1.16077070       0.54955072      -2.34166381       0.02158109      -0.00292578       0.00233662       0.00192868
H       -0.39275416       0.15298545       2.22196502       0.02027172       0.00121909      -0.00201249       0.00020438
H       -2.32278365       0.51138027       3.67708409       0.01768663      -0.00465332       0.00129834      -0.00854960
H       -4.54897270       1.06399176       2.71167903       0.01857521       0.00048141       0.00617480      -0.00222934
H       -4.76437528       1.24139122       0.24384140       0.01789249      -0.00003142      -0.00812531      -0.00216251
H       -2.86035483       0.83969400      -1.20378403       0.01919609       0.00153140      -0.00347997      -0.00139107
H        0.94973232      -2.03367901      -0.82172241       0.01619917       0.00373839       0.00118225      -0.00132282
H        3.17110823      -1.10468973       1.07835537       0.01137125      -0.00209929      -0.00364441       0.00097282
H        2.99120482      -2.74320952       0.41913335       0.00409309       0.00100629       0.00211876      -0.00350482
S        4.18712985      -1.34960448      -1.06676191      -0.18159513      -0.00037483       0.00173032       0.00029687
C        3.89368185       0.41223324      -1.23620538      -0.08457227       0.00080564      -0.00643075      -0.00123990
H        2.86949846       0.57056448      -1.55875380       0.02467198      -0.00031846       0.00280637      -0.00122513
H        4.59282904       0.82624966      -1.96165892       0.01054950       0.00249474      -0.00174753      -0.00033813
H        4.01250385       0.90518374      -0.27694597       0.01979557       0.00330297       0.00052593       0.00211022
