23
Properties=species:S:1:pos:R:3:charge:R:1:forces:R:3 energy=-14095.544979168699 pbc="F F F"
C        3.54609377       1.14615713       1.61452638      -0.06266218      -0.00454719      -0.00474326      -0.00350706
C        2.51386908       0.31675639       1.53460550      -0.04558662       0.00346358       0.00886571       0.00262613
C        1.39701323       0.59696263       0.57748661       0.17741445      -0.00305713       0.00155122      -0.00110927
O        1.43710333       1.54798606      -0.17905910      -0.32771784       0.00090978       0.00067133      -0.00032591
N        0.32742798      -0.26766343       0.59486306      -0.07366064      -0.00095769      -0.00198519      -0.00226522
C        0.27309422      -1.43817630       1.45560019       0.00099127       0.00185297      -0.00014159       0.00027805
C       -0.69718163      -0.09355728      -0.38617231       0.04134307      -0.00111919      -0.00371024      -0.00265253
C       -1.41188669       1.09507414      -0.44758201      -0.04496855       0.00079382      -0.00043044      -0.00133159
C       -2.44387029       1.23125298      -1.36112154      -0.03755577      -0.00020870       0.00001186      -0.00115660
C       -2.74545815       0.19853028      -2.24106693      -0.03829576       0.00143719       0.00091308      -0.00110845
C       -2.01193780      -0.97792078      -2.19544451      -0.03488563       0.00138593       0.00092558      -0.00079378
C       -0.99257356      -1.12665266      -1.26450401      -0.04578903      -0.00068025      -0.00083534      -0.00056846
H        4.36240485       0.96119712       2.29836259       0.05024524       0.00065510      -0.00061286       0.00123099
H        3.58617050       2.02620543       0.98873292       0.03807458       0.00232528      -0.00407473       0.00435210
H        2.47910273      -0.56981767       2.15228371       0.04445440      -0.00041570       0.00235842       0.00083895
H       -0.71928637      -1.86735670       1.38434754       0.03843953       0.00127158       0.00022264       0.00144372
H        1.00361442      -2.19823814       1.17795354       0.04855018       0.00104363       0.00194386      -0.00111036
H        0.43970871      -1.16067814       2.49436204       0.04537136       0.00167459       0.00085090       0.00068794
H       -1.14119277       1.90400675       0.21322220       0.03724772      -0.00059916      -0.00281973       0.00223411
H       -3.01056350       2.15135594      -1.39436640       0.04802677      -0.00042071       0.00141869      -0.00013822
H       -3.54392781       0.31363029      -2.95887151       0.04740320      -0.00133012      -0.00112256       0.00066903
H       -2.23268480      -1.78158887      -2.88462635       0.04866938      -0.00006761       0.00210107       0.00401711
H       -0.42141304      -2.04430565      -1.21816170       0.04489092      -0.00340983      -0.00135812      -0.00231076
