16
Properties=species:S:1:pos:R:3:charge:R:1:forces:R:3 energy=-16981.54893597762 pbc="F F F"
C        2.90857837      -0.34609987       0.27119554       0.00696424       0.00074708       0.00073597      -0.00013785
N        1.47293733      -0.15925392       0.33166563      -0.08123786       0.00168586      -0.00172327       0.00463747
C        0.80590484       0.67498894      -0.50219236       0.18096153       0.00352690      -0.00486030      -0.00064423
O        1.32411530       1.32367787      -1.38795080      -0.33043349      -0.00258360       0.00088185       0.00027191
C       -0.66581586       0.76816341      -0.26338750      -0.02921628       0.00332814       0.00322836       0.00031551
C       -1.42910468      -0.28677487      -0.04785702      -0.04888005       0.00215085       0.00424357      -0.00624220
C       -2.90415347      -0.19562622       0.19500435       0.27872282       0.00295823      -0.00036432      -0.00286205
F       -3.58949513      -0.91378601      -0.71368458      -0.12519085      -0.00301633      -0.00118232       0.00256315
F       -3.21860664      -0.70725899       1.40460363      -0.12831900      -0.00326885       0.00391462      -0.00016123
F       -3.37327607       1.05876232       0.15734212      -0.11073841      -0.00325407      -0.00525065       0.00042331
H        3.38958448       0.00253454       1.18360692       0.05319787       0.00159957      -0.00208878      -0.00080267
H        3.28191382       0.23386476      -0.56637809       0.03532729       0.00176082      -0.00240156       0.00149275
H        3.15841577      -1.39412873       0.11341119       0.05124258       0.00431203       0.00546116      -0.00218943
H        0.95954258      -0.56188924       1.09285840       0.14218581       0.00114423      -0.00254210      -0.00060822
H       -1.07208175       1.76018994      -0.36238996       0.05154303      -0.00416580       0.00097913       0.00094676
H       -1.04416331      -1.29873542      -0.05058500       0.05387072      -0.00692497       0.00096878       0.00299701
