26
Properties=species:S:1:pos:R:3:charge:R:1:forces:R:3 energy=-24966.46202491803 pbc="F F F"
C       -3.86230560      -1.12919522      -0.02109251      -0.04289432       0.00400508      -0.00179321      -0.00035032
C       -2.48367315      -1.00254392      -0.10654703      -0.05502643       0.00290814       0.00533957       0.00253614
C       -1.91583163       0.26866092      -0.14132108       0.04353440       0.00732968       0.00299988       0.00386945
N       -0.52754999       0.49173473      -0.21931292      -0.09701220       0.00029908      -0.00104795       0.00317545
C        0.47877400      -0.43228619      -0.34054782       0.20194884      -0.00205750      -0.00253469       0.00411457
O        0.29779909      -1.62988467      -0.40832584      -0.29858261       0.00438510       0.00431761      -0.00707319
C        1.86604635       0.19205794      -0.38103249      -0.03838335      -0.00549976       0.00393962       0.00041454
C        2.94333702      -0.85852310      -0.60006392      -0.03566428      -0.00722564       0.00283189       0.00220636
S        4.61247734      -0.17408686      -0.70399421      -0.13023210       0.00105892       0.00418534       0.00335133
C        4.87767699       0.21636358       1.03374955      -0.06183168      -0.00233611      -0.00104972      -0.00118240
C       -2.74509840       1.38923970      -0.08967923      -0.05196494       0.00510641       0.00098789       0.00023373
C       -4.11846388       1.24748006      -0.00309478      -0.04163885       0.00283268      -0.00142530       0.00273653
C       -4.68782980      -0.01732512       0.03166700      -0.04578264      -0.00019287      -0.00408034       0.00511752
H       -5.75892178      -0.13279044       0.10091125       0.04482619      -0.00764310      -0.00266495      -0.00379767
H       -4.28864711      -2.12212166       0.00435495       0.04403939      -0.00668451      -0.00096157       0.00151133
H       -1.84895705      -1.87067687      -0.14442012       0.03030349      -0.00527685       0.00628331      -0.00458392
H       -0.25695459       1.45984552      -0.19211472       0.15142336       0.00298725      -0.00653725      -0.00235574
H        2.03490212       0.72959058       0.55630679       0.04420716       0.00564769      -0.00494585       0.00093256
H        1.90369537       0.93559866      -1.17954062       0.04403675      -0.00042509      -0.00335889      -0.00754733
H        2.90598522      -1.59909486       0.19371120       0.03827642       0.00105563      -0.00403832      -0.00098862
H        2.75753369      -1.38357616      -1.53375704       0.03784686       0.00282270       0.00159886       0.00297634
H        4.74070547      -0.66713014       1.65278884       0.04141726       0.00103038       0.00581220       0.00258987
H        5.90439979       0.55728969       1.13557972       0.04135548      -0.00630017      -0.00038518      -0.00440759
H        4.21395219       1.00497335       1.37596425       0.04242833       0.00113693      -0.00429000       0.00084116
H       -2.30695979       2.37889433      -0.11744076       0.04787976      -0.00106335       0.00007507       0.00038587
H       -4.74105869       2.13079631       0.03881395       0.04548959       0.00209887       0.00074235      -0.00470586
