20
Properties=species:S:1:pos:R:3:charge:R:1:forces:R:3 energy=-10982.614188779591 pbc="F F F"
C        2.95760873       0.13123610      -0.18625110      -0.06151709      -0.00438335       0.00305019       0.00203727
C        2.26910449      -0.39157996      -1.19068006      -0.04486012       0.00311767      -0.00018965      -0.00153697
C        0.84346254      -0.12388312      -1.54899318       0.16590218      -0.00029528       0.00026834      -0.00573169
O        0.52287355      -0.13012509      -2.72868958      -0.36165410       0.00341438       0.00383347       0.00161378
N       -0.07031994       0.10734745      -0.57335693      -0.08834097      -0.00084324       0.00089502      -0.00587473
C       -1.45918477       0.34563281      -0.97132718       0.01384994      -0.00166235      -0.00102965      -0.00015525
C       -2.19037080       0.48772709       0.35691752      -0.03514399       0.00179656       0.00054676      -0.00033436
C       -1.39844375      -0.43026775       1.28290831      -0.03478464      -0.00137291      -0.00101552       0.00180130
H       -1.55858171      -0.21870666       2.33665906       0.04067423       0.00213070       0.00182244       0.00565670
C        0.04547847      -0.17474586       0.86090361       0.02111343      -0.00121438       0.00328040      -0.00570108
H        2.49934922       0.78013213       0.54695044       0.03636841      -0.00096604      -0.00549107       0.00082208
H        4.01477970      -0.06629804      -0.07862500       0.05233396      -0.00580032      -0.00007088       0.00309400
H        2.75586521      -1.01153426      -1.93159746       0.04436027      -0.00018083      -0.00349192       0.00380157
H       -1.51725823       1.22713930      -1.60466415       0.03749251      -0.00174378      -0.00371370       0.00281637
H       -1.82973188      -0.49955818      -1.55159405       0.03519385      -0.00055413      -0.00020053       0.00468796
H       -2.12472651       1.51722569       0.70941630       0.03269846       0.00177923      -0.00092828      -0.00084828
H       -3.24052263       0.21999815       0.28226017       0.04066714       0.00368330       0.00138265       0.00242511
H       -1.66183192      -1.47119192       1.09560973       0.03228050       0.00311723      -0.00300216      -0.00617399
H        0.69223062      -1.03047844       1.03862425       0.03495482      -0.00140740       0.00474648      -0.00102508
H        0.46131773       0.67878581       1.40084998       0.03841117       0.00138511      -0.00069232      -0.00137460
