59
Properties=species:S:1:pos:R:3:charge:R:1:forces:R:3 energy=-51918.082491058376 pbc="F F F"
Cl      -1.52968076       5.38237603      -0.36211380      -0.06444220      -0.00077914      -0.00243005      -0.00473340
C       -1.66996233       3.65722017      -0.18179438      -0.07186874      -0.00363748      -0.00292942      -0.00188306
C       -0.51404283       2.90651086      -0.09570921       0.06169376      -0.00229875      -0.00303645       0.00133249
N       -0.50780977       1.58563643      -0.00578407      -0.34706265       0.00148710      -0.00339168      -0.00384400
C       -1.71367555       1.00902368      -0.02503502       0.43621704      -0.00051883       0.00125435       0.00545284
N       -1.85902228      -0.34745415       0.04144347      -0.30424601       0.00079147       0.00095092       0.00062139
C       -0.92060549      -1.38079418       0.09876139       0.06208590      -0.00039494      -0.00047469      -0.00161122
C       -1.44169486      -2.68945176       0.07992695       0.09015176      -0.00053659      -0.00128462       0.00124481
O       -2.80703027      -2.75322452       0.00074053      -0.21970591       0.00263071      -0.00033053      -0.00019424
C       -3.39405312      -4.03373543      -0.13512055      -0.07398164       0.00336259       0.00172926       0.00549799
C       -0.59465161      -3.77135964       0.14545012      -0.19025408      -0.00482508      -0.00432137       0.00228698
C        0.78805424      -3.60063573       0.22342356      -0.14058004      -0.00345423      -0.00702948       0.00171396
C        1.30266756      -2.32121790       0.23186487       0.11745147      -0.00455650      -0.00259627      -0.00038043
N        2.67889674      -2.02994553       0.32039402      -0.32854322       0.00073221       0.00264410      -0.00062908
C        3.75110555      -2.88912131       0.27470261       0.44529232       0.00263319      -0.00172209       0.00136451
C        5.06950705      -2.26401115       0.56882373      -0.14756404       0.00270063       0.00234290      -0.00238139
C        5.23456988      -1.11852148       1.21739663      -0.13873498       0.00088457       0.00003320      -0.00026137
C        6.56582954      -0.47457762       1.45609032      -0.00103518      -0.00007174       0.00025976      -0.00191364
N        7.62261471      -0.98025579       0.60375034      -0.23591909      -0.00100760       0.00433850      -0.00249500
C        7.44834784      -0.55741812      -0.77428237      -0.13654423       0.00001797       0.00382527      -0.00112116
C        8.92708235      -0.59355832       1.09689532      -0.14585832      -0.00106100      -0.00413813      -0.00082437
O        3.67130225      -4.07081687       0.00568529      -0.47424364       0.00279763      -0.00075698       0.00509963
C        0.44250907      -1.21414466       0.17453332      -0.16693398      -0.00124446       0.00242789      -0.00384941
N       -2.87976476       1.64563703      -0.11097221      -0.33739677      -0.00096633       0.00006830      -0.00499002
C       -2.89470122       2.97528686      -0.16441722       0.18895851      -0.00366184       0.00022445       0.00020709
C       -4.20818777       3.61658467      -0.20714115       0.02234572      -0.00074657       0.00094709      -0.00153537
C       -4.55595743       4.86187483       0.24051691      -0.10181434       0.00085322       0.00135060      -0.00433725
N       -5.89215684       5.06629486       0.06894246      -0.33399135       0.00145733      -0.00057300       0.00320099
C       -6.46243075       3.94562062      -0.50178656       0.06337144       0.00291596       0.00204460      -0.00209041
C       -5.43537550       3.00521668      -0.68470933       0.01797903      -0.00043497      -0.00216491       0.00966165
C       -5.75536504       1.76240306      -1.24870014      -0.14331113      -0.00021823       0.00690336      -0.00613646
C       -7.06671706       1.51503671      -1.60299109      -0.16510949      -0.00046723       0.00047323       0.00536323
C       -8.07286788       2.47323250      -1.40810030      -0.15348262       0.00110308       0.00260247      -0.00430808
C       -7.78601602       3.70285273      -0.85523077      -0.18191648       0.00228948       0.00082059      -0.00022890
H        0.44876435       3.39923883      -0.10113577       0.09100113      -0.00086558      -0.00460563      -0.00064221
H       -2.81667544      -0.65023810       0.01835719       0.26094803       0.00253538       0.00106342      -0.00222298
H       -3.03559760      -4.54335562      -1.03063994       0.07896165      -0.00206100       0.00524286       0.00413402
H       -4.46178670      -3.86043838      -0.22476687       0.09385160       0.00636853       0.00450952      -0.00290718
H       -3.20753105      -4.65337910       0.74277524       0.07942083      -0.00065852      -0.00320372       0.00382230
H       -0.98641341      -4.77551507       0.13881769       0.13215311       0.00004437      -0.00473073      -0.00427193
H        1.43314093      -4.45765381       0.27280497       0.14006819       0.00475287      -0.00489167       0.00045709
H        2.89824603      -1.05255341       0.28680972       0.24089435       0.00011264       0.00585762      -0.00018639
H        5.91299073      -2.84766570       0.22793496       0.12911834       0.00090770       0.00019397      -0.00321546
H        4.37986638      -0.61837095       1.66547145       0.11479450       0.00346773       0.00062096       0.00434928
H        6.83259768      -0.63302559       2.50361438       0.08108299       0.00293539       0.00021525      -0.00294589
H        6.45287239       0.61383395       1.34107438       0.06952594      -0.00494666      -0.00204153      -0.00295355
H        7.48220155       0.53640360      -0.87956162       0.06830555      -0.00375712       0.00366531       0.00573556
H        8.24418067      -0.98239410      -1.38199605       0.08354767      -0.00306226      -0.00128545      -0.00065731
H        6.49582377      -0.90774678      -1.16116440       0.07028232       0.00043042       0.00235697       0.00409547
H        9.06334922      -0.97446894       2.10580760       0.08001795      -0.00533780       0.00105885       0.00137651
H        9.07316552       0.49739973       1.11405118       0.06329177      -0.00053359      -0.00698603       0.00151727
H        9.69753641      -1.02661264       0.46448306       0.08328203       0.00317757       0.00107465      -0.00034566
H        0.84015650      -0.21226530       0.19123317       0.11675613       0.00537087       0.00426482      -0.00127566
H       -3.93923951       5.61980379       0.68674478       0.13926092      -0.00252858      -0.00444604       0.00408173
H       -6.38349652       5.90422446       0.31060236       0.35039607       0.00188473      -0.00039589       0.00486886
H       -4.97910102       1.02463168      -1.38211773       0.12215310      -0.00365376       0.00602924      -0.00110698
H       -7.33167907       0.56247121      -2.03801578       0.13390756       0.00150357       0.00166682      -0.00079662
H       -9.08759903       2.24234747      -1.69560829       0.13582048      -0.00026198      -0.00100415      -0.00398225
H       -8.55178990       4.44955584      -0.70043593       0.14015095      -0.00159815      -0.00228729      -0.00022748
