37
Properties=species:S:1:pos:R:3:charge:R:1:forces:R:3 energy=-29684.664921529482 pbc="F F F"
C        4.62174727      -2.21842028       0.40492918      -0.13559689       0.00024541       0.00273277      -0.00566690
C        3.42620161      -1.63878068       0.00167628      -0.10670702      -0.00781248      -0.00090517       0.00069372
C        2.77310308      -0.76069119       0.85985676       0.14970557      -0.00200016       0.00019746      -0.00097412
N        1.53932777      -0.14528383       0.55393877      -0.34947973      -0.00008741       0.00164617      -0.00186697
C        0.86930059      -0.09234718      -0.63655315       0.41216314      -0.00422701      -0.00153034       0.00108770
O        1.23371749      -0.67155461      -1.63955626      -0.43081126       0.00095973       0.00135537      -0.00573890
C       -0.38736902       0.74371735      -0.60890241      -0.12814620       0.00065760       0.00182385       0.00205673
C       -1.58148512       0.00461558      -1.21017907      -0.06476837       0.00404712       0.00087476       0.00260520
S       -2.30214119      -1.28859182      -0.13794555      -0.19568573      -0.00024021       0.00193737      -0.00202536
C       -1.00337050      -2.53654907      -0.19638873      -0.17633951       0.00165233       0.00116570       0.00014154
C       -2.67090865       1.00235338      -1.64351710      -0.04103825       0.00142382       0.00085300       0.00416347
N       -2.86192490       2.12865889      -0.74060645      -0.23821957       0.00575194       0.00253125       0.00002686
C       -3.58316813       1.78065917       0.47185378      -0.14158973       0.00141858       0.00200584       0.00079772
C       -3.52920471       3.22578663      -1.41882482      -0.14449227       0.00239053       0.00026649      -0.00212807
C        3.33081582      -0.47709620       2.10566101      -0.15225622      -0.00500053       0.00358681       0.00211460
C        4.52487212      -1.05868856       2.49357735      -0.14368755       0.00104427       0.00117056      -0.00217261
H        4.94535811      -0.82553459       3.46109617       0.13300003       0.00070109      -0.00272560       0.00343800
C        5.17900696      -1.93732338       1.64212429      -0.16216430      -0.00138708      -0.00365689       0.00022178
H        6.11017151      -2.39572154       1.94086008       0.13409659       0.00686126      -0.00122990      -0.00067978
H        5.12091056      -2.90017733      -0.26858041       0.13158096       0.00327303      -0.00183751      -0.00014824
H        3.00038099      -1.85572914      -0.96183284       0.12931861       0.00198396       0.00167021      -0.00429492
H        1.11390061       0.34943153       1.31655863       0.24939866       0.00223157      -0.00732813      -0.00248265
H       -0.62533973       1.11801806       0.38541560       0.07487211       0.00059533       0.00362041       0.00255672
H       -0.19822248       1.61327804      -1.24088000       0.08676509      -0.00333210       0.00500163       0.00396586
H       -1.22822609      -0.51519425      -2.09977022       0.10685661       0.00209989      -0.00031221       0.00096306
H       -0.59675430      -2.64582849      -1.19538170       0.09147099       0.00350526      -0.00240874      -0.00222957
H       -0.20261951      -2.30534017       0.49515741       0.07466757       0.00075742      -0.00114533       0.00625444
H       -1.46913263      -3.47040950       0.10545587       0.12076543      -0.00527226      -0.00304399       0.00245134
H       -2.34408606       1.39784614      -2.60859692       0.07718468      -0.00289052       0.00080103      -0.00053443
H       -3.61343435       0.46939747      -1.81616127       0.07043017      -0.00155281      -0.00132199      -0.00266341
H       -4.59462132       1.40346036       0.26130325       0.06646593      -0.00445218      -0.00280522      -0.00216641
H       -3.05280593       1.01906112       1.03689648       0.07154306      -0.00387185      -0.00365458       0.00737906
H       -3.67501585       2.66494317       1.09926108       0.08342347      -0.00123471       0.00304555      -0.00017511
H       -4.55519396       2.98070873      -1.73392986       0.06338422       0.00114125      -0.00534766       0.00030965
H       -3.57811637       4.08540659      -0.75404375       0.08182946       0.00254755      -0.00209146      -0.00422354
H       -2.96139285       3.51491280      -2.30035030       0.07569654       0.00409918      -0.00023371      -0.00081249
H        2.82193915       0.20922336       2.77125014       0.12636372      -0.00602628       0.00529147      -0.00024432
