63
Properties=species:S:1:pos:R:3:charge:R:1:forces:R:3 energy=-51771.12860389168 pbc="F F F"
C       -3.67996356      -2.65343185      -1.52943076      -0.22383884       0.00026846      -0.00181764      -0.00122865
C       -2.33988011      -2.33500177      -1.52415503       0.03673531      -0.00171339       0.00200033       0.00171389
N       -1.84707222      -1.22895066      -0.98228941      -0.37702850      -0.00538032       0.00360073      -0.00197886
C       -2.75163583      -0.41541156      -0.42787568       0.44262576      -0.00336490       0.00073098      -0.00261031
N       -2.38515658       0.75438734       0.15133216      -0.30887505       0.00138516       0.00006619      -0.00061187
C       -1.14153966       1.39789383       0.26393083       0.08249698       0.00214237      -0.00195357       0.00219023
C        0.05494736       0.87291207      -0.15664909      -0.18214348       0.00106400       0.00099145       0.00097733
C        1.26188329       1.59080595      -0.00935929       0.13071068      -0.00172412       0.00244876       0.00593301
N        2.41548995       0.97983767      -0.44370148      -0.36429158      -0.00230414       0.00045317       0.00104404
C        3.77985138       1.42686692      -0.38633016       0.30875322      -0.00123583      -0.00022249       0.00188085
C        4.71986624       0.42569731      -0.61173867      -0.41982108      -0.00101338      -0.00104330      -0.00047259
C        6.16323392       0.71453477      -0.67328874      -0.05032491      -0.00186956       0.00026544       0.00742465
C        7.01639566       0.07440428       0.44853674      -0.04777502      -0.00075881       0.00167585       0.00118958
N        6.90158326      -1.37852202       0.57831272      -0.24259911       0.00149945       0.00212323      -0.00288638
C        5.85384344      -1.75946966       1.50816733      -0.13553102       0.00197335      -0.00035105      -0.00261028
C        8.15849734      -2.00041545       0.93175114      -0.14186437       0.00040618      -0.00037991      -0.00106698
O        4.00606940       2.63072189      -0.14837158      -0.49226543       0.00436167      -0.00020325       0.00262987
C        1.22679133       2.85961753       0.56438511      -0.17184067      -0.00119924       0.00606294       0.00137426
C        0.01202256       3.38176943       1.00069419      -0.20837997      -0.00289583       0.00230669       0.00271872
C       -1.16042379       2.66919566       0.86050098       0.07416557       0.00066410      -0.00048878      -0.00275532
O       -2.40793013       3.09800429       1.26625038      -0.23168725       0.00216672      -0.00066752      -0.00302538
C       -2.48091613       4.37641965       1.85053862      -0.07753854       0.00565513      -0.00205039      -0.00310717
N       -4.07546635      -0.62891730      -0.36571326      -0.36110756      -0.00109024      -0.00287645      -0.00378167
C       -4.55344150      -1.74444953      -0.91976450       0.18140432       0.00055082      -0.00723015       0.00602923
C       -5.98001377      -1.96929265      -0.86361374       0.00090136      -0.00199507       0.00484227       0.00039075
C       -6.89205927      -1.11331772      -0.25251723       0.15282220      -0.00273024      -0.00321950       0.00719438
C       -6.82684072       0.11450599       0.45017053      -0.14622888      -0.00579808       0.00303309      -0.00584949
C       -7.98259739       0.66617746       0.91964789      -0.14805919      -0.00161651      -0.00319481       0.00291522
C       -9.23308656       0.02383930       0.71029967      -0.18261817       0.00144616       0.00466563      -0.00642587
C       -9.29620456      -1.14795579       0.03899063      -0.05265184       0.00224853      -0.00295953       0.00839905
N       -8.12902259      -1.69281384      -0.42665782       0.15280418      -0.00062777       0.00159952      -0.00012412
N       -8.06206498      -2.85272311      -1.10402014      -0.41021794       0.00152826       0.00364724      -0.00145212
C       -6.77479456      -3.01678548      -1.36510804      -0.03660353       0.00148847       0.00276113      -0.00009739
H       -4.03123638      -3.56532590      -1.98290338       0.10587770      -0.00058875       0.00032500      -0.00217399
H       -1.61879336      -3.00314371      -1.98078787       0.07695527      -0.00392286      -0.00027549       0.00241670
H       -3.15637620       1.27844200       0.52156323       0.25938520       0.00189933      -0.00426722      -0.00335791
H        0.05385015      -0.10517997      -0.60744083       0.11677443      -0.00204256       0.00050031       0.00055997
H        2.30375486       0.02417013      -0.72641181       0.24345823       0.00360337      -0.00279347      -0.00002551
H        4.41531197      -0.60170580      -0.76172358       0.11419156      -0.00327867       0.00086518      -0.00166693
H        6.32847109       1.78750070      -0.61162044       0.11192837      -0.00010832      -0.00050288      -0.00019561
H        6.71589551       0.56346197       1.38636894       0.06841070      -0.00086439      -0.00275387       0.00144538
H        8.06134578       0.33820271       0.26514841       0.06568741      -0.00146629       0.00077505       0.00157334
H        4.95449502      -1.18443600       1.31054998       0.06547065       0.00220184      -0.00059502      -0.00297756
H        6.14612714      -1.58066925       2.55642590       0.05855204      -0.00238156       0.00151645       0.00120277
H        5.63064217      -2.82249350       1.39368956       0.07249448       0.00014585      -0.00201729      -0.00371960
H        8.03542626      -3.08353140       0.98079617       0.07467458      -0.00051849      -0.00338159      -0.00008019
H        8.90863552      -1.77542307       0.17352614       0.07101212      -0.00090361       0.00158232      -0.00340010
H        8.54745834      -1.65933615       1.90623213       0.05444592       0.00457527       0.00012511       0.00034213
H        2.14697430       3.40626728       0.65607334       0.13107884       0.00105937       0.00148360       0.00099248
H        0.00705366       4.36122105       1.45381839       0.12169681      -0.00463614       0.00305742      -0.00303658
H       -3.53051065       4.53453025       2.08598942       0.08183953       0.00927608       0.00222312       0.00138027
H       -1.89717814       4.43385591       2.77083101       0.07027637       0.00052540      -0.00090970      -0.00157930
H       -2.14962282       5.15464117       1.16122123       0.07014891      -0.00026299      -0.00014060      -0.00192042
H       -5.84882837       0.55324775       0.57631039       0.12213384      -0.00603389      -0.00413441      -0.00114453
H       -7.95790723       1.60160472       1.45837296       0.12395768       0.00116111      -0.00158237      -0.00198912
H      -10.14332080       0.46814123       1.08527493       0.12933785       0.00239849      -0.00235448      -0.00074810
H      -10.19390461      -1.70932021      -0.16925565       0.12769444       0.00556471       0.00092966      -0.00196751
H       -6.45263060      -3.88735404      -1.91155130       0.11366668      -0.00744974      -0.00530527       0.00245524
S        6.95151735       0.31549049      -2.33133648      -0.26457044       0.00393611       0.00127757       0.00376872
C        6.17285207      -1.27181947      -2.69519065      -0.19731224       0.00240736       0.00308161      -0.00125216
H        6.25535187      -1.93684456      -1.83892821       0.07631510       0.00543925       0.00178375      -0.00327204
H        5.12592150      -1.13136523      -2.94898204       0.07597131       0.00136374      -0.00132129       0.00479951
H        6.69390507      -1.69137497      -3.55336143       0.10831890      -0.00263268      -0.00180702      -0.00035072
