26
Properties=species:S:1:pos:R:3:charge:R:1:forces:R:3 energy=-24966.504013545436 pbc="F F F"
C       -3.12845112       1.71529399       0.89726059      -0.14553674      -0.00064951       0.00004637       0.00200536
C       -1.88060558       1.12010046       0.85946285      -0.15112180      -0.00139895      -0.00272292      -0.00360622
C       -1.51209508       0.31859446      -0.22077856       0.13781992       0.00395176       0.00318679      -0.00480382
N       -0.22679188      -0.25887277      -0.17740700      -0.32157049       0.00205096      -0.00301695       0.00021126
C        0.45672745      -0.88694434      -1.17754690       0.40977752       0.00605484       0.00504117       0.00122222
O        0.01945102      -1.06789431      -2.29437669      -0.44755581      -0.00320704       0.00150709      -0.00229955
C        1.86238870      -1.33182958      -0.79259168      -0.14144605       0.00358585       0.00058499       0.00300186
C        2.82010290      -0.16546538      -0.52489792      -0.11839224       0.00002800       0.00037604      -0.00028405
S        2.75666885       0.54118217       1.14397566      -0.17940231       0.00065251      -0.00655585      -0.00460311
C        3.43224957      -0.84697229       2.07568878      -0.18259600      -0.00313086       0.00376771      -0.00547902
C       -2.40985484       0.11466386      -1.26387798      -0.11646771      -0.00083213       0.00112192      -0.00249878
C       -3.65833381       0.71786585      -1.21028561      -0.13954638      -0.00256255       0.00035198       0.00449429
C       -4.02843593       1.51751408      -0.14048908      -0.16134909      -0.00266328      -0.00065777       0.00321597
H       -5.00314187       1.98135797      -0.11413822       0.13597468      -0.00258151       0.00112301       0.00035364
H       -3.39891800       2.33629293       1.73907026       0.13500325      -0.00066372       0.00074724       0.00146178
H       -1.18167748       1.28117036       1.67063553       0.12793805      -0.00087930      -0.00392319      -0.00545949
H        0.29554538      -0.06737710       0.66661513       0.22616594       0.00712279       0.00526618      -0.00367968
H        2.24122352      -1.90457930      -1.63201339       0.09622803      -0.00099607      -0.00169820       0.00343243
H        1.81559706      -1.98521452       0.07697052       0.06628411       0.00429560      -0.00133380       0.00208013
H        3.84510052      -0.48940019      -0.68923852       0.09412882      -0.00196906       0.00075116       0.00093063
H        2.62403685       0.64686458      -1.21988485       0.11087828      -0.00266148      -0.00086137      -0.00159829
H        2.74469417      -1.68817517       2.10168603       0.08134978      -0.00395846      -0.00141815       0.00041735
H        3.60505876      -0.50389809       3.09174806       0.11920891      -0.00494323       0.00328769       0.00249741
H        4.37794120      -1.16834807       1.64865943       0.09312030       0.00354949      -0.00529700       0.00476127
H       -2.12529796      -0.49907155      -2.09948431       0.13727841       0.00265628       0.00057803       0.00011166
H       -4.34814944       0.55643056      -2.02614024       0.13382867      -0.00085152      -0.00025287       0.00411431
