20
Properties=species:S:1:pos:R:3:charge:R:1:forces:R:3 energy=-13025.509265924944 pbc="F F F"
C       -4.23644493       0.02883157      -0.31903432      -0.27699438       0.00281229       0.00025377       0.00266470
C       -3.05611969       0.62755798      -0.36544441      -0.15191904      -0.00157876       0.00065282       0.00082620
C       -1.79664357      -0.16387484      -0.20257605       0.44852737      -0.00128057       0.00366411       0.00164159
O       -1.80973126      -1.36523930      -0.02630801      -0.43421993       0.00560472       0.00269377      -0.00253444
N       -0.65323553       0.58799769      -0.27049090      -0.36167374      -0.00065114       0.00480271       0.00395191
C        0.68663790       0.16035931      -0.15951241       0.12598415       0.00103734      -0.00393467      -0.00097129
C        1.05263941      -1.16596863       0.04620037      -0.12458916       0.00238522      -0.00487777      -0.00349418
C        2.39821990      -1.49210157       0.13958717      -0.13593198       0.00350106       0.00161477       0.00343433
C        3.38388733      -0.52327716       0.03421636      -0.15799192       0.00012536       0.00289582       0.00342058
H        4.42746239      -0.79193780       0.11108853       0.13751316      -0.00377979      -0.00210377      -0.00346594
C        3.01371060       0.79807836      -0.16972209      -0.13874245      -0.00058466       0.00070345       0.00035325
C        1.67574048       1.13685501      -0.26600874      -0.16815157      -0.00048512      -0.00170979       0.00131859
H       -5.15825236       0.58237591      -0.43301185       0.14653909       0.00334303      -0.00546324      -0.00131899
H       -4.29733884      -1.03895820      -0.16341704       0.15901355      -0.00172086       0.00218732      -0.00062174
H       -2.97859394       1.69721327      -0.52122373       0.12166084       0.00216016       0.00079110       0.00029406
H       -0.76482075       1.57446184      -0.41478040       0.26807687      -0.00180539       0.00374314      -0.00413699
H        0.28985639      -1.91778571       0.12953466       0.14083722      -0.00066509      -0.00401284      -0.00125517
H        2.67406511      -2.52496469       0.29827745       0.13521580      -0.00260457       0.00259206       0.00078099
H        3.76809087       1.56756137      -0.25396416       0.13596715      -0.00070025      -0.00237002      -0.00030718
H        1.39196899       2.16966934      -0.42534643       0.13087900      -0.00511315      -0.00212277      -0.00058025
