20
Properties=species:S:1:pos:R:3:charge:R:1:forces:R:3 energy=-13025.464139875008 pbc="F F F"
C        3.72426184      -0.43511385       0.24664479      -0.27905121       0.00053257      -0.00069229       0.00080349
C        3.12672743       0.69356939       0.60265600      -0.14952044       0.00043692       0.00025635      -0.00313976
C        1.64588052       0.91430205       0.71697701       0.46562386       0.00143081      -0.00410832       0.00517923
O        1.21745630       1.83227643       1.38551128      -0.45728901       0.00354524       0.00268950       0.00009779
N        0.86654162       0.02876554       0.01991865      -0.33206904       0.00156747      -0.00263040      -0.00124956
C       -0.53962865      -0.04136388      -0.03516331       0.11862960      -0.00072075       0.00322427      -0.00446855
C       -1.37301204       0.66990871       0.82218778      -0.12266502       0.00047402       0.00359661      -0.00073466
C       -2.74790167       0.52049313       0.70923037      -0.13730171       0.00014164       0.00131082      -0.00490883
C       -3.30644769      -0.32048596      -0.24022798      -0.15491465      -0.00111391      -0.00087871      -0.00003191
C       -2.47116251      -1.02849598      -1.09183830      -0.13879953      -0.00170837       0.00274151       0.00087127
C       -1.09817226      -0.89048318      -0.98844614      -0.16585597      -0.00261266       0.00241362      -0.00404881
H       -0.44689475      -1.44366914      -1.65397829       0.12901907      -0.00282103      -0.00331662      -0.00047266
H        4.80057210      -0.51750524       0.20653111       0.15120557      -0.00067727       0.00477781       0.00015890
H        3.16710865      -1.33158256       0.01065405       0.13571003       0.00521450      -0.00311663       0.00149339
H        3.69669439       1.56263760       0.89647154       0.12659696      -0.00371317       0.00139052       0.00203127
H        1.34385879      -0.56094896      -0.63580791       0.25523913       0.00205256      -0.00535558      -0.00052839
H       -0.94016486       1.32906866       1.55287157       0.14367716      -0.00016092       0.00208438       0.00479962
H       -3.38878188       1.07838060       1.37699624       0.13614622      -0.00001061      -0.00535572      -0.00217955
H       -4.37901241      -0.42323855      -0.31791943       0.13827901      -0.00126114      -0.00206813       0.00293305
H       -2.88682540      -1.68965975      -1.83885671       0.13734007      -0.00059645       0.00303741       0.00339457
