19
Properties=species:S:1:pos:R:3:charge:R:1:forces:R:3 energy=-13462.469436431316 pbc="F F F"
C        4.11965642      -0.18500553      -0.38588280      -0.27425730      -0.00856463       0.00064671      -0.00176604
C        3.02542381       0.27274173       0.20362211      -0.15746397       0.00205660      -0.00313600       0.00038046
C        1.67407390      -0.18009828      -0.24538192       0.44079551       0.00089234       0.00373751      -0.00082253
O        1.50930682      -0.97052848      -1.15233194      -0.43465132      -0.00133591       0.00422320       0.00740031
N        0.64905444       0.38452622       0.46574598      -0.35214457       0.00310861      -0.00058215       0.00327026
C       -0.73089032       0.19258989       0.31884044       0.31353742       0.00494068       0.00472627       0.00356435
C       -1.31258248      -0.65293898      -0.62416401      -0.13344961       0.00637739       0.00551997       0.00200091
C       -2.69162614      -0.73087650      -0.64120038      -0.10966779       0.00592925      -0.00579492      -0.00074207
C       -3.44113235       0.01539626       0.25832492      -0.16124482       0.00308233      -0.00235583       0.00014217
C       -2.75914002       0.82147202       1.15166473       0.05701692       0.00385647       0.00248557      -0.00228300
N       -1.43332504       0.91373270       1.18763476      -0.38896537       0.00226311       0.00322883       0.00489695
H        5.10505266       0.13217421      -0.07368766       0.14734010      -0.00607915      -0.00523417      -0.00478769
H        4.04548625      -0.89237656      -1.20002334       0.15985903      -0.00675204       0.00059171       0.00158230
H        3.08115673       0.98210441       1.02106662       0.12186769      -0.00373367      -0.00127198      -0.00160246
H        0.86301103       1.03269020       1.20454069       0.26412836       0.00148222      -0.00108620      -0.00345907
H       -0.69550620      -1.21188150      -1.30103905       0.13722888      -0.00130079       0.00095108       0.00168337
H       -3.17826311      -1.37639944      -1.35808523       0.13242660      -0.00282420      -0.00171053      -0.00496137
H       -4.51916578      -0.02758099       0.26613413       0.13696931       0.00346528      -0.00169433      -0.00287462
H       -3.29640005       1.42380049       1.87393543       0.10067496      -0.00686482      -0.00324499      -0.00162228
