37
Properties=species:S:1:pos:R:3:charge:R:1:forces:R:3 energy=-29233.001071982988 pbc="F F F"
O       -0.63701686      -1.77157491       1.33544409      -0.45942384      -0.00011841      -0.00534239      -0.00119754
C        0.36727944      -1.07355141       1.28611925       0.43479833      -0.00204937      -0.00340772      -0.00518440
C        1.73638819      -1.69076694       1.44753482       0.02003691       0.00100190      -0.00197492       0.00313006
C        2.91638985      -0.82024445       1.73890889      -0.23075624      -0.00041735       0.00253614       0.00243120
C        1.81698894      -3.01255202       1.33820043      -0.37677553      -0.00214817       0.00254354       0.00317344
N        0.34781256       0.27365375       1.11040721      -0.36085427       0.00207240      -0.00061456       0.00068991
C       -0.89785885       1.01514326       0.85689183       0.11101256       0.00612536       0.00206132      -0.00426837
C       -0.51695866       2.49046621       0.72927872      -0.24433120      -0.00230403       0.00382578      -0.00199140
C       -1.83167148       0.84604890       2.05078706      -0.24040782       0.00246460       0.00064548      -0.00216378
C       -1.53420935       0.55756240      -0.46062566       0.05424821       0.00253918      -0.00353584      -0.00201964
C       -0.73921063       0.53059543      -1.60909933      -0.11301978       0.00202033       0.00280024      -0.00024079
C       -1.25711220       0.08086358      -2.80958644      -0.14904717       0.00380401       0.00085359       0.00022683
C       -2.58361337      -0.31763714      -2.90131897      -0.17126575       0.00601121       0.00107529      -0.00501945
C       -3.38928181      -0.25904210      -1.77718975      -0.16510619       0.00155351       0.00097677      -0.00449060
C       -2.86616863       0.17934131      -0.56571252      -0.14710568      -0.00237841      -0.00070111       0.00035946
H        3.18672099      -0.20818037       0.87347479       0.08246774       0.00493063      -0.00346460       0.00127901
H        3.76294798      -1.44243347       2.02570645       0.07896664       0.00200832       0.00334023      -0.00513622
H        2.68861308      -0.13571323       2.55882121       0.07339644       0.00108089      -0.00369100       0.00768816
H        0.92405822      -3.58771681       1.14608742       0.14351821      -0.00010410      -0.00303161       0.00008997
H        2.76247386      -3.52849121       1.43935225       0.13449667      -0.00005460       0.00103103      -0.00107049
H        1.18992149       0.68953308       0.69447799       0.23386155      -0.00349833       0.00444098      -0.00720222
H        0.18507770       2.63440871      -0.08797526       0.07841247      -0.00123221       0.00002365       0.00606604
H       -1.40451226       3.09307785       0.54305964       0.07378541       0.00062336       0.00631501       0.00122385
H       -0.04345258       2.83022666       1.65057396       0.07433152      -0.00487493       0.00182323      -0.00236070
H       -1.30726751       1.15369278       2.95287463       0.07326970       0.00264710       0.00016282       0.00298726
H       -2.12434347      -0.19237277       2.15226130       0.08259036       0.00118001      -0.00280728       0.00622535
H       -2.71526869       1.47414986       1.93745104       0.06654948      -0.00527241      -0.00309409      -0.00072377
H        0.29073863       0.86780008      -1.55999070       0.12527080       0.00219570      -0.00125894      -0.00765990
H       -0.62660123       0.04066210      -3.68797824       0.12399678      -0.00432961       0.00032958      -0.00117219
H       -2.98384119      -0.67071181      -3.84103635       0.12788205      -0.00212038      -0.00134206      -0.00168806
H       -4.42535909      -0.56518603      -1.83422300       0.12487575      -0.00171348       0.00005805       0.00190540
H       -3.50389918       0.20866815       0.30454692       0.11949161      -0.00024608       0.00175044       0.00890136
S        2.70187337       1.50828307      -0.95671624      -0.76058578       0.00000855      -0.00078152      -0.00115573
C        2.63698093      -0.05319459      -1.88944286      -0.28898579      -0.00275487      -0.00132822       0.00175826
H        1.97253737       0.02800547      -2.75197297       0.09207967       0.00192543       0.00004535       0.00415992
H        3.62721014      -0.31924731      -2.25933113       0.09631807      -0.00756119      -0.00327806       0.00089854
H        2.26985377      -0.88136973      -1.27645591       0.08200809      -0.00101517       0.00301495       0.00155110
