31
Properties=species:S:1:pos:R:3:charge:R:1:forces:R:3 energy=-17743.78005186632 pbc="F F F"
C       -0.77194172      -0.26256317      -0.88152993      -0.17876537      -0.00113937       0.00257037      -0.00106779
C        0.50858065       0.36430469      -0.45039631       0.44074899       0.00197175      -0.00427073      -0.00215386
O        0.57815784       1.51013992      -0.05193632      -0.45264098       0.00027851      -0.00290148       0.00154340
N        1.58732303      -0.47909020      -0.54776756      -0.35288391       0.00297914       0.00544967       0.00114027
C        2.94073158      -0.23021653      -0.24573908       0.13975134       0.00020565      -0.00275281      -0.00312890
C        3.40926445       0.99361063       0.22532561      -0.12112589      -0.00549211      -0.00304254      -0.00264059
C        4.76329594       1.14307508       0.48965348      -0.13762252      -0.00430829      -0.00201780      -0.00255514
C        5.65612228       0.10061618       0.29427927      -0.15774845       0.00129983      -0.00072497       0.00144278
C        5.18341462      -1.11715337      -0.17339400      -0.14176565      -0.00133171      -0.00134893      -0.00075886
H        5.86409095      -1.94186416      -0.33128047       0.13344122       0.00203899       0.00318946       0.00220759
C        3.83643281      -1.28099032      -0.44046890      -0.16263215       0.00008002      -0.00077657      -0.00137568
C       -1.90914725       0.41614904      -0.79683301      -0.08156709      -0.00182088      -0.00154801       0.00078065
C       -3.25931590      -0.10971676      -1.19701798      -0.02324989      -0.00682691      -0.00094559      -0.00022461
N       -4.25437658      -0.14331776      -0.13314963      -0.29018614       0.00336004       0.00316644       0.00675485
C       -3.86610295      -1.00855003       0.96490484      -0.13587403      -0.00092076      -0.00096036       0.00341243
C       -4.65251660       1.17390372       0.32226278      -0.13935545      -0.00089607       0.00143201      -0.00041175
H       -0.73958368      -1.27750487      -1.26161356       0.10848758       0.00135804       0.00217521       0.00377276
H        1.39619038      -1.40760086      -0.87642986       0.26271605       0.00092261       0.00985826       0.00036146
H        2.71705022       1.80168337       0.37647629       0.13721363      -0.00244191      -0.00007053      -0.00128009
H        5.11998109       2.09574401       0.85482928       0.13236336       0.00120216      -0.00320856      -0.00177165
H        6.70731598       0.23390365       0.50330569       0.13484235       0.00525523       0.00101465       0.00375450
H        3.46808431      -2.23193430      -0.80490349       0.12768382       0.00507868      -0.00194428      -0.00184738
H       -1.85037857       1.42658579      -0.41336330       0.13444245      -0.00026889      -0.00209743       0.00408090
H       -3.14592353      -1.12041343      -1.58448380       0.08135907       0.00379253      -0.00346303       0.00025959
H       -3.65259814       0.49985301      -2.01173220       0.07743363      -0.00179590       0.00413297      -0.00209357
H       -3.01434152      -0.62231669       1.53862272       0.07116019       0.00019165      -0.00310129      -0.00171918
H       -3.59789905      -1.99254384       0.58282081       0.07532812       0.00321731       0.00171251       0.00041883
H       -4.70529966      -1.12790717       1.64659208       0.08487758      -0.00455845       0.00030403      -0.00065397
H       -5.48677993       1.08000941       1.01481801       0.08576269      -0.00156761       0.00179142      -0.00340789
H       -3.85134263       1.71962910       0.83862971       0.06796969      -0.00312030      -0.00085868      -0.00037165
H       -4.98279319       1.77203845      -0.52494497       0.07983574       0.00325653      -0.00076342      -0.00246785
