20
Properties=species:S:1:pos:R:3:charge:R:1:forces:R:3 energy=-13025.5092484993 pbc="F F F"
C        4.21975767       0.40299671       0.09189970      -0.27698651       0.00170100       0.00400956       0.00890721
C        3.10990873      -0.31907917       0.10662340      -0.15188314       0.00199161       0.00065443      -0.00628244
C        1.77171108       0.34522749       0.02441881       0.44849801      -0.00292872      -0.00218995       0.00210412
O        1.65511324       1.55111949      -0.05753109      -0.43434748      -0.00169106      -0.00178000      -0.00219010
N        0.71493693      -0.52615814       0.05113700      -0.36157876      -0.00219565      -0.00579016       0.00457922
C       -0.66444869      -0.23576465      -0.00619771       0.12601088      -0.00219755       0.00142393      -0.00465371
C       -1.17245551       1.05528208      -0.10895632      -0.12456631      -0.00118925       0.00364404       0.00023069
C       -2.54670385       1.24186268      -0.16022036      -0.13595824       0.00032062      -0.00224676      -0.00268702
H       -2.93267709       2.24830228      -0.23931707       0.13521571       0.00070023      -0.00456556      -0.00020133
C       -3.42230472       0.16831036      -0.11248944      -0.15797600       0.00107008       0.00032988       0.00503163
H       -4.48990893       0.32831198      -0.15291668       0.13752106       0.00238186       0.00629357      -0.00288388
C       -2.91064189      -1.11706816      -0.01021046      -0.13871689       0.00084287       0.00083871       0.00078214
C       -1.54277849      -1.31700874       0.04313737      -0.16810720       0.00003335      -0.00034536       0.00251195
H       -1.14849235      -2.32212151       0.12507757       0.13084121       0.00619205      -0.00105818      -0.00350620
H        5.19648844      -0.05600974       0.15386015       0.14652899       0.00424724      -0.00304755      -0.00617560
H        4.16569634       1.47967762       0.01846872       0.15900625      -0.00134055       0.00737374       0.00003665
H        3.14832034      -1.39978407       0.17700361       0.12168434      -0.00508995      -0.00193837       0.00394905
H        0.93223263      -1.50279904       0.12418928       0.26802206      -0.00067768      -0.00530528      -0.00142498
H       -0.49500029       1.88818579      -0.14715395       0.14081554      -0.00090896       0.00281944       0.00080469
H       -3.57765517      -1.96662865       0.02843164       0.13597646      -0.00126217       0.00087951       0.00106792
