37
Properties=species:S:1:pos:R:3:charge:R:1:forces:R:3 energy=-29684.669286965018 pbc="F F F"
C        4.90584380      -1.03452609       1.41371012      -0.14641063       0.00101518       0.00364855       0.00022009
C        3.71786837      -0.32936509       1.32074038      -0.14930959       0.00058473       0.00205813       0.00201338
C        3.12596763      -0.10652292       0.07929834       0.14005153      -0.00045309      -0.00199684       0.00029918
N        1.93866134       0.65340918       0.04977736      -0.33230633      -0.00011077      -0.00390325      -0.00501637
C        0.94549197       0.60522048      -0.88652346       0.40820673      -0.00120213      -0.00644142      -0.00149318
O        0.97826385      -0.09324236      -1.87900110      -0.43726695      -0.00091989       0.00032221       0.00379700
C       -0.26017732       1.45188113      -0.55605929      -0.14751860       0.00268310       0.00151004      -0.00172502
C       -1.41255429       0.54799100      -0.11779023      -0.05525227       0.00153508       0.00144302       0.00115300
S       -0.99706332      -0.37579758       1.40705005      -0.18268736       0.00788377      -0.00236195       0.00129642
C       -0.11228594      -1.79555323       0.72468182      -0.17505762      -0.00070582      -0.00185247      -0.00321474
C       -2.70783176       1.35873309       0.07568467      -0.03812715      -0.00144849      -0.00074017       0.00017828
N       -3.87514302       0.69713384      -0.48014259      -0.25743392      -0.00293414       0.00119500      -0.00369922
C       -4.97468132       1.62970403      -0.65072906      -0.14536372      -0.00048686       0.00002831      -0.00171728
C       -4.29809930      -0.45562523       0.29162326      -0.13781987      -0.00274551       0.00427118      -0.00086187
C        3.72714677      -0.60490159      -1.06957965      -0.10620730       0.00041809      -0.00360977      -0.00097273
C        4.91738338      -1.30944449      -0.96281486      -0.13944744       0.00342228       0.00208958      -0.00404627
H        5.37660150      -1.69222811      -1.86234855       0.13330913       0.00553285      -0.00167997      -0.00395384
C        5.51438976      -1.52917424       0.26947938      -0.16344333      -0.00022779       0.00383143      -0.00224913
H        6.44104951      -2.07971051       0.33645396       0.13446967      -0.00203254      -0.00026053       0.00462423
H        5.35548005      -1.19536494       2.38256854       0.13391359       0.00067943      -0.00774800       0.00344479
H        3.23592577       0.04352615       2.21587204       0.12548055       0.00222112       0.00857236       0.00345276
H        1.68294028       1.09716865       0.91421672       0.24609035      -0.00760063      -0.00125919       0.00543958
H       -0.05226092       2.19033851       0.21761796       0.06748451       0.00639973      -0.00190421       0.00124745
H       -0.55677854       1.96933709      -1.46489527       0.08851533      -0.00087085      -0.00203787      -0.00439838
H       -1.57981816      -0.18781365      -0.90416125       0.11911151       0.00324975      -0.00014039       0.00022941
H       -0.36570828      -2.65962322       1.33306978       0.11884463      -0.00222778       0.00377480       0.00067022
H       -0.40903245      -1.98199455      -0.30192393       0.09095041      -0.00040316      -0.00001707      -0.00615079
H        0.95754288      -1.63723812       0.76264875       0.07542256       0.00024729      -0.00102126      -0.00028628
H       -2.57616292       2.30501084      -0.45118443       0.08210116      -0.00107353      -0.00286856      -0.00034677
H       -2.84725352       1.61064670       1.13734859       0.07106611      -0.00067923       0.00228832       0.00074810
H       -5.33388337       2.05407343       0.29950099       0.06399813       0.00191825      -0.00459829       0.00018969
H       -5.81037720       1.12718992      -1.13300722       0.08353082      -0.00163430       0.00010140       0.00400276
H       -4.66218252       2.44981332      -1.29381279       0.07646996      -0.00551201       0.00600058       0.00150532
H       -3.49915809      -1.18913739       0.36737388       0.06867151      -0.00322138       0.00651174      -0.00558802
H       -4.60430691      -0.18355402       1.31263951       0.06791124       0.00210150       0.00172096       0.00211972
H       -5.14320620      -0.93198978      -0.20196973       0.08560958       0.00012154      -0.00731224       0.00402562
H        3.25363426      -0.44617860      -2.02273075       0.13244319      -0.00352305       0.00238609       0.00506252
