37
Properties=species:S:1:pos:R:3:charge:R:1:forces:R:3 energy=-29684.710686407758 pbc="F F F"
C        5.00045468       0.98445390       1.57575088      -0.14527169      -0.00127318      -0.00319514      -0.00119480
C        3.81492024       0.30161831       1.37060219      -0.15014954      -0.00360241       0.00088390      -0.00023217
C        3.08369144       0.49390400       0.20125484       0.15194668      -0.00380006       0.00188216       0.00073385
N        1.90415592      -0.25997403       0.03763149      -0.33717534      -0.00084360      -0.00387431       0.00464268
C        0.81633609       0.05299588      -0.72568292       0.40631172      -0.00222635       0.00414784       0.00114917
O        0.72905113       1.05188804      -1.41174176      -0.42968380      -0.00426063       0.00412504      -0.00079659
C       -0.35840846      -0.89173976      -0.58608072      -0.14491597       0.00206908       0.00313405      -0.00302793
C       -1.36900037      -0.22016868       0.35136686      -0.04915576       0.00266010       0.00106229      -0.00074671
S       -0.90115954      -0.38393366       2.09951251      -0.19765748       0.00248153      -0.00340761       0.00130336
C       -1.18015190      -2.13795644       2.41665317      -0.18135785      -0.00267355       0.00293746      -0.00226005
C       -2.80733670      -0.63965006       0.06035901      -0.03381358      -0.00014675      -0.00213485       0.00059601
N       -3.22019244      -0.25618996      -1.28381992      -0.24511251       0.00026182      -0.00008828      -0.00018930
C       -3.31176867       1.18444782      -1.44452972      -0.13830011       0.00135482       0.00225425      -0.00046238
C       -4.48205086      -0.88430145      -1.62984858      -0.14282113      -0.00135316      -0.00272093       0.00148816
C        3.54755710       1.38018419      -0.76365243      -0.10962293       0.00484427       0.00275939      -0.00276361
C        4.73734886       2.05833548      -0.54501628      -0.13846271       0.00074918       0.00279748       0.00027639
H        5.08843401       2.74939741      -1.29776164       0.13152969       0.00397756      -0.00822049      -0.00068562
C        5.47074503       1.86958249       0.61617252      -0.16215664       0.00417967      -0.00146820      -0.00274073
H        6.39496040       2.40583697       0.77414071       0.13425246       0.00082453       0.00023726       0.00024975
H        5.55848496       0.82648658       2.48724994       0.13298324      -0.00138842       0.00367785       0.00549534
H        3.44063501      -0.37936190       2.12499074       0.12571336      -0.00147569      -0.00582124       0.00164716
H        1.75544453      -0.97572314       0.72765050       0.23629673       0.00104673       0.00014038      -0.00474346
H       -0.06630226      -1.87780374      -0.22906510       0.06349172      -0.00192438      -0.00061414      -0.00406371
H       -0.82357228      -0.99420419      -1.56273099       0.09918886       0.00211087       0.00369279      -0.00196238
H       -1.29020994       0.85169610       0.18764786       0.11881961      -0.00205380       0.00309583       0.00382120
H       -0.54407598      -2.78240707       1.81446811       0.07750719       0.00396351       0.00098689      -0.00008851
H       -2.21917274      -2.41166447       2.26425676       0.08387884      -0.00520069       0.00403273      -0.00377697
H       -0.93407646      -2.28946194       3.46418367       0.11688635       0.00214709       0.00182075       0.00099903
H       -3.47659696      -0.20824518       0.81521813       0.06530582      -0.00244535       0.00240566       0.00065316
H       -2.88266756      -1.72488381       0.14739513       0.07554461       0.00085727      -0.00527868       0.00211850
H       -3.93879053       1.65519960      -0.67408414       0.06545357      -0.00378095      -0.00191658       0.00073350
H       -3.74826409       1.41419643      -2.41454396       0.08599651       0.00370663      -0.00343066      -0.00472237
H       -2.32457239       1.63935782      -1.41713601       0.08060096       0.00598694      -0.00342796       0.00519537
H       -5.31856180      -0.53487389      -1.00506169       0.06345499       0.00060402       0.00191352       0.00550976
H       -4.72215168      -0.66714469      -2.66844163       0.08282536      -0.00102799      -0.00027078       0.00037926
H       -4.40140433      -1.96384795      -1.52294209       0.07493030      -0.00183955      -0.00688319      -0.00185242
H        2.97448416       1.53613650      -1.66036260       0.13273868      -0.00250922       0.00476678      -0.00068278
