26
Properties=species:S:1:pos:R:3:charge:R:1:forces:R:3 energy=-24966.47637713409 pbc="F F F"
C        3.66974291       1.60915006      -0.84066023      -0.13423672       0.00140900      -0.00233003      -0.00056574
C        2.36118903       1.19827735      -0.63212026      -0.11732657      -0.00122175       0.00055001       0.00260271
C        2.12429378       0.00292688       0.04035555       0.14451969       0.00073227      -0.00413311      -0.00115186
N        0.83756808      -0.50313394       0.30307009      -0.36003795       0.00049470       0.00105393       0.00021149
C       -0.38333177       0.02297062      -0.02263700       0.41463578       0.00120853       0.00370352      -0.00065905
O       -0.54024371       1.06403926      -0.62161747      -0.42619857       0.00117112       0.00173161      -0.00115140
C       -1.56353387      -0.82231454       0.43810165      -0.13428323      -0.00048598      -0.00122502       0.00196391
C       -2.87241363      -0.17626142       0.04265329      -0.10198753      -0.00210646       0.00206907      -0.00189688
S       -4.21314111      -1.23688831       0.61763018      -0.20426643       0.00189712      -0.00232489       0.00099440
C       -5.60611667      -0.25087719       0.03340422      -0.20188029      -0.00206552       0.00018156       0.00276860
C        3.20227755      -0.75787289       0.49089154      -0.15710998       0.00058341      -0.00112536       0.00000145
C        4.50158430      -0.33510939       0.27623503      -0.14112046      -0.00082036      -0.00171854       0.00146546
H        5.32691271      -0.93539036       0.63178095       0.13444127      -0.00019953      -0.00086930      -0.00032724
C        4.74364149       0.85557748      -0.39345723      -0.16269657       0.00340555      -0.00411488      -0.00013428
H        5.75636306       1.18945199      -0.56411093       0.13592760       0.00495841       0.00140018       0.00049455
H        3.84485667       2.53788381      -1.36463045       0.13296834       0.00025378       0.00470217       0.00003968
H        1.53236865       1.78682569      -0.98017716       0.13535640      -0.00456906       0.00140426      -0.00280345
H        0.82261342      -1.37477334       0.80065644       0.26243123      -0.00100793      -0.00010374      -0.00047479
H       -1.50773938      -0.95324632       1.52081553       0.07454507      -0.00438108       0.00240754       0.00399088
H       -1.47853407      -1.82164195       0.00603138       0.07456394      -0.00209694      -0.00087239      -0.00606258
H       -2.91796713      -0.05716911      -1.03592358       0.10163628      -0.00288280      -0.00183800      -0.00335086
H       -2.95055404       0.81052201       0.48961165       0.10156008      -0.00148338       0.00272856       0.00271452
H       -5.60913275       0.73275286       0.49686286       0.09277454       0.00205571       0.00338858      -0.00031675
H       -6.51648685      -0.77352164       0.31377203       0.11601014      -0.00033522      -0.00448736      -0.00184370
H       -5.58126617      -0.14143990      -1.04826333       0.09281036       0.00075346      -0.00226560       0.00203218
H        3.01208307      -1.68744807       1.01209195       0.12696362       0.00473286       0.00208714       0.00145863
