64
Properties=species:S:1:pos:R:3:charge:R:1:forces:R:3 energy=-65316.91543974158 pbc="F F F"
Cl       4.23180850      -0.45831875      -4.65252025      -0.11216260      -0.00140503      -0.00356873      -0.00086367
C        3.65936636      -0.16995641      -3.03041193      -0.08057813       0.00014794       0.00399555      -0.00062666
C        2.30061858      -0.03257495      -2.83203681       0.04320689      -0.00013830      -0.00314945      -0.00017973
N        1.75374343       0.15466120      -1.64532473      -0.36722741      -0.00201894      -0.00264977      -0.00118836
C        2.61906337       0.18868806      -0.62370655       0.44436109      -0.00094860      -0.00274181      -0.00083326
N        2.20205272       0.37133069       0.65087874      -0.31020516       0.00105898       0.00238404      -0.00046153
C        0.91898017       0.46105205       1.21433727       0.08233413       0.00200877       0.00169832      -0.00102128
C        0.86848709       0.57947481       2.61171507       0.07936240      -0.00158885      -0.00075265      -0.00147068
O        2.09858876       0.61556499       3.23721918      -0.23214218      -0.00057245      -0.00402227      -0.00139482
C        2.09357820       0.58257826       4.64487884      -0.07766221      -0.00007477      -0.00175141      -0.00072112
C       -0.35235850       0.65517539       3.24910568      -0.20800564      -0.00023816      -0.00061529       0.00135422
C       -1.54448002       0.61946863       2.53029657      -0.18032081       0.00057482       0.00801106      -0.00176738
C       -1.50959626       0.50537533       1.14253502       0.12648180       0.00189319      -0.00762966      -0.00039172
N       -2.62626224       0.42235054       0.35059170      -0.35953879      -0.00209909      -0.00132106       0.00489134
C       -4.01618288       0.62626153       0.70451718       0.31734529      -0.00228323       0.00380677      -0.00137969
C       -4.91741651       0.40546429      -0.32480059      -0.36998960      -0.00239058       0.00101617      -0.00368849
C       -6.39452484       0.63961542      -0.21305066      -0.01550827      -0.00256143      -0.00482889      -0.00288603
C       -7.06633211      -0.68346304       0.15310549      -0.15294135       0.00035837      -0.00680737       0.00059621
C       -6.41367675      -1.81036901      -0.65886548      -0.04862451      -0.00164112      -0.00163748       0.00203736
N       -5.79088412      -1.27661628      -1.85862667      -0.25496721      -0.00891871       0.00211987       0.00009981
C       -5.43901241      -2.32094779      -2.78291660      -0.14616430      -0.00368241       0.00303343       0.00102413
C       -4.62108528      -0.46941018      -1.51055211      -0.05064814      -0.00484394      -0.00487555       0.00046888
O       -4.25663737       0.98544077       1.87912633      -0.43961784       0.00491589       0.00150844       0.00135047
C       -0.25409434       0.43296479       0.50022853      -0.18146139       0.00224499       0.00326900      -0.00176443
N        3.94699927       0.05365157      -0.72024358      -0.35018262      -0.00060174       0.00353827      -0.00042196
C        4.50768379      -0.10017382      -1.92103808       0.18187752       0.00047241      -0.00138715       0.00048016
C        5.95664603      -0.19376250      -1.97791338       0.00754932       0.00096890       0.00284664      -0.00102687
C        6.74980181      -0.39043606      -0.84207730       0.14192571      -0.00273408      -0.00038244       0.00277807
C        6.52794368      -0.57665711       0.54653754      -0.14655262      -0.00021103       0.00009781       0.00454316
C        7.59910591      -0.75277415       1.37124271      -0.14546973       0.00423331      -0.00260343      -0.00167392
C        8.92346668      -0.74803531       0.85539068      -0.17857026       0.00382010      -0.00198549      -0.00175569
C        9.13625914      -0.56788301      -0.46667776      -0.05254011       0.00027021       0.00256264      -0.00155094
N        8.05055392      -0.39379122      -1.28340972       0.14322798      -0.00207975       0.00205735       0.00191807
N        8.14217265      -0.20288357      -2.61098501      -0.40623248       0.00195307       0.00045249       0.00196542
C        6.89331782      -0.08318130      -3.02796278      -0.01724631       0.00293120       0.00115194      -0.00242164
H        1.63347365      -0.07834687      -3.68221316       0.07491580      -0.00117332      -0.00024527       0.00058202
H        2.94943456       0.40181995       1.31948354       0.26029095      -0.00296099       0.00108967       0.00503927
H        3.13796361       0.55160037       4.94423766       0.08193713       0.00033169       0.00087938      -0.00078836
H        1.63047465       1.47454476       5.07011657       0.07052104       0.00011581       0.00161651      -0.00396246
H        1.58545580      -0.30539954       5.02388801       0.06985169      -0.00014837      -0.00254512       0.00234244
H       -0.40868628       0.74499222       4.32283349       0.12313220       0.00304941       0.00579579       0.00126503
H       -2.50196974       0.68292256       3.01234710       0.12976517       0.00382821      -0.00055839       0.00256527
H       -2.43729778       0.34383989      -0.63114302       0.23191541      -0.00195053      -0.00227091       0.00252632
H       -6.77111284       0.92285357      -1.20492327       0.09498324       0.00274716       0.00877051      -0.00218238
H       -8.13949104      -0.62602317      -0.04158627       0.06999591       0.00335258      -0.00092337      -0.00269465
H       -6.91867810      -0.87490100       1.21616415       0.08244346       0.00400093      -0.00201526       0.00031523
H       -7.15417975      -2.55734652      -0.95535670       0.07272103       0.00041207       0.00364240      -0.00360558
H       -5.66542799      -2.32989453      -0.03279930       0.06074498      -0.00163605       0.00000652      -0.00095304
H       -4.77838221      -3.08511324      -2.33762217       0.05264762      -0.00096260       0.00292644      -0.00249842
H       -6.34545967      -2.81310407      -3.13325228       0.07435817       0.00102941      -0.00040841      -0.00283599
H       -4.92232824      -1.88954884      -3.64030754       0.07096350       0.00198213      -0.00143049       0.00217971
H       -3.77852476      -1.15115917      -1.29659264       0.06191563      -0.00440460      -0.00381189      -0.00007674
H       -4.35432487       0.09700323      -2.41482815       0.06652524       0.00499024      -0.00741406       0.00387342
H       -0.19798465       0.34658191      -0.57214101       0.11788873       0.00125616       0.00169166      -0.00238025
H        5.50411466      -0.56531301       0.88675534       0.12261227      -0.00218491      -0.00105003       0.00352539
H        7.45053413      -0.89801896       2.43095756       0.12373331      -0.00364985       0.00176226      -0.00390212
H        9.76783822      -0.88737750       1.51367278       0.13008174      -0.00159097      -0.00002624       0.00433900
H       10.09789582      -0.54554274      -0.95527323       0.12686948       0.00118794      -0.00269332       0.00132038
H        6.72552373       0.09588617      -4.07275278       0.10644567      -0.00027102       0.00427786      -0.00318448
S       -7.06131281       1.94109808       0.88539700      -0.23164074       0.00365943       0.00174896       0.00241954
C       -5.91756304       3.26598705       0.46390124      -0.21047075       0.00035643      -0.00030306       0.00116405
H       -5.96030229       3.49319717      -0.60072336       0.08320594       0.00075006      -0.00089989       0.00218619
H       -4.91305816       2.95507687       0.74208113       0.08831388      -0.00115620      -0.00074386       0.00100677
H       -6.20440315       4.14891888       1.03122474       0.11021985       0.00221967       0.00229266      -0.00160176
