37
Properties=species:S:1:pos:R:3:charge:R:1:forces:R:3 energy=-30706.526516853115 pbc="F F F"
C        4.88926337       0.61255460       0.59235125      -0.16310571       0.00237531       0.00097172      -0.00332438
C        5.59162040      -0.09092942      -0.37884609      -0.20816173      -0.00094913       0.00202723      -0.00448282
C        4.86837377      -0.72970462      -1.37671547      -0.17731835      -0.00029085      -0.00165000       0.00072193
C        3.48778804      -0.66480788      -1.39762751      -0.18030827       0.00227455      -0.00503209       0.00296037
C        2.77143502       0.04520796      -0.41811558       0.20579758       0.00266327       0.00396463      -0.00213317
N        1.39906312       0.09994434      -0.52767309      -0.35962150       0.00059479      -0.00381389      -0.00136397
C        0.42469490       0.50479143       0.46162676       0.29622054      -0.00160938       0.00584972      -0.00024485
C       -0.90982935       0.31268660       0.12382666      -0.28076547       0.00044423      -0.00036468       0.00021217
C       -1.94183246       0.50249912       1.16926290      -0.04551962       0.00120926      -0.00045092      -0.00070707
C       -3.17770370       1.27251438       0.66041955      -0.14789931       0.00147605       0.00012209       0.00856206
C       -3.09604793       1.47548445      -0.85487587      -0.05446742      -0.00013965      -0.00095235       0.00589085
N       -2.75170276       0.26928283      -1.57551858      -0.32502174      -0.00223754       0.00009639      -0.00416237
C       -3.79057138      -0.73996464      -1.56125556      -0.13940702      -0.00144438      -0.00164193       0.00036002
C       -1.41314762      -0.23191306      -1.19412178      -0.04273327       0.00078079      -0.00123735      -0.00184518
O        0.87088282       0.97096041       1.53502669      -0.50603569       0.00072854       0.00801903       0.00230729
C        3.50681389       0.68982084       0.58918218      -0.13421391       0.00439174       0.00100354       0.00130983
H        5.38348480      -1.28573751      -2.15046597       0.11374328      -0.00555085      -0.00359554       0.00343767
H        2.94207531      -1.17190395      -2.18552037       0.10704953       0.00121466       0.00250732       0.00003419
H        1.02194767      -0.47831865      -1.25192245       0.23308019       0.00077574      -0.00434547      -0.00834326
H       -1.49813940       1.02175497       2.01346281       0.09611429      -0.00521709      -0.00233872      -0.00006563
H       -4.10125819       0.74453154       0.90566043       0.06758650       0.00239900       0.00047084      -0.00206205
H       -3.22564845       2.25194623       1.14122613       0.05817051       0.00127973       0.00364907       0.00055468
H       -2.32853057       2.22168596      -1.06814152       0.06826992       0.00178343      -0.00065516       0.00342605
H       -4.04397222       1.85109283      -1.24280247       0.05892111       0.00271296       0.00062322      -0.00348045
H       -3.54808154      -1.52121946      -2.28488805       0.06500611       0.00329827       0.00264832      -0.00075087
H       -4.73458259      -0.28672079      -1.86772063       0.06792998       0.00012834      -0.00113399       0.00089034
H       -3.93683224      -1.21654432      -0.58312357       0.06257842       0.00010085      -0.00376623      -0.00209327
H       -1.45864450      -1.33449502      -1.18994633       0.06073984      -0.00260446      -0.00162536       0.00406346
H       -0.74396359       0.05312521      -2.01337987       0.06228219       0.00165821       0.00254923      -0.00298507
H        2.95843395       1.22448552       1.34319890       0.12328030      -0.00175496       0.00387115       0.00033825
H        6.67110477      -0.14052566      -0.35941264       0.11955715      -0.00464142       0.00096168       0.00147205
H        5.43204990       1.11868190       1.38092344       0.11235608      -0.00182067      -0.00183214       0.00155216
S       -2.51978654      -1.12580815       1.91823998      -0.27163851      -0.00028741      -0.00192710       0.00180927
C       -0.98387307      -1.54307681       2.75965230      -0.20228928       0.00196228      -0.00031551      -0.00107330
H       -0.76997847      -0.82912882       3.55179309       0.08046692      -0.00098050      -0.00123071      -0.00049644
H       -1.08820934      -2.53836936       3.18947946       0.09813716      -0.00094831      -0.00248923      -0.00183520
H       -0.16046717      -1.52730254       2.05034119       0.08121924      -0.00377393       0.00106382       0.00154734
