69
Properties=species:S:1:pos:R:3:charge:R:1:forces:R:3 energy=-59219.516342148745 pbc="F F F"
Cl       5.58942913      -1.72361126       0.23051284      -0.05620649       0.00593247       0.00161346       0.00229285
C        4.72161617      -0.23644600       0.04517984      -0.03952894      -0.00066855      -0.00319583       0.00356350
C        5.34015033       0.86035472      -0.56014240       0.14643390      -0.00402788       0.00139422       0.00242292
O        6.62217215       0.71453728      -0.95661521      -0.19586189      -0.00305258      -0.00621142      -0.00393010
C        7.17547695       1.66230938      -1.85334734      -0.01203300       0.00075936      -0.00260169      -0.00065694
C        8.47091960       1.12363947      -2.40090984       0.20579199      -0.00076495      -0.00107303      -0.00783240
N        9.10519261       1.94804234      -3.23116974      -0.38644022       0.00012452       0.00426819      -0.00395125
C       10.24825441       1.53382353      -3.77023191       0.05760962      -0.00032024       0.00206834       0.00107751
C       10.80647429       0.29347616      -3.50826918      -0.14263739       0.00087271      -0.00057632      -0.00166312
C       10.13862365      -0.55330568      -2.63971166      -0.11327186       0.00391925       0.00178063       0.00091283
C        8.94771570      -0.13438248      -2.07171751      -0.12221125       0.00185410      -0.00470738      -0.00057404
C        4.61659005       2.03892685      -0.70055220      -0.16449004      -0.00245066       0.00226987       0.00002520
C        3.31553297       2.12618232      -0.23724812      -0.13827443      -0.00190782       0.00152308       0.00412889
C        2.71030418       1.03251784       0.35199511       0.11766186      -0.00666398       0.00191956      -0.00612113
N        1.36178999       1.10067071       0.78270327      -0.37205854      -0.00388530      -0.00372308       0.00192330
C        0.94250197       0.92350701       2.06799807       0.11527605       0.00089212      -0.00106712       0.00443980
C        1.73626911       1.12669692       3.19486151      -0.01833058       0.00158883       0.00333542       0.00295890
C        3.08022431       1.61909210       3.13470445       0.25362545       0.00171866      -0.00230313      -0.00030273
N        4.15715582       2.02209123       3.14262793      -0.38687369       0.00050108      -0.00916144       0.00081774
C        1.17174040       0.93958900       4.47592802       0.05933706       0.00124454       0.00452845       0.00278422
N       -0.05904316       0.59152717       4.70458761      -0.40217036       0.00070336      -0.00084645      -0.00381007
C       -0.85690410       0.38635738       3.61639320       0.20125715      -0.00078348      -0.00057373      -0.00079225
C       -0.41523991       0.52442267       2.29607911       0.02083033       0.00183928       0.00025343      -0.00014603
C       -1.30095553       0.23896042       1.22234556      -0.14533217       0.00514381      -0.00582044      -0.00117779
C       -2.59539036      -0.11413074       1.46225169       0.06712606       0.00193890       0.00140729       0.00416847
N       -3.54469466      -0.40770066       0.48277119      -0.30616128       0.00168947      -0.00272790       0.00373773
C       -3.46810011      -0.16224918      -0.86999172       0.43310726       0.00294711       0.00450567       0.00053438
C       -4.58240461      -0.70954014      -1.67860201      -0.14449276       0.00110053      -0.00175049      -0.00098915
C       -5.35574395      -1.72200362      -1.30928221      -0.13388796      -0.00383898       0.00196141       0.00162968
C       -6.49358478      -2.24796322      -2.12940576      -0.00970963      -0.00296830      -0.00013705      -0.00005620
N       -6.96472948      -1.30744889      -3.12532675      -0.23957479       0.00128131      -0.00231555      -0.00367586
C       -7.78751264      -1.95412700      -4.12501924      -0.14697556       0.00020205      -0.00099664      -0.00140309
C       -7.66766109      -0.19395726      -2.51524312      -0.13821636      -0.00119339      -0.00232646      -0.00382923
O       -2.56585295       0.47413237      -1.38166326      -0.47274441       0.00497307       0.00472063      -0.00282868
C       -3.04742306      -0.25048155       2.81180437       0.13007750       0.00018907      -0.00756871       0.00343377
O       -4.33931857      -0.64780584       2.93387360      -0.22082587      -0.00357555       0.00706798       0.00146344
C       -4.87130012      -0.83436207       4.25019581       0.01533800       0.00209062      -0.00264287      -0.00009047
C       -6.29047451      -1.32456013       4.09300895      -0.21459849       0.00205531       0.00452367       0.00185211
C       -2.19872578      -0.00078596       3.85047792      -0.20004636       0.00018364      -0.00239945       0.00064585
C        3.41994313      -0.15103681       0.49048225      -0.10752530      -0.00003609       0.00384669       0.00271321
H        7.36991887       2.60773739      -1.34630461       0.08829530       0.00266729      -0.00165503       0.00665812
H        6.49786951       1.85941485      -2.68614256       0.08797250      -0.00426406       0.00280484       0.00185480
H       10.73543934       2.22862405      -4.44215576       0.09888395      -0.00066753      -0.00224617       0.00646547
H       11.73573402      -0.00099704      -3.97058520       0.13407204       0.00188467       0.00673901       0.00168285
H       10.53748291      -1.52919762      -2.40469561       0.13221413       0.00228186       0.00306264      -0.00370303
H        8.39453005      -0.76035328      -1.39012955       0.12681396      -0.00219354      -0.00262257       0.00050977
H        5.07129945       2.90327690      -1.15173384       0.13062233      -0.00207947      -0.00206598      -0.00079948
H        2.78278847       3.06343601      -0.31402927       0.13433811       0.00462239       0.00067996      -0.00409973
H        0.67667315       1.44065611       0.13519345       0.27627099       0.00141433      -0.00025773      -0.00383560
H        1.80681816       1.10095816       5.33763101       0.10011902      -0.00171320       0.00260447       0.00531645
H       -0.95793365       0.24559308       0.20436470       0.13399681      -0.00379645      -0.00004896      -0.00807550
H       -4.43189629      -0.70792837       0.84872119       0.23969212      -0.00512923      -0.00063970      -0.00246415
H       -4.70237337      -0.22745843      -2.63873587       0.13086243      -0.00254667      -0.00216221      -0.00304040
H       -5.14628283      -2.25601556      -0.38686676       0.11552179      -0.00138700      -0.00337159      -0.00264810
H       -6.16066148      -3.16818767      -2.61467025       0.08554419      -0.00795848       0.00161696      -0.00339209
H       -7.30535555      -2.54420887      -1.44910267       0.07365548       0.00036367      -0.00432653       0.00132845
H       -8.70325154      -2.39916881      -3.70655148       0.06589836       0.00406393      -0.00086426       0.00027371
H       -8.08065202      -1.22890108      -4.87991755       0.08536440       0.00289946       0.00168296       0.00600074
H       -7.21603353      -2.73926663      -4.61383309       0.08191427      -0.00329169      -0.00259742       0.00690916
H       -7.02422145       0.31583890      -1.80314515       0.07121867      -0.00375698       0.00162555      -0.00337611
H       -7.95568373       0.51381425      -3.28947837       0.08591805      -0.00130632       0.00365609      -0.00050291
H       -8.57775132      -0.51699309      -1.98929758       0.07057982      -0.00031070       0.00186253       0.00445723
H       -4.26534853      -1.56401019       4.78875767       0.08449864       0.00281155      -0.00073164       0.00331595
H       -4.84131114       0.11114451       4.79380469       0.08471153       0.00259337      -0.00158337      -0.00946370
H       -6.31246963      -2.27911950       3.57134415       0.07914031       0.00051448       0.00900116       0.00009991
H       -6.74172461      -1.45743715       5.07432016       0.07838692      -0.00156761      -0.00562403      -0.00320594
H       -6.88607373      -0.60663611       3.53368069       0.08107930       0.00297840       0.00284390       0.00046261
H       -2.50394587      -0.09235397       4.87910790       0.12328002      -0.00309293       0.00476475      -0.00230548
H        2.95970468      -1.02140645       0.93387573       0.12614201       0.00635963      -0.00041116       0.00188210
