64
Properties=species:S:1:pos:R:3:charge:R:1:forces:R:3 energy=-64049.05847899992 pbc="F F F"
C        6.15711011       1.60686845      -1.86318824       0.22834098       0.00006471      -0.00385557      -0.00372580
N        6.23240357       0.55530122      -1.01980989      -0.37976256      -0.00346057      -0.00358127      -0.00630117
C        5.10816261       0.12858175      -0.49430181       0.32299933      -0.00136050       0.00182220       0.00018935
N        5.09513961      -0.97415429       0.32115134      -0.32778141      -0.00252728       0.00255866      -0.00300415
C        6.14984054      -1.72984491       0.86507350       0.12138795      -0.00290962       0.00154404      -0.00640331
C        5.80492855      -2.82749563       1.65065392      -0.15815969      -0.00560868       0.00757265       0.00195963
C        6.78540876      -3.60211354       2.23863339      -0.15752420      -0.00496779      -0.00121980      -0.00455549
C        8.11287161      -3.28264509       2.03760420       0.12329791      -0.00300785       0.00063856       0.00193079
F        9.06468417      -4.03613142       2.61229267      -0.13423230       0.00310109      -0.00028092      -0.00554372
C        8.46393516      -2.19942799       1.25447666      -0.00824732       0.00073137      -0.00355392      -0.00316569
Cl      10.13064154      -1.81568716       1.00500130      -0.05788327       0.00617288       0.00224480       0.00408992
C        7.48508290      -1.41693192       0.66341104      -0.10239625      -0.00177113       0.00156255       0.00590962
C        3.86099883       0.79244393      -0.75870834       0.02907961       0.00222986       0.00072845       0.00091185
C        2.61534401       0.44078304      -0.17701815      -0.15227252       0.00442204      -0.00032091       0.00061158
C        1.47918229       1.12092122      -0.50464379       0.05726590       0.00285080      -0.00290439       0.00041951
N        0.21210809       0.86196081       0.04278206      -0.31049466      -0.00055921      -0.00009984       0.00068702
C       -0.26096735      -0.34730723       0.46495742       0.40890607       0.00185842      -0.00100583       0.00620346
O        0.40660601      -1.36252765       0.48309870      -0.45470768      -0.00357667       0.00005094      -0.00237188
C       -1.73028211      -0.35097969       0.86040376      -0.11686863      -0.00179075       0.00042864      -0.00338873
C       -2.61420769      -0.42124091      -0.40128144      -0.08233503      -0.00350992      -0.00250549      -0.00006791
S       -2.91471036       1.26855961      -1.02040245      -0.15755874       0.00064446      -0.00587441      -0.00395422
C       -3.92809158       0.88560835      -2.45576728      -0.18613939      -0.00030874       0.00024413      -0.00276181
C       -3.89289138      -1.25108241      -0.21967894      -0.04186650       0.00001938      -0.00263312       0.00096430
N       -5.07915436      -0.57996892       0.28376339      -0.23642984       0.00114868      -0.00325764      -0.00061922
C       -6.19475967      -1.52537896       0.31681145      -0.05566504       0.00082508      -0.00102931       0.00114741
C       -7.48764139      -0.82707941       0.70238380      -0.14865838       0.00188292       0.00167355      -0.00296017
C       -7.33459128      -0.13073840       2.05013840      -0.15236087      -0.00078840      -0.00302126      -0.00292386
C       -6.12351112       0.79211343       2.01768975      -0.13787387      -0.00024989      -0.00424436      -0.00050054
C       -4.87772216       0.03405248       1.59036636      -0.05723613       0.00177782      -0.00475487      -0.00065763
C        1.54193896       2.19564139      -1.43533545       0.15369253      -0.00103410       0.00040131       0.00262057
O        0.35312984       2.78909177      -1.68756512      -0.21133767      -0.00095675       0.00428349       0.00217346
C        0.31706406       3.84079574      -2.63873171      -0.07120214       0.00013296       0.00127410       0.00007764
C        2.73459011       2.55895178      -1.99198312      -0.20724437      -0.00203435      -0.00274157      -0.00387853
C        3.92190527       1.86685643      -1.65533786       0.22139138       0.00028304       0.00030001       0.00170915
N        5.10189837       2.27613187      -2.21962101      -0.43141952      -0.00013228       0.00044064       0.00308094
H        7.10181822       1.91861195      -2.28987310       0.05768644       0.00129910       0.00270288       0.00350939
H        4.18920407      -1.33975188       0.53600984       0.25372797       0.00141623       0.00513822       0.00284215
H        4.76316762      -3.07382033       1.80487431       0.12945536      -0.00239542      -0.00179933       0.00122258
H        6.54044150      -4.45361278       2.85408397       0.15199298       0.00227016      -0.00429313      -0.00082327
H        7.74748979      -0.57577027       0.04839158       0.12253485       0.00004534      -0.00163756       0.00549599
H        2.51325644      -0.35142474       0.54391629       0.12882155      -0.00165188       0.00192853      -0.00057364
H       -0.47975381       1.57173371      -0.15462958       0.23340008       0.00006450       0.00245367       0.00090435
H       -1.89932882      -1.23395477       1.46855442       0.08629725       0.00313437       0.00498638      -0.00106021
H       -1.96788223       0.52708173       1.45502599       0.07053974       0.00193526       0.00008062      -0.00512095
H       -2.03196237      -0.93127198      -1.17008491       0.10318184      -0.00376248      -0.00091130       0.00216023
H       -4.85548814       0.42182951      -2.13618695       0.07376229       0.00085131       0.00526259      -0.00095890
H       -3.40293320       0.24588820      -3.16126254       0.08830090       0.00163071       0.00024864       0.00115857
H       -4.14846673       1.83277823      -2.94037474       0.11879602       0.00316104       0.00291548      -0.00003899
H       -3.62241651      -2.10709237       0.41415644       0.06873328       0.00200289       0.00167478       0.00182036
H       -4.14689947      -1.65568093      -1.19911077       0.06822623      -0.00047350       0.00082622       0.00320342
H       -6.29068164      -1.97531699      -0.67079407       0.07362941       0.00058379      -0.00029217       0.00203772
H       -5.99195637      -2.34225254       1.03078640       0.06858784      -0.00253335       0.00086183       0.00585932
H       -8.30563655      -1.54764331       0.72554718       0.07136754       0.00372485       0.00248347       0.00199043
H       -7.71525102      -0.08363929      -0.06327685       0.08741274      -0.00279862       0.00244908       0.00068243
H       -8.23605344       0.42615080       2.30151952       0.07235571       0.00285969       0.00198728      -0.00295830
H       -7.19331803      -0.88420671       2.83047554       0.07696619      -0.00218556       0.00116484      -0.00051402
H       -5.94972672       1.25092057       2.99042330       0.06996810      -0.00489594       0.00052294      -0.00143182
H       -6.29562176       1.59347694       1.29731033       0.08896939       0.00420227       0.00022858      -0.00000099
H       -4.61757371      -0.72127208       2.35237516       0.06123080       0.00390733      -0.00042366       0.00273706
H       -4.05043952       0.73245026       1.52519772       0.06871445       0.00113604      -0.00335790       0.00059634
H        0.92026281       4.68802392      -2.31119953       0.08172228       0.00281741      -0.00260316      -0.00035547
H       -0.72297177       4.14242815      -2.70533958       0.08684880      -0.00218024      -0.00423515      -0.00081852
H        0.65943325       3.49916850      -3.61582827       0.08133157      -0.00185364      -0.00168623       0.00142685
H        2.82275174       3.37156272      -2.69368519       0.12673463       0.00009895       0.00244047      -0.00089303
