29
Properties=species:S:1:pos:R:3:charge:R:1:forces:R:3 energy=-36858.09693161278 pbc="F F F"
O       -0.25732443       0.58109797       1.95661863      -0.38926852       0.00385851       0.00174572      -0.00672541
C       -1.15891762       0.46285417       1.10479195       0.10146521      -0.00147258      -0.00675714      -0.00244620
C       -2.53197276       0.52082300       1.32450069      -0.24383594      -0.00022131      -0.00490032       0.00156817
C       -3.51048179       0.38881584       0.25636809      -0.04784812      -0.00001567      -0.00156966      -0.00082195
N       -0.82390466       0.20295821      -0.27599132      -0.13529140       0.00006240       0.00372409       0.00216284
C        0.41771624       0.13845818      -0.86409993       0.06686058      -0.00061706      -0.00408338       0.00333364
C        0.51611479      -0.37529359      -2.16831205      -0.08531643      -0.00211478       0.00510731       0.00076573
C        1.73562056      -0.41985085      -2.81532847      -0.06259317      -0.00249629      -0.00459394       0.00168018
C        2.88712645       0.04021306      -2.19789103      -0.08326370      -0.00002103       0.00035947      -0.00500504
C        2.79734878       0.54894267      -0.90034468      -0.00881169      -0.00057810       0.00024716      -0.00422112
S        4.32415799       1.13094828      -0.20552857      -0.13167715       0.00042010       0.00082441       0.00441064
C        3.87343012       1.55569856       1.47764105      -0.06908855      -0.00022040       0.00241896       0.00269415
C        1.58260129       0.59259105      -0.22799604      -0.07287914      -0.00057823       0.00225852      -0.00087195
H       -2.85085236       0.48388675       2.35378225       0.01192472       0.00077590       0.00338498       0.00324951
H       -4.51703509       0.66223158       0.56037774       0.01029056       0.00053216       0.00099401       0.00029573
H       -3.25418516       0.98446488      -0.62289675       0.01423251       0.00356448       0.00330289       0.00136209
H       -1.57118934      -0.23293650      -0.79844369       0.09525879       0.00244962       0.00402287       0.00084096
H       -0.37933212      -0.73344613      -2.65705173       0.03291442       0.00359826      -0.00272469      -0.00296434
H        1.78653487      -0.82052878      -3.82008985       0.02608584       0.00398718       0.00007344      -0.00139002
H        3.84378693       0.01202091      -2.69758254       0.01590245       0.00243353       0.00201086      -0.00321912
H        4.78543063       1.88650893       1.97063570       0.01955475       0.00152175      -0.00028521       0.00086371
H        3.47202782       0.69429890       2.00480295       0.03197887      -0.00172013       0.00196197      -0.00127048
H        3.14235607       2.35883018       1.49940812       0.03210286      -0.00044700       0.00169118       0.00156417
H        1.46533381       0.95044518       0.77911650       0.01921732       0.00063358      -0.00241787      -0.00023272
S       -3.79439327      -1.35259930      -0.49363785      -0.13291445       0.00158749      -0.00318900       0.00550000
C       -3.11101148      -2.41510170       0.80176667      -0.07959007      -0.00348053      -0.00353740      -0.00067188
H       -2.47189513      -1.79437617       1.42342801       0.02805057      -0.00680447      -0.00530467      -0.00314132
H       -3.88688084      -2.87629977       1.41192417       0.01730093      -0.00410275       0.00562257      -0.00005645
H       -2.51877229      -3.20248044       0.33998182       0.01922955      -0.00053407      -0.00038726       0.00274627
