26
Properties=species:S:1:pos:R:3:charge:R:1:forces:R:3 energy=-24966.45649515532 pbc="F F F"
C       -4.80121079      -0.23597341      -0.45730557      -0.04574369       0.00007269       0.00076625      -0.00050498
C       -4.40092865      -0.94437194       0.66679690      -0.04159136      -0.00177985       0.00215126       0.00118432
C       -3.06185461      -1.00621692       1.00896605      -0.05181953       0.00156876      -0.00271195      -0.00047921
C       -2.09840437      -0.36092424       0.23361767       0.04345734      -0.00421653       0.00153568      -0.00471934
N       -0.75688703      -0.46924176       0.64538958      -0.09672514      -0.00207784      -0.00548442       0.00713429
C        0.36291903       0.07043744       0.06725988       0.19989535       0.00198288      -0.00049464       0.00683572
O        0.35695297       0.75083060      -0.93666210      -0.29908678       0.00594280      -0.00384934       0.00250926
C        1.64746846      -0.26281163       0.81138608      -0.04076747       0.00679472       0.00490256      -0.00338611
C        2.85596851       0.35378952       0.13022443      -0.03813206       0.00573454       0.00289108      -0.00124745
S        4.35866761      -0.07232584       1.04385837      -0.12149363      -0.00684907      -0.00123819       0.00158623
C        5.57703989       0.78212709       0.02946784      -0.06267565       0.00089504       0.00016373      -0.00163236
C       -2.49546112       0.35028245      -0.89526806      -0.05483979      -0.00367359       0.00132290      -0.00378694
H       -1.75700432       0.84935539      -1.49782992       0.03044058       0.00139137       0.00011626       0.00177836
C       -3.84179430       0.40371004      -1.22638478      -0.04277633      -0.00338879      -0.00093604      -0.00373414
H       -5.84530432      -0.18453301      -0.72782992       0.04484706       0.00556218       0.00111749      -0.00200221
H       -5.12955832      -1.45247699       1.28378062       0.04547977       0.00143373       0.00120564      -0.00268787
H       -2.75602325      -1.56119231       1.88678027       0.04790514       0.00224340       0.00196870       0.00044733
H       -0.61938122      -1.01567341       1.47822738       0.15076903       0.00301424      -0.00447849       0.00639192
H        1.57331337       0.10124387       1.83908966       0.04359037       0.00401855      -0.00748805      -0.00289581
H        1.76441959      -1.34791232       0.86655131       0.04350656      -0.00335121       0.00652230       0.00105750
H        2.93627511      -0.01112511      -0.88961492       0.03845452      -0.00462595      -0.00128781       0.00194886
H        2.75047305       1.43398863       0.09039857       0.03853317      -0.00338561       0.00023159      -0.00123228
H        5.57320332       0.39661751      -0.98686790       0.04150099      -0.00650578      -0.00162994      -0.00042014
H        5.38473801       1.85185933       0.01229574       0.04152941      -0.00723526      -0.00067912       0.00054821
H        6.55411492       0.60507437       0.47141454       0.04166653       0.00223091       0.00321001      -0.00347838
H       -4.13670762       0.95875218      -2.10595583       0.04407553       0.00420395       0.00217239       0.00078519
