33
Properties=species:S:1:pos:R:3:charge:R:1:forces:R:3 energy=-28598.311231652075 pbc="F F F"
O        0.70240237      -1.99137232       0.99768289      -0.39679193       0.00239929      -0.00269220       0.00132438
C        1.58159215      -1.51326272       0.25336023       0.09878550       0.00250543       0.00187386       0.00488838
C        2.87322765      -2.00219815       0.06248147      -0.24902079       0.00112119       0.00499576       0.00240950
C        3.81646151      -1.40204592      -0.86387460      -0.05051306      -0.00326887       0.00032234       0.00006376
N        1.31862652      -0.31442986      -0.49990299      -0.13700816       0.00293278      -0.00126984      -0.00124965
C        0.13866606       0.39047231      -0.60030067       0.05795176       0.00068076      -0.00129829       0.00055654
C        0.16284080       1.66481370      -1.18959398      -0.09850822       0.00143929       0.00013948      -0.00089361
C       -1.00878980       2.38468381      -1.32537359      -0.06536472      -0.00203938      -0.00061403      -0.00067503
C       -2.21928786       1.87536300      -0.88923122      -0.10353273      -0.00439194      -0.00289171      -0.00063767
C       -2.25996987       0.60567476      -0.30722898       0.04733825      -0.00416277      -0.00255155       0.00204073
N       -3.52367762       0.08812297       0.08877844      -0.12671287       0.00018845      -0.00264492       0.00369268
C       -4.28907786       0.92859762       0.99276536      -0.02311456       0.00213537      -0.00129076      -0.00099073
C       -3.53719836      -1.29885511       0.50644280      -0.02193218      -0.00013088       0.00080669      -0.00128810
C       -1.08409339      -0.12965469      -0.16264914      -0.08967407      -0.00259775      -0.00091840      -0.00290286
H        3.20309138      -2.75525332       0.76050970       0.01080054       0.00175729       0.00201476      -0.00570341
H        3.36228627      -1.16354450      -1.82903521       0.01290904      -0.00209508      -0.00296999       0.00037101
H        4.69354515      -2.01584993      -1.04877944       0.00894502      -0.00541387       0.00108725      -0.00027934
H        2.15138221       0.19419023      -0.76256650       0.09331155       0.00515503       0.00205238       0.00746424
H        1.10382866       2.07042539      -1.53464931       0.03044551       0.00403110       0.00191804      -0.00068754
H       -0.97934927       3.36548646      -1.78486905       0.02257830      -0.00087235       0.00303227      -0.00265396
H       -3.13247531       2.43445961      -1.01500009       0.01898049      -0.00188516       0.00270281      -0.00299655
H       -4.31833262       1.95902578       0.64828067       0.01788671      -0.00056611      -0.00076967       0.00177277
H       -3.87055643       0.91740417       2.00799920       0.01410106       0.00027418      -0.00189464      -0.00247823
H       -5.31446608       0.56123057       1.03943755       0.01631504       0.00423710       0.00028268       0.00123236
H       -2.98775475      -1.47080575       1.44022061       0.02179052      -0.00396768       0.00097356      -0.00369223
H       -3.09973562      -1.92636118      -0.26540155       0.01901813      -0.00199491       0.00115256       0.00103007
H       -4.57104699      -1.61026964       0.65414141       0.01583350       0.00359676       0.00194659      -0.00162756
H       -1.03522701      -1.09937651       0.30183926       0.01812949      -0.00176261       0.00243062       0.00242852
S        4.62049006       0.27378135      -0.37853322      -0.14235380       0.00015113      -0.00197854      -0.00605482
C        4.41713933       0.24156194       1.41772252      -0.08259937       0.00030820      -0.00138546      -0.00102346
H        5.32578273      -0.06680882       1.93353820       0.01600049       0.00100872       0.00000547       0.00150275
H        4.14205351       1.23653359       1.76096235       0.01859472       0.00248950      -0.00051483       0.00259133
H        3.61300403      -0.45548645       1.63464221       0.02740249      -0.00126220      -0.00205273       0.00246528
