27
Properties=species:S:1:pos:R:3:charge:R:1:forces:R:3 energy=-30519.49495396998 pbc="F F F"
O        1.13807063      -0.37310362       0.79393236      -0.34859139       0.00313276       0.00376839       0.00189493
C        1.05660179      -0.92055034      -0.33079934       0.10577049      -0.00043735      -0.00120164       0.00269699
C        1.98849340      -1.72974824      -0.95244518      -0.22577167      -0.00133895       0.00019115      -0.00122453
C        3.29003071      -2.00392871      -0.29560263      -0.04792087       0.00339635      -0.00174590       0.00198744
N       -0.14908518      -0.67050962      -1.10927902      -0.12534446      -0.00444096      -0.00009999       0.00020917
C       -1.30113256      -0.05411300      -0.72375341       0.05470691      -0.00150223       0.00395140      -0.00284708
C       -2.34124758       0.06464354      -1.67006302      -0.09252851      -0.00299819      -0.00475649      -0.00115913
C       -3.54149590       0.67396397      -1.36308519      -0.05232774       0.00248341       0.00110770       0.00063973
C       -3.76320441       1.18940955      -0.09369066      -0.05681726      -0.00202848      -0.00612765      -0.00097814
C       -2.73213480       1.06047851       0.82242105       0.04872398      -0.00119651       0.00108694      -0.00414679
N       -2.98367049       1.60449408       2.18490997       0.21007323       0.00252424       0.00427855      -0.00403060
O       -2.12151891       1.48729642       3.02976665      -0.24969491      -0.00298202       0.00148026       0.00040867
O       -4.05757028       2.14760447       2.38995458      -0.26678625       0.00020658      -0.00127712       0.00189964
C       -1.51141497       0.47128877       0.56275632      -0.06329661      -0.00313899      -0.00221028       0.00383379
H        1.87540752      -2.09465703      -1.96748053       0.02322247      -0.00447856       0.00162035      -0.00302876
H        3.21996166      -1.85393465       0.78099920       0.01498469       0.00066657       0.00154120       0.00105948
H        3.66289067      -3.01057110      -0.48533953       0.01187397       0.00267333      -0.00152675      -0.00038416
H       -0.16027352      -1.10820787      -2.01149717       0.12483543       0.00425029       0.00453748      -0.00741070
H       -2.16697675      -0.34054175      -2.65890895       0.02774542      -0.00369518       0.00199330      -0.00016752
H       -4.31527222       0.75146563      -2.11497331       0.02781444       0.00355387      -0.00208797       0.00498396
H       -4.68245591       1.66871442       0.18938521       0.03156775       0.00256601       0.00021024       0.00106939
H       -0.71134687       0.39175717       1.28172549       0.03244473       0.00318971      -0.00118774       0.00116075
S        4.71033159      -0.93190643      -0.84487570      -0.17085069       0.00226457      -0.00741456       0.00190702
C        4.00949386       0.64892461      -0.36244392      -0.08161569      -0.00267458       0.00230427      -0.00121096
H        3.80404954       0.65880013       0.70345100       0.02401918       0.00138987       0.00001327       0.00297743
H        3.06665200       0.79486855      -0.88028399       0.02579249      -0.00075857       0.00350280      -0.00071716
H        4.71277083       1.44147681      -0.61577541       0.01796200      -0.00062682      -0.00195109       0.00057717
