26
Properties=species:S:1:pos:R:3:charge:R:1:forces:R:3 energy=-24966.46086158198 pbc="F F F"
C       -4.67815189       0.29895674      -0.01763997      -0.04573730      -0.00205809      -0.00375015       0.00202307
C       -3.85238024       0.14881655       1.08495394      -0.04282129      -0.00122959       0.00326185       0.00477523
C       -2.48259741      -0.01753065       0.94511032      -0.05500471       0.00132603      -0.00134408      -0.00091002
C       -1.92325489      -0.03285664      -0.33004162       0.04359063      -0.00133349       0.00038802      -0.00419494
N       -0.54420051      -0.19196712      -0.56498949      -0.09686024       0.00187131      -0.00185980       0.00547648
C        0.46210700      -0.36210221       0.35107143       0.20193230       0.00734848       0.00211269      -0.00013195
O        0.28990952      -0.41707616       1.55065192      -0.29831558      -0.00475869      -0.00683515      -0.00532969
C        1.83914052      -0.47340573      -0.28567649      -0.03830521       0.00515681      -0.00053042       0.00116316
C        2.90768241      -0.79435786       0.74723400      -0.03567239       0.00198022       0.00206162       0.00098476
S        4.56244664      -0.96206926       0.04060218      -0.13022879       0.00159173       0.00357760      -0.00101611
C        4.93058816       0.77617255      -0.25057184      -0.06192099       0.00024866      -0.00013942      -0.00401501
C       -2.75250663       0.11697180      -1.44163492      -0.05188053      -0.00161734      -0.00441108      -0.00219268
H       -2.32215353       0.10450681      -2.43492010       0.04793129       0.00502721       0.00020752      -0.00052164
C       -4.11747993       0.28026532      -1.28675796      -0.04160944      -0.00230000       0.00705062       0.00112122
H       -5.74251018       0.42826897       0.10940463       0.04485647      -0.00224665      -0.00080863      -0.00624415
H       -4.27211669       0.16024941       2.08090096       0.04404138      -0.00500832      -0.00075768       0.00428536
H       -1.84834659      -0.13508657       1.80616364       0.03024931      -0.00102548       0.00288199       0.00078163
H       -0.27961363      -0.17959139      -1.53505667       0.15155257      -0.00162999       0.00577741       0.00711523
H        2.06476373       0.46920461      -0.79283566       0.04383212      -0.00074726      -0.00407195       0.00108983
H        1.82240219      -1.24760857      -1.05495984       0.04416032      -0.00245777      -0.00089182      -0.00215054
H        2.67391010      -1.73756131       1.23501379       0.03817404       0.00135909       0.00121535      -0.00031251
H        2.91919567      -0.03119202       1.51993016       0.03794129       0.00145815       0.00001927       0.00130313
H        4.24949545       1.21678192      -0.97268682       0.04182223       0.00753017      -0.00223139      -0.00204680
H        5.94022937       0.83050097      -0.64830470       0.04131349      -0.00239043       0.00087677       0.00727500
H        4.88852292       1.34121145       0.67760089       0.04147197      -0.00504179      -0.00185084      -0.00755476
H       -4.74004758       0.39378767      -2.16371723       0.04548702      -0.00105213       0.00005177      -0.00077332
