20
Properties=species:S:1:pos:R:3:charge:R:1:forces:R:3 energy=-13025.514287209315 pbc="F F F"
C        4.23268439      -0.11761723       0.17402717      -0.06491712       0.00195904       0.00356638      -0.00226481
C        3.06616394      -0.55407380      -0.27511078      -0.04477393      -0.00243003      -0.00113895       0.00377236
C        1.79413531       0.07291734       0.19999914       0.17702924      -0.00444995       0.00385500      -0.00149343
O        1.78329625       0.98896042       0.99620987      -0.30355650      -0.00363163       0.00037966       0.00277876
N        0.66078014      -0.47842739      -0.34316223      -0.10176039      -0.00038092      -0.00265399       0.00017675
C       -0.68420425      -0.11733578      -0.10682280       0.04678828       0.00225128      -0.00260919      -0.00173407
C       -1.66747651      -0.83635570      -0.78528345      -0.04810534       0.00088367       0.00039923      -0.00143222
C       -3.00819625      -0.54103239      -0.60774379      -0.03712669      -0.00179897      -0.00267133       0.00241825
C       -3.38722602       0.47890614       0.25289493      -0.04131791       0.00082786       0.00165591       0.00389431
H       -4.43068892       0.71507945       0.39679815       0.04661992      -0.00405617      -0.00227157      -0.00230061
C       -2.40745301       1.19095129       0.92707640      -0.03929837       0.00583411       0.00271041       0.00237588
C       -1.06073076       0.90581213       0.75755720      -0.05201115       0.00444380      -0.00444577      -0.00089105
H        5.16332625      -0.55291760      -0.15693274       0.04927623       0.00447203      -0.00499027       0.00033260
H        4.26998536       0.69252712       0.88744300       0.03734209       0.00321386       0.00442486       0.00290245
H        3.01798157      -1.36832034      -0.98985533       0.05388118      -0.00220295       0.00001046      -0.00192792
H        0.78989952      -1.23520347      -0.99058926       0.14970285      -0.00231956      -0.00163273      -0.00312160
H       -1.37600854      -1.63367390      -1.45740464       0.04873061       0.00275515       0.00062811      -0.00038742
H       -3.75301139      -1.11276212      -1.14436202       0.04728984      -0.00451092      -0.00092602      -0.00401721
H       -2.68742225       1.98733302       1.60233124       0.04573211       0.00104433       0.00450007       0.00121180
H       -0.30473653       1.46208701       1.28355112       0.03047496      -0.00190465       0.00120974      -0.00029258
