26
Properties=species:S:1:pos:R:3:charge:R:1:forces:R:3 energy=-27668.6153671767 pbc="F F F"
C        2.88363491       2.15434985      -0.71634758      -0.03288330      -0.00185990       0.00195249       0.00017756
C        3.70089989       2.16850123       0.40455918      -0.05680907      -0.00058415       0.00244696      -0.00035223
C        3.31307089       1.41119642       1.49139621       0.08355561       0.00119316      -0.00629265      -0.00326170
F        4.09069452       1.41323673       2.59264742      -0.12719813      -0.00124491      -0.00036578      -0.00324542
C        2.16684009       0.64460282       1.51581585      -0.07327776      -0.00361611       0.00118903       0.00379142
C        1.36812592       0.63367216       0.37715652       0.05216417       0.00035940       0.00208233       0.00223519
N        0.20097971      -0.14473603       0.28782082      -0.09386270       0.00263393      -0.00262918       0.00147969
C       -0.44022306      -0.79919423       1.30423078       0.19483918       0.00020681       0.00511547       0.00221302
O       -0.12110888      -0.72177640       2.47286917      -0.30593377       0.00205350      -0.00442024      -0.00701899
C       -1.62756993      -1.62079097       0.84694156      -0.03189573       0.00386524      -0.00151708       0.00374724
C       -2.82129882      -0.73157048       0.48020755      -0.02222814       0.00061706      -0.00050077       0.00462527
S       -2.76031621      -0.01283695      -1.18457424      -0.08994154       0.00037063       0.00734815      -0.00410647
C       -3.03459157      -1.50804513      -2.15471047      -0.05455508       0.00097806      -0.00130539      -0.00185987
C        1.72713196       1.39523851      -0.73427334      -0.04655516       0.00243159      -0.00393756       0.00009392
H        3.14840588       2.74134375      -1.58532823       0.04976362       0.00430185      -0.00273215      -0.00176921
H        4.61265274       2.74208174       0.45115421       0.05200493      -0.00157467       0.00798639      -0.00075268
H        1.90421868       0.07816001       2.39105685       0.03355020      -0.00612508      -0.00243087      -0.00019835
H       -0.25215486      -0.14005916      -0.61425886       0.11512292       0.00094921       0.00088807      -0.00024283
H       -1.34831459      -2.24015819      -0.00320968       0.04232845      -0.00157557      -0.00172677       0.00275469
H       -1.89846638      -2.27017166       1.67308043       0.04888255      -0.00145122      -0.00101400       0.00036183
H       -3.74965526      -1.29221540       0.55798855       0.04397096      -0.00082934      -0.00193576      -0.00130155
H       -2.88358340       0.09607299       1.18396537       0.04019881      -0.00416974       0.00125440       0.00314155
H       -3.07582507      -1.20817487      -3.19807674       0.04434513      -0.00070629      -0.00050772       0.00084447
H       -3.97826181      -1.97569138      -1.88772990       0.04279996       0.00150145       0.00043704       0.00137161
H       -2.22523398      -2.22160113      -2.03152609       0.04318541      -0.00111150       0.00087732      -0.00292241
H        1.09498437       1.39185715      -1.61145093       0.04842833       0.00338659      -0.00026195       0.00019423
