25
Properties=species:S:1:pos:R:3:charge:R:1:forces:R:3 energy=-27652.85419134798 pbc="F F F"
O        0.66958699      -0.97732895       0.97982597      -0.36783814       0.00345583       0.00526374      -0.00067301
C        0.83917600      -0.70737006      -0.23221266       0.09813744      -0.00105653      -0.00467461      -0.00308173
C        1.94156335      -0.98627549      -1.01944036      -0.23911878       0.00295673       0.00417292      -0.00083373
C        3.13017943      -1.64384345      -0.43660777      -0.05427662      -0.00074642      -0.00311765      -0.00117233
N       -0.22363303       0.00307512      -0.92416475      -0.13548647       0.00295359       0.00677441       0.00050401
C       -1.49243942       0.28728934      -0.49536047       0.06940676       0.00190134       0.00431347       0.00600271
C       -2.34572993       1.01169441      -1.35038445      -0.09162492       0.00107100      -0.00192370       0.00296337
C       -3.63307722       1.33363176      -0.96858424      -0.04296497       0.00062978      -0.00089265      -0.00302598
C       -4.13040815       0.94892379       0.27204006      -0.09720547       0.00079944      -0.00088737      -0.00522453
C       -3.27585983       0.23425777       1.09281080       0.07764999      -0.00426902       0.00278257       0.00024841
F       -3.74145626      -0.15956288       2.31324849      -0.16066848       0.00037414       0.00025010       0.00160656
C       -1.98599912      -0.10578162       0.75972028      -0.07262397      -0.00176240       0.00090857       0.00507156
H        2.02321212      -0.63350876      -2.04284270       0.01630931      -0.00415802      -0.00085143      -0.00409486
H        2.86434945      -2.17279199       0.47845202       0.01014822      -0.00274151      -0.00044287       0.00048777
H        3.61571807      -2.34514900      -1.11643050       0.00298898       0.00010090      -0.00138251      -0.00171364
H       -0.01911948       0.22840408      -1.87965763       0.11711252       0.00743248       0.00032514      -0.00330769
H       -1.96697403       1.31690193      -2.31720014       0.02238604      -0.00519985      -0.00266621       0.00326198
H       -4.26195313       1.89460002      -1.64728236       0.01970443      -0.00158848       0.00000358       0.00051571
H       -5.13089835       1.18852456       0.59557812       0.02336566       0.00255303      -0.00544027      -0.00139226
H       -1.34305317      -0.65579755       1.42460930       0.02076439       0.00484324       0.00319215       0.00003290
S        4.53401251      -0.51287439       0.05014710      -0.18619663       0.00507803      -0.00402780       0.00107279
C        3.62313978       0.46473404       1.24997186      -0.08531308      -0.00499874       0.00020438       0.00116634
H        3.24962721      -0.17658653       2.04272681       0.01997357      -0.00008425       0.00190879      -0.00065439
H        2.76559361       0.91862183       0.76221757       0.02508279      -0.00151045      -0.00100464       0.00278274
H        4.28125808       1.22863082       1.66318292       0.01027839      -0.00603360      -0.00278789      -0.00054327
