20
Properties=species:S:1:pos:R:3:charge:R:1:forces:R:3 energy=-13025.514281324298 pbc="F F F"
C       -4.22256820      -0.30724717      -0.16331445      -0.06492166      -0.00061556       0.00017631      -0.00116219
C       -3.03461183      -0.70322482       0.26694828      -0.04477944      -0.00097595      -0.00072341      -0.00250604
C       -1.79496206      -0.00541443      -0.19459872       0.17700084      -0.00086185       0.00366084       0.00015663
O       -1.82928544       0.93116518      -0.96582053      -0.30356622      -0.00175649       0.00400636      -0.00209399
N       -0.63531417      -0.51845946       0.32976906      -0.10167027      -0.00110067      -0.00173585       0.00403903
C        0.69012315      -0.08899082       0.09934954       0.04674890       0.00197068      -0.00237226      -0.00172523
C        1.01550013       0.97246218      -0.73910353      -0.05200958       0.00373591       0.00133184       0.00061765
C        2.34712362       1.32282823      -0.90552286      -0.03930881       0.00318277       0.00168211      -0.00092260
C        3.36135357       0.63892025      -0.25331865      -0.04133799       0.00281155       0.00281252       0.00104444
H        4.39247679       0.92640416      -0.39311330       0.04660431       0.00168039      -0.00067980      -0.00249879
C        3.03320769      -0.41895483       0.58208922      -0.03710738       0.00066367       0.00028466      -0.00051698
C        1.70805540      -0.77926434       0.75602450      -0.04810617       0.00077781      -0.00236897       0.00209510
H       -4.30144788       0.52543172      -0.84698299       0.03735882      -0.00284155      -0.00160081      -0.00282281
H       -5.12993838      -0.79929186       0.15299531       0.04927853       0.00003072       0.00274488       0.00295319
H       -2.94486749      -1.53548442       0.95652283       0.05384994       0.00004582      -0.00173865      -0.00087485
H       -0.72601829      -1.29623656       0.95848704       0.14974877      -0.00290111      -0.00347820       0.00268005
H        0.23316481       1.50846349      -1.24727575       0.03048996      -0.00102964      -0.00420620       0.00100145
H        2.58787503       2.14861701      -1.56032083       0.04572471      -0.00259932       0.00340826      -0.00110222
H        3.80542536      -0.96914315       1.10254644       0.04730218       0.00202216       0.00190793      -0.00132619
H        1.45580702      -1.60572589       1.40836529       0.04870047      -0.00223937      -0.00311142       0.00296386
