26
Properties=species:S:1:pos:R:3:charge:R:1:forces:R:3 energy=-24966.49131235629 pbc="F F F"
C       -3.42849649       1.32682981       0.17664322      -0.04177275      -0.00208644      -0.00522042       0.00422996
C       -4.14180522       0.89307217      -0.93140196      -0.04582721       0.00302915       0.00378986      -0.00233490
C       -3.51503055       0.08170814      -1.86542890      -0.04310256       0.00013454      -0.00232826      -0.00036611
H       -4.05798981      -0.25837064      -2.73641466       0.04429278      -0.00200866      -0.00406683       0.00091944
C       -2.19383762      -0.30739412      -1.71084757      -0.05432913       0.00275802       0.00549617      -0.00238814
C       -1.48670002       0.12014163      -0.59028483       0.04476633       0.00196193      -0.00242341      -0.00049387
N       -0.15683261      -0.26539151      -0.33714691      -0.09769096       0.00149349       0.00101717      -0.00049149
C        0.73323537      -0.81273111      -1.21707509       0.19010746       0.00197863       0.00570255       0.00285358
O        0.50834789      -0.98288789      -2.39824844      -0.31354970      -0.00292497      -0.00482887      -0.00148446
C        2.06976163      -1.16596166      -0.59721856      -0.03352762      -0.00262686      -0.00155927       0.00047957
C        2.93193249       0.08335231      -0.38077099      -0.02483167      -0.00063353      -0.00210855      -0.00346243
S        2.55959802       1.01843484       1.12822944      -0.09787772       0.00094097      -0.00081958       0.00559984
C        3.18939367      -0.14744333       2.35061136      -0.05693486      -0.00108297      -0.00065947      -0.00094843
C       -2.10982460       0.94274174       0.34670077      -0.05103653       0.00062095       0.00094435      -0.00428447
H       -3.89506624       1.96618986       0.91415506       0.04581907      -0.00122296       0.00035808       0.00284924
H       -5.17293944       1.18409842      -1.06713565       0.04475058       0.00289779       0.00457025       0.00075333
H       -1.70946322      -0.93014690      -2.44248414       0.03126458       0.00025374       0.00039458       0.00277831
H        0.20156204       0.01146713       0.56450687       0.11503214       0.00012525      -0.00088812       0.00211313
H        1.92036792      -1.68648109       0.34653779       0.04157238       0.00386701      -0.00172603       0.00230389
H        2.57260572      -1.83713824      -1.28629052       0.04794841      -0.00195252       0.00294762      -0.00074703
H        2.79631713       0.76185385      -1.22082034       0.03901871       0.00392654       0.00328554      -0.00423620
H        3.98555514      -0.18377558      -0.34735828       0.04291507       0.00106621      -0.00255300       0.00222495
H        4.24234774      -0.35609801       2.18188406       0.04178028      -0.00301928       0.00146720      -0.00321230
H        2.62894098      -1.07774139       2.34701886       0.04231009      -0.00032372       0.00396544       0.00244804
H        3.07822213       0.31959785       3.32538844       0.04309760      -0.00206161      -0.00119776      -0.00386086
H       -1.55516599       1.28536408       1.21030561       0.04580500      -0.00511071      -0.00355917      -0.00124233
