25
Properties=species:S:1:pos:R:3:charge:R:1:forces:R:3 energy=-37458.9156753847 pbc="F F F"
O        0.59555456      -1.37104406       0.45177876      -0.36878017       0.00084446       0.00329720      -0.00097678
C        0.82637664      -0.16212721       0.68892131       0.10356490      -0.00407613       0.00180818       0.00275393
C        1.96743414       0.39118310       1.23650506      -0.23809072      -0.00082813      -0.00124302      -0.00180240
C        3.11773777      -0.46774300       1.59136376      -0.05421324      -0.00190361       0.00191340       0.00239109
N       -0.19303320       0.81371488       0.34843421      -0.13777208       0.00228054      -0.00011136      -0.00776565
C       -1.46325929       0.59143632      -0.09137751       0.06111639       0.00014729      -0.00300727       0.00526010
C       -2.02730204      -0.69017490      -0.24595766      -0.05528759       0.00325968      -0.00198320      -0.00167093
C       -3.32506388      -0.84450961      -0.69195372      -0.05497802       0.00214637       0.00124236       0.00196587
C       -4.12389790       0.24898145      -1.01141278      -0.07318512      -0.00018462      -0.00039879       0.00130644
C       -3.59335252       1.52124603      -0.86951877      -0.04673778      -0.00081265      -0.00075617       0.00615150
C       -2.29660496       1.67533018      -0.41586142       0.00002336       0.00164473      -0.00348884      -0.00078992
Cl      -1.65752011       3.30830803      -0.23063193      -0.14281522       0.00112766      -0.00060598      -0.00100386
H        2.09839577       1.46371681       1.32672347       0.02176222       0.00299788      -0.00633922      -0.00231634
H        2.79752684      -1.50049960       1.72952653       0.00993341      -0.00373826       0.00331091      -0.00343114
H        3.63888630      -0.14266039       2.49274923       0.00372605       0.00083683      -0.00099341       0.00370775
H        0.06642436       1.77004822       0.50200558       0.10378268      -0.00160179       0.00046631      -0.00542920
H       -1.40081067      -1.53104939      -0.00395550       0.01801304       0.00514513      -0.00020089      -0.00243424
H       -3.71663487      -1.84830897      -0.79038033       0.01980183       0.00381854       0.00255974      -0.00332315
H       -5.13759737       0.12263954      -1.36260102       0.02232523      -0.00048689       0.00028126      -0.00116857
H       -4.17333473       2.40154875      -1.10529443       0.02008312       0.00080162       0.00110938       0.00235419
S        4.49678826      -0.55555239       0.33599671      -0.18398872      -0.00043279      -0.00010980       0.00027213
C        3.52468512      -1.20557995      -1.02585155      -0.08502142      -0.00081602       0.00319178       0.00062990
H        2.70530664      -0.52527292      -1.23638305       0.02604346      -0.00456042      -0.00146875       0.00240964
H        4.16565760      -1.31655120      -1.89975456       0.01081050      -0.00310013      -0.00278535      -0.00019985
H        3.09445230      -2.16465957      -0.75344194       0.01987489      -0.00250936       0.00431209       0.00310946
