26
Properties=species:S:1:pos:R:3:charge:R:1:forces:R:3 energy=-37474.60566023569 pbc="F F F"
C       -3.90798866       0.37165118      -0.92926015      -0.04219684      -0.00139750       0.00361162       0.00344205
C       -2.52254140       0.35216209      -0.92285258      -0.04576107      -0.00062459      -0.00001762      -0.00372266
C       -1.84556924      -0.46952249      -0.02537644       0.04939775       0.00202640       0.00236657      -0.00205735
N       -0.44287426      -0.54109869       0.04922946      -0.09292665       0.00136435       0.00189929       0.00159596
C        0.48339956       0.08556967      -0.74709263       0.20492148      -0.00277551       0.00869610       0.00111222
O        0.19644567       0.81902473      -1.66940197      -0.29468355      -0.00260279      -0.00406332      -0.00526491
C        1.91928019      -0.22888375      -0.35798520      -0.03686481      -0.00133005      -0.00217067      -0.00024546
C        2.91173559       0.42109223      -1.30873991      -0.03391581      -0.00056608      -0.00059605       0.00103046
S        4.63512880       0.04914981      -0.91489843      -0.12365461      -0.00186604      -0.00081779      -0.00059941
C        4.83299026       1.08934251       0.54167921      -0.05985110       0.00002172       0.00169463       0.00227343
C       -2.58098564      -1.26279778       0.85485919      -0.04184276       0.00533548       0.00134896       0.00077582
C       -3.96332738      -1.24227131       0.84739616      -0.04033586       0.00438600       0.00108297       0.00356211
C       -4.62232042      -0.41978958      -0.04981778       0.01517487       0.00108023      -0.00548922      -0.00056779
Cl      -6.36331379      -0.38344088      -0.07068575      -0.09077872      -0.00464762       0.00066098       0.00062034
H       -4.43124846       1.00880863      -1.62471931       0.04806380       0.00125108       0.00092736      -0.00186746
H       -1.96591086       0.96766588      -1.60700048       0.03362558       0.00007607       0.00094520      -0.00155559
H       -0.08828453      -1.14273095       0.77202782       0.15381318       0.00148585      -0.00255731       0.00223462
H        2.06215513      -1.31120542      -0.35550273       0.04482253       0.00125449      -0.00442676      -0.00085456
H        2.08694157       0.11342938       0.66709617       0.04477094       0.00177462       0.00019815      -0.00249107
H        2.73584719       0.06730705      -2.32144091       0.03885263       0.00230850       0.00212038       0.00227247
H        2.76868491       1.49777668      -1.31746014       0.03912562      -0.00015245      -0.00063833       0.00030757
H        4.57794347       2.12204747       0.31672384       0.04228153       0.00126518       0.00259130      -0.00044237
H        5.87949020       1.04458595       0.82990168       0.04236315       0.00024595      -0.00291418       0.00086942
H        4.22851344       0.74036804       1.37360474       0.04328230      -0.00473453      -0.00085841      -0.00106862
H       -2.06528223      -1.90593128       1.55641487       0.05264264      -0.00145682      -0.00206390       0.00196102
H       -4.52387480      -1.85901984       1.53287798       0.04967373      -0.00172220      -0.00153015      -0.00132022
