29
Properties=species:S:1:pos:R:3:charge:R:1:forces:R:3 energy=-26037.02592631935 pbc="F F F"
C       -2.96449783       1.98696463       0.51653715      -0.04253970      -0.00016212       0.00148181      -0.00199808
C       -1.67464992       1.50130751       0.36319860      -0.05496765       0.00095293      -0.00101106       0.00449815
C       -1.49449074       0.14873076       0.09885650       0.04467985       0.00258359      -0.00154903       0.00262811
N       -0.22408219      -0.43609591      -0.06827153      -0.09736757       0.00417910       0.00362039       0.00104218
C        1.00566426       0.16749503      -0.01224207       0.20011410       0.00373184      -0.00005226      -0.00290632
O        1.18293263       1.35054782       0.18911260      -0.29859829      -0.00234191       0.00316665       0.00196978
C        2.16451263      -0.79261322      -0.22967485      -0.04097259       0.00048214      -0.00158256       0.00026925
C        3.49299917      -0.06233573      -0.15637599      -0.03881814      -0.00452692       0.00109299      -0.00094479
S        4.85901738      -1.22065408      -0.41409225      -0.12546360       0.00122151       0.00652741      -0.00130218
C        6.23778918      -0.06917556      -0.27623880      -0.06360511      -0.00279179      -0.00169816      -0.00031484
C       -2.60672755      -0.68576795      -0.00695378      -0.06245632       0.00064972      -0.00083734      -0.00276219
C       -3.89541619      -0.19736389       0.15019936      -0.00519539       0.00048084      -0.00167628       0.00518266
C       -5.08122452      -1.12042472       0.06711286      -0.06998096       0.00017605       0.00022097       0.00018098
C       -4.06746432       1.15757583       0.41475836      -0.05194321       0.00033873      -0.00148224       0.00036621
H       -3.09918050       3.03976819       0.72006239       0.04527386      -0.00246606       0.00180796       0.00276331
H       -0.82062269       2.14852631       0.44638402       0.03051836       0.00130603       0.00020660      -0.00391008
H       -0.23502711      -1.42556522      -0.24791585       0.15121028      -0.00214003       0.00357998       0.00110167
H        2.12909809      -1.58165467       0.52501335       0.04374222      -0.00021550      -0.00295529       0.00157165
H        2.05620442      -1.27772033      -1.20259457       0.04383085       0.00439828      -0.00008234       0.00050536
H        3.53058738       0.71476740      -0.91418737       0.03814535      -0.00100420       0.00201827      -0.00115769
H        3.60144246       0.41442892       0.81355042       0.03804737      -0.00227313      -0.00233776      -0.00068288
H        6.25511125       0.39402099       0.70719054       0.04104983       0.00134982      -0.00219063      -0.00514358
H        6.17109476       0.70264671      -1.03894078       0.04100709       0.00028903      -0.00345888       0.00287994
H        7.15678272      -0.63150780      -0.42047862       0.04133812      -0.00347509      -0.00097214       0.00246409
H       -2.46177429      -1.73900107      -0.21816092       0.04433826       0.00065699      -0.00149636      -0.00179606
H       -4.85181384      -2.00213471      -0.52780386       0.03659680      -0.00052612       0.00223987       0.00370827
H       -5.93829167      -0.61436655      -0.37404282       0.03630188       0.00323042      -0.00336472       0.00145048
H       -5.37170586      -1.45368680       1.06382866       0.03504242      -0.00242359       0.00492063      -0.00632678
H       -5.06482924       1.55646217       0.53836693       0.04067181      -0.00168115      -0.00413662      -0.00333656
