23
Properties=species:S:1:pos:R:3:charge:R:1:forces:R:3 energy=-14096.026252642461 pbc="F F F"
O        1.55044976      -1.10275305       1.70873668      -0.31941313      -0.00217188      -0.00810388       0.00510092
C        2.07964433      -0.53367168       0.77534166       0.17233783      -0.00186067       0.00727588       0.00331048
C        3.56492670      -0.55701842       0.63641415      -0.04509176      -0.00290509      -0.00592423      -0.00312442
C        4.25927164      -0.38614622      -0.47893956      -0.05993202       0.00047126      -0.00083124      -0.00010202
N        1.41200956       0.17222618      -0.18489220      -0.09659550      -0.00450383      -0.00609761      -0.00256336
C        0.01694803       0.36533383      -0.28695316       0.04944260       0.00106876      -0.00000029      -0.00124798
C       -0.42901240       1.31828867      -1.19899370      -0.04753914       0.00070828       0.00546063       0.00447917
C       -1.78431561       1.53956558      -1.36497488      -0.03557763       0.00013343       0.00210021      -0.00060484
C       -2.70499606       0.80940643      -0.63046180      -0.04685414      -0.00096187       0.00476318       0.00520884
C       -2.26944105      -0.14539753       0.28160382      -0.00275287       0.00398774      -0.00539866      -0.00375163
C       -3.26468994      -0.96037719       1.06319791      -0.06725360       0.00133535      -0.00034339       0.00060489
C       -0.90651892      -0.36546627       0.45236342      -0.06237537       0.00340646       0.00171780      -0.00065704
H        4.06173119      -0.79050292       1.56671970       0.04579782       0.00349361       0.00877227      -0.00169147
H        5.33810315      -0.41965719      -0.47113432       0.05202970       0.00426370       0.00255140       0.00234649
H        3.80133479      -0.23946685      -1.44851161       0.04260407      -0.00057137      -0.00646047      -0.00292965
H        1.97691271       0.73376405      -0.79401032       0.14154842      -0.00508729      -0.00270767       0.00290074
H        0.29505132       1.88068201      -1.77408801       0.04916334      -0.00106640       0.00380453       0.00117765
H       -2.11964840       2.28688902      -2.07094916       0.04902308       0.00089232      -0.00108243      -0.00824130
H       -3.76416931       0.98092435      -0.75963144       0.04249680      -0.00449483      -0.00045221       0.00002249
H       -2.84446130      -1.28367442       2.01280114       0.03649965       0.00504024      -0.00638877      -0.00006010
H       -3.54663270      -1.85130550       0.50249892       0.03657784       0.00122191      -0.00025477      -0.00285261
H       -4.17056032      -0.38948752       1.25813044       0.03795767       0.00002138       0.00507664       0.00050980
H       -0.55831162      -1.09899697       1.16110320       0.02790629      -0.00242129       0.00252276       0.00216491
