28
Properties=species:S:1:pos:R:3:charge:R:1:forces:R:3 energy=-26021.155834485802 pbc="F F F"
O        1.10877863       1.22835633       1.10312742      -0.37276673      -0.00065129      -0.00220362      -0.00239081
C        1.11297240       0.76638629      -0.06143994       0.09877862      -0.00584889       0.00132270      -0.00115199
C        2.15397786       0.78222546      -0.97470532      -0.23891947      -0.00238876      -0.00334137       0.00131337
C        3.46091111       1.36261904      -0.60857855      -0.05600877      -0.00511790       0.00181783      -0.00217326
N       -0.07990368       0.10815285      -0.55733475      -0.14144018      -0.00350252      -0.00117386       0.00082460
C       -1.33094273       0.03647141       0.00257956       0.04976712      -0.00315196      -0.00770323      -0.00457581
C       -1.66368044       0.65846705       1.21611466      -0.06466780       0.00434825      -0.00328050      -0.00338535
C       -2.94177407       0.54325243       1.73597898      -0.06209435       0.00407579       0.00147136      -0.00057926
C       -3.92503619      -0.18677944       1.08028199      -0.08583020       0.00087080      -0.00002862       0.00126028
C       -3.59898918      -0.80192310      -0.12080043      -0.06104997       0.00184195       0.00167265      -0.00022467
C       -2.32909729      -0.70190342      -0.67073093      -0.02382783      -0.00043078      -0.00820334      -0.00433337
C       -2.01217531      -1.38140555      -1.97872508      -0.07960551       0.00056149      -0.00232275      -0.00125354
H        2.08886516       0.26415696      -1.92598571       0.01698758      -0.00045570       0.00655840      -0.00223027
H        3.34943191       2.05261453       0.22789606       0.00844189       0.00628412       0.00383026      -0.00561247
H        3.95216748       1.88670267      -1.43014860       0.00136583       0.00327632       0.00323011       0.00529284
H        0.02221422      -0.24165410      -1.48896838       0.10547920       0.00000486      -0.00307389       0.00429919
H       -0.89187274       1.21643695       1.71629782       0.01428078       0.00215850      -0.00233011       0.00364344
H       -3.16464134       1.03549309       2.67415274       0.01690198      -0.00045254       0.00196618       0.00018755
H       -4.92028641      -0.27921380       1.49090274       0.01871905      -0.00353043       0.00390449      -0.00002345
H       -4.34637482      -1.37953185      -0.65084894       0.01529089       0.00164592       0.00602216       0.00075390
H       -2.88362836      -1.93255914      -2.32831562       0.01900429       0.00152707       0.00478454      -0.00129552
H       -1.73527568      -0.66449478      -2.75590827       0.02239494       0.00051345      -0.00075337       0.00485695
H       -1.18598558      -2.08817521      -1.87786315       0.02165738      -0.00447144      -0.00246774       0.00149103
S        4.77698672       0.15193687      -0.05820419      -0.18915284       0.00061068      -0.00038131       0.00239412
C        3.88652618      -0.51692861       1.34957516      -0.08682583      -0.00047373      -0.00359406       0.00200363
H        4.48910979      -1.29223913       1.82152756       0.00904567       0.00582939       0.00385866       0.00022725
H        3.66906946       0.27408528       2.06085431       0.01886864      -0.00062698      -0.00171756       0.00427082
H        2.93817580      -0.92235677       1.01063491       0.02519661      -0.00244509       0.00213568      -0.00358948
