20
Properties=species:S:1:pos:R:3:charge:R:1:forces:R:3 energy=-13025.514252051702 pbc="F F F"
C        4.21539680       0.41552962      -0.03855872      -0.06489601      -0.00082725       0.00121644      -0.00128608
C        3.03001925       0.63247825       0.50973191      -0.04472927      -0.00338567      -0.00341470       0.00271652
C        1.79305621       0.08587272      -0.12898492       0.17702466      -0.00623045       0.00668282      -0.00312558
O        1.82758030      -0.56097641      -1.15543266      -0.30362207      -0.00736966      -0.00460716       0.00322497
N        0.63602191       0.38353621       0.54663410      -0.10182818      -0.00138994       0.00025617       0.00298143
C       -0.68775609       0.02207590       0.21131419       0.04681229       0.00423307       0.00316986       0.00334970
C       -1.70290086       0.45030889       1.06603230      -0.04809343       0.00280975       0.00150046      -0.00214948
C       -3.02561738       0.13598954       0.80540936      -0.03710528       0.00183706      -0.00275411      -0.00017658
C       -3.35423225      -0.61077099      -0.31669374      -0.04134583       0.00002056      -0.00228719      -0.00402330
C       -2.34313570      -1.03351879      -1.16567536      -0.03927981       0.00634867       0.00043678       0.00319693
C       -1.01377177      -0.72809077      -0.91427144      -0.05198571       0.00534012       0.00523381       0.00376853
H       -0.23306405      -1.06190491      -1.57516929       0.03049230      -0.00044281       0.00411868       0.00082309
H        5.12031268       0.80323358       0.40406670       0.04926182       0.00762001      -0.00265254      -0.00018786
H        4.29368277      -0.16009575      -0.94917437       0.03735257       0.00790917      -0.00007332      -0.00543902
H        2.94099147       1.20660875       1.42546188       0.05385446      -0.00340257       0.00253178       0.00161665
H        0.72807972       0.92768440       1.38583535       0.14969522      -0.00363947      -0.00305000      -0.00212094
H       -1.45086337       1.03535672       1.94169947       0.04873352       0.00389632      -0.00413243      -0.00179759
H       -3.79576984       0.47726358       1.48382410       0.04730339      -0.00205396       0.00105740      -0.00179251
H       -4.38336698      -0.85984511      -0.52605727       0.04660167      -0.00905050       0.00008782      -0.00224818
H       -2.58356425      -1.61388081      -2.04551947       0.04575366      -0.00222188      -0.00332086       0.00266890
