23
Properties=species:S:1:pos:R:3:charge:R:1:forces:R:3 energy=-22202.991713666237 pbc="F F F"
O        2.27840757      -1.57968943       0.98408215      -0.29551482      -0.00452318       0.00331583      -0.00213998
C        2.34048891      -0.43223740       0.59530060       0.18332410       0.00661673       0.00213451      -0.00080964
C        3.63056751       0.31869175       0.51862644      -0.03763470       0.00324829      -0.00234724      -0.00077239
C        4.76197963      -0.26792688       0.87833804      -0.05550354       0.00114030      -0.00078754       0.00094592
N        1.24535821       0.29384742       0.18742495      -0.09646369       0.00448394       0.00203886       0.00450179
C       -0.10055703      -0.11850748       0.14671775       0.05831398      -0.00039080       0.00159122       0.00160722
C       -0.52064608      -1.39253372       0.51809169      -0.04245918      -0.00213801       0.00229584      -0.00230305
C       -1.86494720      -1.71196374       0.44907698      -0.03013779      -0.00128229      -0.00346276      -0.00178070
C       -2.80732875      -0.79711936       0.01274360      -0.02830109      -0.00222124       0.00096486       0.00661678
C       -2.38346221       0.46919705      -0.35933920      -0.02214777      -0.00318800       0.00153150      -0.00349454
C       -3.37632891       1.47145854      -0.88724506       0.27676332      -0.00282765      -0.00193845      -0.00275720
F       -4.61021438       1.27375003      -0.39336415      -0.11736469      -0.00013990       0.00019712       0.00702764
F       -3.02435031       2.73788381      -0.59248448      -0.11855945       0.00034284      -0.00005548       0.00045914
F       -3.48078127       1.40435391      -2.23034454      -0.12620497       0.00322122      -0.00168052      -0.00494247
C       -1.04191389       0.81138852      -0.29096805      -0.03961363      -0.00087764       0.00329839       0.00273555
H        3.62423586       1.34395968       0.16591953       0.05643634      -0.00339256      -0.00548124       0.00061161
H        4.75617476      -1.28985185       1.22867306       0.03954840       0.00483156       0.00370109      -0.00063031
H        5.70670953       0.25278434       0.83149779       0.05192981      -0.00288270      -0.00282546       0.00097842
H        1.41310956       1.23745605      -0.11300530       0.15428117       0.00249179      -0.00251275      -0.00071820
H        0.20426491      -2.11166902       0.85414751       0.03246581      -0.00155633       0.00629057       0.00119610
H       -2.17926488      -2.70143723       0.74603906       0.05143645       0.00073823      -0.00678576      -0.00301029
H       -3.85366495      -1.05534303      -0.02957391       0.05179686      -0.00237774      -0.00169330      -0.00060659
H       -0.72421203       1.80666653      -0.57145814       0.05360904       0.00068349       0.00221034      -0.00271479
