28
Properties=species:S:1:pos:R:3:charge:R:1:forces:R:3 energy=-34128.27590968264 pbc="F F F"
O        1.24351123       0.59321599      -1.26797070      -0.36700195      -0.00587268      -0.00386917       0.00691718
C        1.08981568       0.78988614      -0.04021677       0.10602526       0.00459670      -0.00355501       0.00595739
C        1.97920033       1.36838081       0.84166472      -0.23135704       0.00671288       0.00136857      -0.00047861
C        3.31380410       1.79042637       0.36878445      -0.05263883      -0.00001816       0.00344784      -0.00030381
N       -0.15399504       0.34468402       0.58167389      -0.13702719      -0.00126390       0.00090688      -0.00567009
C       -1.29738472      -0.05693027      -0.03586400       0.07133880      -0.00510144       0.00807591       0.00016703
C       -1.46430852       0.00271493      -1.43629756      -0.05521246       0.00616031      -0.00387801      -0.00248501
C       -2.64163394      -0.40601389      -2.02153195      -0.05455087       0.00414058      -0.00270432       0.00278142
C       -3.70743139      -0.89728912      -1.26611432      -0.07220377      -0.00015225      -0.00029440      -0.00068916
C       -3.56204095      -0.96160812       0.10447115      -0.03933214      -0.00252858       0.00778578       0.00033730
C       -2.38625607      -0.55010397       0.71695955      -0.06046155      -0.00137291       0.00013081       0.00428645
C       -2.27675233      -0.62879640       2.20087767       0.27250835       0.00053498       0.00017670       0.00508660
F       -3.39017002      -1.12088590       2.78560960      -0.13899294      -0.00407118       0.00033114      -0.00359171
F       -2.05682461       0.58348992       2.77861716      -0.13769856       0.00073921       0.00183688       0.00405599
F       -1.25413641      -1.41081003       2.61925619      -0.13720369       0.00218505      -0.00130101       0.00015868
H        1.78156579       1.42791417       1.90469754       0.02681779       0.00045053       0.00203705      -0.00684000
H        3.30814336       1.93479330      -0.71087167       0.01045647      -0.00541481       0.00126014       0.00215574
H        3.67621217       2.70482268       0.83999726       0.00538515      -0.00510946      -0.00254016       0.00705635
H       -0.16881859       0.43362078       1.58000556       0.10843326       0.00059514      -0.00670743      -0.00738140
H       -0.63744678       0.37223401      -2.01683557       0.01788337       0.00532337      -0.00336361      -0.00760338
H       -2.72996630      -0.34178923      -3.09820112       0.01969954      -0.00201431      -0.00174591       0.00584847
H       -4.62334773      -1.22088624      -1.73634581       0.02313027      -0.00263670       0.00449783      -0.00316935
H       -4.36168504      -1.33116219       0.72313276       0.02315062       0.00565689      -0.00268916       0.00057965
S        4.70908806       0.58947503       0.68460847      -0.17691877      -0.00336314       0.00399532       0.00104804
C        4.01466651      -0.80146915      -0.21402079      -0.08303653      -0.00132309       0.00133465       0.00112433
H        3.05097461      -1.05176432       0.21849657       0.02539722      -0.00030163      -0.00227029      -0.00356438
H        3.84693043      -0.53076591      -1.25177019       0.02101760       0.00008616      -0.00012404      -0.00789187
H        4.69780966      -1.64719055      -0.14962999       0.01238343       0.00336303      -0.00214355       0.00210827
