26
Properties=species:S:1:pos:R:3:charge:R:1:forces:R:3 energy=-24966.460821566456 pbc="F F F"
C       -4.15017714       0.40926393       1.08438434      -0.04160422      -0.00329187      -0.00143160      -0.00574293
C       -2.78487413       0.32760362       1.29145399      -0.05185068      -0.00132345       0.00187541       0.00313939
C       -1.92767574      -0.03144022       0.25129688       0.04358444       0.00024590      -0.00634358      -0.00248107
N       -0.55006995      -0.09017187       0.53564983      -0.09693475       0.00728763       0.00319809       0.00082040
C        0.48043084      -0.42721458      -0.30428473       0.20187357       0.00862145       0.00108091       0.00220609
O        0.33622440      -0.74769945      -1.46535423      -0.29836357      -0.00161883      -0.00693689       0.00633184
C        1.84530021      -0.35793957       0.36453718      -0.03832272       0.00488108      -0.00197068      -0.00093914
C        2.94585500      -0.86240287      -0.55553146      -0.03566422       0.00002617       0.00326201      -0.00214798
S        4.58808957      -0.81965942       0.19773318      -0.13005432      -0.00679634       0.00013753       0.00021854
C        4.90384279       0.95047509       0.10873881      -0.06189359       0.00107165      -0.00080680       0.00238244
C       -2.45917085      -0.31149247      -1.00500792      -0.05501232      -0.00141296       0.00290204       0.00355527
C       -3.82965765      -0.22175719      -1.19851814      -0.04282913      -0.00200974      -0.00534906      -0.00818429
C       -4.68328342       0.13521123      -0.16703631      -0.04572250      -0.00234823       0.00295736      -0.00222421
H       -5.74785453       0.19937606      -0.33551259       0.04485587      -0.00110284       0.00072868       0.00784644
H       -4.79460698       0.68795021       1.90674654       0.04549379      -0.00419160       0.00337647       0.00330729
H       -2.37636212       0.54402231       2.27031493       0.04793212       0.00752766      -0.00002356       0.00129215
H       -0.30731679       0.14771889       1.48204899       0.15149668       0.00254944      -0.00080788      -0.00680290
H        1.82972314      -0.94781907       1.28288390       0.04416858      -0.00050492       0.00040899       0.00040244
H        2.03623836       0.67803900       0.65941315       0.04378776      -0.00447267      -0.00428503       0.00032443
H        2.95344801      -0.28552007      -1.47568746       0.03788866       0.00553635      -0.00038144      -0.00368412
H        2.75084166      -1.89641330      -0.82970413       0.03822983      -0.00434658       0.00505518       0.00235847
H        4.87187303       1.29847617      -0.92094455       0.04148875      -0.00644480      -0.00203286       0.00427253
H        4.19427331       1.51799356       0.70357422       0.04186137       0.00567721      -0.00437123       0.00573422
H        5.90139844       1.11897236       0.50453771       0.04128680       0.00205593       0.00673314      -0.00573887
H       -1.80309039      -0.59452923      -1.80946671       0.03026687      -0.00465201       0.00689619      -0.00122357
H       -4.22836473      -0.43775382      -2.17965804       0.04403685      -0.00096366      -0.00387157      -0.00502276
