35
Properties=species:S:1:pos:R:3:charge:R:1:forces:R:3 energy=-31242.4388686475 pbc="F F F"
O        2.54044593      -2.06339201      -1.72030085      -0.40416393      -0.00615006       0.00233861       0.00197083
C        2.99631307      -0.92743725      -1.48912164       0.10219012      -0.00649373       0.00319268       0.00139045
C        4.28806212      -0.46915211      -1.73474942      -0.23475796      -0.00199754      -0.00530297       0.00586025
C        4.69423122       0.89884420      -1.47821380      -0.04705078      -0.00025569      -0.00432335      -0.00296594
N        2.15432676       0.06789458      -0.87771613      -0.13716605      -0.00180773       0.00122629       0.00455127
C        0.82834979      -0.03954278      -0.53275651       0.04903851      -0.00122926      -0.00187445       0.00335918
C        0.24552206       0.99055215       0.22230833      -0.07580340       0.00222271       0.00014503      -0.00073920
C       -1.08875185       0.95579739       0.56630852      -0.05303479       0.00250756       0.00386006      -0.00240544
C       -1.90129614      -0.10321931       0.16399662      -0.02733713       0.00404119      -0.00015645      -0.00060322
C       -3.33904087      -0.13482410       0.50399388       0.00290952       0.00234621      -0.00504990      -0.00245847
C       -4.28044572      -0.65073285      -0.38948859      -0.04456655      -0.00319112       0.00183268      -0.00269799
C       -5.63116106      -0.67651358      -0.08040230      -0.05641115      -0.00406705       0.00079943       0.00035472
C       -6.08085508      -0.18942658       1.13971749      -0.06087311      -0.00083039       0.00130257       0.00236762
C       -5.15889258       0.32419549       2.04248875      -0.05627949       0.00224201      -0.00383612       0.00240191
C       -3.80952343       0.35233585       1.72609715      -0.04509141       0.00192714       0.00482962      -0.00439263
C       -1.31576458      -1.12973022      -0.57678660      -0.04841554      -0.00172486      -0.00120095      -0.00457290
C        0.02131357      -1.11712945      -0.92321311      -0.07529465       0.00009978      -0.00020741       0.00264244
H        5.02416457      -1.22082769      -1.96589810       0.01452401       0.00361314      -0.00121106      -0.00175378
H        3.96698931       1.63279292      -1.83284560       0.01536659       0.00353500       0.00319614       0.00270967
H        5.66002932       1.15086593      -1.90630633       0.01209163      -0.00125415      -0.00067470      -0.00254097
H        2.66252808       0.81436664      -0.42460483       0.09430985      -0.00293765       0.00718174      -0.00464590
H        0.86820846       1.82221901       0.52762699       0.03296740      -0.00272274       0.00034784       0.00011277
H       -1.51771287       1.76968520       1.13429641       0.02648098       0.00164063       0.00241136       0.00096623
H       -3.94978737      -1.01856368      -1.35042234       0.02470719      -0.00353951      -0.00253616      -0.00444940
H       -6.33633560      -1.07695561      -0.79812802       0.02522586      -0.00478635       0.00090432      -0.00294905
H       -7.13375403      -0.20952751       1.38275508       0.02425527      -0.00146606      -0.00093680       0.00366772
H       -5.49134873       0.70334548       3.00115830       0.02520072       0.00018688      -0.00064051       0.00042594
H       -3.10616608       0.74471708       2.44685939       0.02466973       0.00231102      -0.00363381       0.00012193
H       -1.92033894      -1.97586704      -0.87247993       0.02524494      -0.00065518      -0.00611856      -0.00244399
H        0.49254238      -1.90809613      -1.48242860       0.01925944       0.00474563       0.00404368       0.00325416
S        4.94340667       1.44352210       0.35486027      -0.13801023       0.00187788      -0.00247065      -0.00192769
C        5.14714313      -0.16013189       1.16655694      -0.08091012       0.00314422       0.00378418       0.00282194
H        4.58266312      -0.16352524       2.09664437       0.02040725       0.00168114      -0.00420915       0.00143379
H        4.74477726      -0.90918893       0.49126199       0.02757655       0.00455050       0.00473636       0.00456396
H        6.18976627      -0.38293796       1.38997752       0.01873262       0.00243591      -0.00175001      -0.00343019
