26
Properties=species:S:1:pos:R:3:charge:R:1:forces:R:3 energy=-19230.68837200971 pbc="F F F"
O        3.54471581      -0.81811688       0.02916462      -0.29679298       0.00216446      -0.00364261      -0.00019132
C        3.03911202       0.27034135       0.21065848       0.18220522       0.00234404      -0.00338945      -0.00167928
C        3.85359099       1.49119909       0.48866837      -0.03827743       0.00182663       0.00082398       0.00246127
C        5.17470481       1.41161596       0.54448836      -0.05642182       0.00278347       0.00286417      -0.00084633
N        1.68357457       0.49703211       0.18092532      -0.09736584       0.00141187       0.00017560      -0.00177425
C        0.65254199      -0.43640984      -0.05324512       0.05822292       0.00275094      -0.00300773       0.00087757
C        0.88631950      -1.78613416      -0.29965060      -0.04329787       0.00172976      -0.00280688      -0.00034062
C       -0.18850854      -2.63251154      -0.51771517      -0.03211372      -0.00042390       0.00145208      -0.00514613
C       -1.49026840      -2.16806430      -0.49570980      -0.03274311       0.00028334       0.00170302       0.00344685
C       -1.72203687      -0.81956510      -0.25010435      -0.01626751       0.00262195       0.00356692      -0.00528694
C       -3.13202304      -0.34349540      -0.23315828       0.22648133       0.00220564       0.00102854      -0.00066152
O       -3.22672154       0.97384543       0.01143078      -0.13423789      -0.00671534      -0.00124455      -0.00264257
C       -4.56518743       1.47710618       0.04002618       0.02733769      -0.00548106      -0.00157018       0.00176786
O       -4.08789935      -1.05181814      -0.41734718      -0.32032341       0.00331603      -0.00288319       0.00127595
C       -0.65548208       0.03986820      -0.03128777      -0.04460456       0.00397679      -0.00142081       0.00482799
H        3.34751126       2.43745116       0.64351527       0.05606960       0.00071290       0.00290014      -0.00046052
H        5.78314833       2.28076099       0.74349596       0.05160630       0.00220387       0.00449467       0.00171757
H        5.66914822       0.46381863       0.38947263       0.03935068      -0.00391438      -0.00166197      -0.00054312
H        1.37456786       1.43864944       0.34403275       0.15353414      -0.00443261       0.00082560       0.00038018
H        1.89475203      -2.15612010      -0.31824006       0.03279720       0.00144755      -0.00483934      -0.00060345
H        0.00612779      -3.67744015      -0.70983071       0.05157168      -0.00588499       0.00010357       0.00351775
H       -2.33371744      -2.82019403      -0.66323163       0.04622276      -0.00177318       0.00504734      -0.00048891
H       -5.05235517       1.30397546      -0.91478620       0.04565338       0.00134681       0.00295645      -0.00046393
H       -5.13526722       0.98145969       0.81987384       0.04568283      -0.00572750       0.00175611       0.00265358
H       -4.48144399       2.53824232       0.24166108       0.05064546      -0.00336369      -0.00237785      -0.00159623
H       -0.84386962       1.08779292       0.15845568       0.04506490       0.00459087      -0.00085344      -0.00020123
