25
Properties=species:S:1:pos:R:3:charge:R:1:forces:R:3 energy=-24950.58642538747 pbc="F F F"
O        0.81206211      -1.12252284       0.79647234      -0.37546930      -0.00538805      -0.00120761      -0.00349117
C        0.89845472      -0.60387025      -0.34197351       0.09446354       0.00080111       0.00732114      -0.00066212
C        1.99422836      -0.60127535      -1.18797371      -0.24230459       0.00069429       0.00024725      -0.00165301
C        3.27261842      -1.20131709      -0.75533849      -0.05643308       0.00502396       0.00031681       0.00332217
N       -0.25411761       0.10491123      -0.85850813      -0.14126581       0.00101816      -0.00336676       0.00035694
C       -1.52485495       0.18813249      -0.34667313       0.05902883       0.00357627       0.00120910      -0.00143996
C       -2.47052537       0.98276411      -1.01785597      -0.07677791       0.00027909      -0.00337244      -0.00117108
C       -3.76806018       1.10922771      -0.55227023      -0.05709119       0.00023851       0.00284628      -0.00233101
C       -4.17233099       0.44542931       0.59813664      -0.08368544       0.00074580      -0.00248337      -0.00060396
C       -3.24315985      -0.34725914       1.26375057      -0.05280995       0.00493402      -0.00148842       0.00202645
C       -1.93999122      -0.48131806       0.81616611      -0.06333873       0.00086270       0.00220989      -0.00514363
H        1.99407631      -0.05814471      -2.12797883       0.01449332      -0.00924847       0.00280842      -0.00035413
H        3.10565998      -1.92141262       0.04553859       0.00837123      -0.00307040      -0.00697270       0.00105483
H        3.81781055      -1.69483308      -1.56110306       0.00067148       0.00292622      -0.00020010      -0.00232617
H       -0.11210945       0.53798674      -1.75151693       0.11471450      -0.00417032      -0.00205051       0.00309898
H       -2.16240585       1.50380002      -1.91604739       0.01958058       0.00040078      -0.00119721       0.00113815
H       -4.46492022       1.73396285      -1.09743162       0.01615859      -0.00450717       0.00374683      -0.00078284
H       -3.53630806      -0.88003830       2.16008984       0.01537156      -0.00092045       0.00268036       0.00871304
H       -1.21676272      -1.08734826       1.33352707       0.01412070      -0.00125988       0.00546920      -0.00332639
H       -5.18280321       0.54400698       0.96745215       0.01668940      -0.00514986      -0.00621433      -0.00302982
S        4.54745153      -0.01459533      -0.07193953      -0.19014975       0.00225601       0.00058268      -0.00100824
C        3.55433657       0.61944181       1.28256044      -0.08660369       0.00362469      -0.00351475       0.00014716
H        2.63662990       1.04088733       0.88295635       0.02513500       0.00315455      -0.00172278       0.00421184
H        3.27841393      -0.19026012       1.95143216       0.01877525       0.00012820       0.00456143       0.00127495
H        4.12342195       1.37606251       1.82139598       0.00834643       0.00305021      -0.00020857       0.00197928
