30
Properties=species:S:1:pos:R:3:charge:R:1:forces:R:3 energy=-28084.834910181442 pbc="F F F"
C       -2.74166799      -1.03959978       0.38667193      -0.06296519      -0.00185271      -0.00362208      -0.00396131
C       -1.36544130      -1.10074583       0.38243741      -0.04726371      -0.00132075       0.00006953       0.00377295
C       -0.60908824      -0.09878808      -0.22181400       0.04432723      -0.00101827      -0.00259013       0.00291817
N        0.79551559      -0.23802612      -0.19850915      -0.09584555      -0.00199844      -0.00322292      -0.00107340
C        1.72864649       0.70863456      -0.49918813       0.18882389      -0.00100102      -0.00508583       0.00197349
O        1.46518830       1.85491776      -0.80574437      -0.31570578      -0.00272485       0.00260640       0.00167729
C        3.15831692       0.21495451      -0.38954908      -0.03361865       0.00162742      -0.00053120       0.00224365
C        3.59898157       0.06520402       1.07070827      -0.02458000      -0.00004870      -0.00066984      -0.00338957
S        3.09910872      -1.48869438       1.86267487      -0.09818804       0.00500962       0.00725510      -0.00130185
C        4.17499648      -2.62042368       0.96234350      -0.05697551      -0.00269760       0.00130192       0.00102998
C       -1.25969203       0.96493320      -0.82714831      -0.04981227       0.00485648      -0.00173060      -0.00162494
C       -2.64790393       1.02656542      -0.82356233      -0.05935280       0.00490660       0.00018556       0.00241810
C       -3.39526500       0.03018613      -0.21604040       0.06236579       0.00209494      -0.00065820      -0.00282169
O       -4.76027184       0.00310285      -0.15741841      -0.17210820      -0.00092975      -0.00312357       0.00333614
C       -5.46236733       1.09474411      -0.71633820       0.02005098      -0.00232534       0.00017198      -0.00089671
H       -3.32986400      -1.81578207       0.85448783       0.04291865      -0.00019846      -0.00012020       0.00296838
H       -0.87139352      -1.93804612       0.85857654       0.04782300      -0.00096842       0.00039894       0.00268258
H        1.12837584      -1.10065258       0.20395181       0.11532481      -0.00110818       0.00080149      -0.00183086
H        3.26488242      -0.73530293      -0.90930534       0.04142568       0.00551180       0.00446291      -0.00489614
H        3.78594194       0.94974349      -0.88336706       0.04777198      -0.00275933       0.00306167       0.00183883
H        4.68141184       0.13648742       1.14797241       0.04299549      -0.00349677       0.00180696      -0.00035216
H        3.17873502       0.87663370       1.66154011       0.03908043       0.00376792      -0.00039981      -0.00419180
H        3.90970313      -2.67914305      -0.08913805       0.04247154       0.00219902       0.00008945      -0.00021856
H        4.05033040      -3.60409642       1.40647378       0.04303057      -0.00601149      -0.00184503      -0.00098892
H        5.21544632      -2.32267497       1.06037473       0.04167678      -0.00090878      -0.00542875       0.00154756
H       -0.68864332       1.74403226      -1.29976607       0.03227704       0.00150769       0.00500822       0.00322780
H       -3.11979647       1.86799493      -1.30393761       0.04430086       0.00188845      -0.00063796       0.00025625
H       -5.19430366       2.03312902      -0.22864184       0.03924422       0.00185244       0.00448653       0.00198663
H       -6.51684324       0.89657279      -0.55216294       0.04079794      -0.00739367       0.00006339       0.00012183
H       -5.27831568       1.18162630      -1.78811221       0.03970875       0.00353951      -0.00210341      -0.00645135
