30
Properties=species:S:1:pos:R:3:charge:R:1:forces:R:3 energy=-36850.0320641486 pbc="F F F"
C       -4.28531537      -0.21280450      -0.70036647      -0.04806638       0.00045357       0.00439563      -0.00317115
C       -3.51246334      -0.97668817      -1.56339584      -0.04143386       0.00088713      -0.00306727      -0.00008224
C       -2.18742263      -1.25456541      -1.27379216      -0.04258689      -0.00100586      -0.00619871       0.00595779
C       -1.61365061      -0.77368047      -0.09543447       0.05101668       0.00259447       0.00207880      -0.00059339
N       -0.30594186      -1.08541067       0.28594197      -0.09503431       0.00304627      -0.00017953      -0.00926494
C        0.73203078      -1.55727364      -0.46805250       0.17842543       0.00114114       0.00799730      -0.00452357
O        0.67771602      -1.80189458      -1.66404797      -0.29057422      -0.00196893      -0.00570763       0.00052305
C        2.02561345      -1.73027092       0.30285442      -0.04172724      -0.00107405      -0.00347527       0.00003335
C        3.08181524      -0.76768391      -0.21106997      -0.02597683      -0.00403444       0.00109146       0.00080502
S        2.67623269       0.94698404       0.29122172      -0.07678128       0.00244466       0.00637813       0.00196885
C        4.01574539       1.83452945      -0.56169326      -0.06619117       0.00292458      -0.00193194      -0.00103656
C       -2.38648880       0.03196569       0.76297270      -0.00875045      -0.00183284       0.00139817      -0.00146372
S       -1.67505075       0.75719348       2.23379137      -0.04800747      -0.00376985      -0.00708677      -0.00154405
C       -0.77880690       2.15929535       1.47345312      -0.07040478      -0.00088583      -0.00225160       0.00428447
C       -3.71599295       0.29297783       0.45666209      -0.04178431      -0.00109795      -0.00543195      -0.00124367
H       -5.32169109      -0.00587219      -0.92795477       0.04231914      -0.00173131       0.00444592      -0.00209889
H       -3.94319268      -1.36411941      -2.47722512       0.04097019      -0.00061283      -0.00592852       0.00142678
H       -1.58263200      -1.83935833      -1.94718028       0.03887020       0.00035390       0.00389079      -0.00143881
H       -0.08844255      -0.80451370       1.23370765       0.12058772      -0.00865254       0.00305115      -0.00203924
H        2.36400090      -2.75158203       0.12981967       0.04382640       0.00188866      -0.00385353       0.00209088
H        1.88638225      -1.60736367       1.37761946       0.04024594       0.00333491       0.00270856       0.00163335
H        4.06063447      -1.02417313       0.18942133       0.03851289      -0.00135201       0.00090866       0.00189081
H        3.12186719      -0.82036920      -1.29719227       0.03603221      -0.00495506      -0.00096774      -0.00201416
H        3.88092176       2.89015913      -0.34275667       0.04148147       0.00067073      -0.00441678       0.00384263
H        4.99121121       1.52063529      -0.19775312       0.03753650       0.00707909       0.00595785      -0.00048289
H        3.95967223       1.68971725      -1.63792408       0.03800528      -0.00432597      -0.00315263      -0.00248324
H       -1.48545945       2.85902031       1.03651405       0.03850383       0.00303704       0.00089574       0.00299285
H       -0.22176519       2.64693445       2.26735579       0.04321009       0.00187611       0.00772652      -0.00138059
H       -0.07710416       1.81654983       0.71664667       0.02744603       0.00088352       0.00164683       0.00372047
H       -4.29769278       0.89953970       1.13676287       0.04032924       0.00468383      -0.00092213       0.00369041
