26
Properties=species:S:1:pos:R:3:charge:R:1:forces:R:3 energy=-24946.782171130133 pbc="F F F"
C        3.70941200       0.51929605      -1.56717889      -0.03943336      -0.00215612      -0.00129689      -0.00246066
C        2.36392289       0.55866485      -1.23535215      -0.04439611      -0.00117845       0.00178610       0.00503488
C        1.95350806       0.07889999       0.00792332       0.04695999       0.00174073      -0.00029902       0.00087242
N        0.61798763       0.07710785       0.43425285      -0.09269591       0.00319373      -0.00187574       0.00137810
C       -0.51068254       0.50550919      -0.21681016       0.17701599       0.00144798       0.00664702       0.00400853
O       -0.51135127       0.98752062      -1.33833554      -0.28057200       0.00004074       0.00303779      -0.00156545
C       -1.78149308       0.32357878       0.60197656      -0.04188929      -0.00603668       0.00050877      -0.00160762
C       -2.98297904       0.93167426      -0.09057147      -0.02872426      -0.00205975       0.00259640       0.00126539
S       -4.55737586       0.73442716       0.81849154      -0.09944336       0.00559528       0.00546518      -0.00119934
C       -4.92160049      -1.00958869       0.45658985      -0.06846125      -0.00098645       0.00029109       0.00218370
C        2.90449512      -0.43090055       0.89439942      -0.05196695       0.00234082       0.00481134       0.00124643
C        4.24262836      -0.46313257       0.54855236      -0.03797362       0.00146887      -0.00293702       0.00049773
C        4.65458860       0.01247233      -0.68786611      -0.04957833      -0.00212001      -0.00249905      -0.00065733
H        5.69996580      -0.01335911      -0.96135880       0.04066762      -0.00066625       0.00352801       0.00063084
H        4.01925909       0.89342958      -2.53400707       0.03952241      -0.00219634      -0.00026386       0.00054896
H        1.63361906       0.95374840      -1.92040124       0.03626830       0.00083073      -0.00386742       0.00311320
H        0.47817986      -0.29892040       1.35837472       0.14160965      -0.00405688       0.00259749      -0.00410367
H       -1.64745083       0.76113657       1.59485811       0.04118289       0.00427007       0.00127784      -0.00444265
H       -1.93793293      -0.74496592       0.77270859       0.03912391      -0.00028427      -0.00547823      -0.00223168
H       -3.08328457       0.52323358      -1.09307822       0.03447121       0.00282895      -0.00309558       0.00266923
H       -2.84849304       2.00478984      -0.19910687       0.04075018       0.00154304       0.00163263      -0.00079515
H       -5.87076325      -1.23522614       0.93410097       0.04120833      -0.00211855      -0.00015918      -0.00347062
H       -5.01969188      -1.18101211      -0.61331954       0.03736826       0.00300221      -0.00386062       0.00226231
H       -4.16597011      -1.67576686       0.86614244       0.03786001      -0.00596674      -0.00639577       0.00132594
H        2.59067748      -0.80299828       1.86286459       0.04014748       0.00206820      -0.00151511      -0.00466696
H        4.96585908      -0.86149484       1.24771302       0.04097824      -0.00054486      -0.00063644       0.00016330
