20
Properties=species:S:1:pos:R:3:charge:R:1:forces:R:3 energy=-13010.241801878234 pbc="F F F"
C        3.66014236      -0.14739765       0.87894986      -0.05848305      -0.00026339      -0.00235329       0.00204957
C        3.21405311      -0.03335724      -0.36663212      -0.02952075      -0.00218209       0.00702464       0.00182146
C        1.81241506       0.23852527      -0.78538230       0.17554124      -0.00536010      -0.00081156      -0.00360807
O        1.58685105       0.79839920      -1.84997971      -0.29876107      -0.00308795       0.00021379      -0.00603408
N        0.83870459      -0.18889769       0.08163209      -0.09918741      -0.00192845      -0.00045882       0.00198061
C       -0.55301501      -0.06095118      -0.02122102       0.04394162       0.00037160      -0.00374354      -0.00044059
C       -1.18987505       0.69629999      -1.00486442      -0.04335462       0.00452417       0.00232802       0.00149263
C       -2.57348038       0.77852443      -1.01061418      -0.03810186       0.00450020      -0.00705719      -0.00079227
C       -3.33814559       0.12060231      -0.05924981      -0.04458931      -0.00150110      -0.00115959      -0.00205200
H       -4.41657021       0.19127296      -0.07833432       0.04363301      -0.00388771       0.00331364       0.00423866
C       -2.70242319      -0.63262140       0.91728271      -0.03523751      -0.00091059      -0.00175723      -0.00404296
C       -1.32306054      -0.72315872       0.93699433      -0.04982006      -0.00084897       0.00187300       0.00196398
H        4.70766740      -0.31527775       1.08773492       0.04578374       0.00434439      -0.00624509      -0.00184391
H        3.01923005      -0.03698683       1.74506890       0.04105322      -0.00445646       0.00437549       0.00159588
H        3.90069288      -0.06787546      -1.20268769       0.04300638       0.00078451      -0.00071096       0.00237526
H        1.14684729      -0.77438892       0.83884835       0.13502254       0.00292555       0.00087690       0.00234104
H       -0.60348401       1.20282973      -1.75153394       0.03891470       0.00080476       0.00345878      -0.00247505
H       -3.05740193       1.36789514      -1.77835895       0.04275144       0.00302804      -0.00138826       0.00515461
H       -3.28251008      -1.15333406       1.66772202       0.04407613       0.00277066       0.00091146      -0.00168074
H       -0.83553997      -1.31324798       1.70388043       0.04333168       0.00037245       0.00130960      -0.00204399
