25
Properties=species:S:1:pos:R:3:charge:R:1:forces:R:3 energy=-24930.944990214495 pbc="F F F"
O        1.04279075       1.03700469       0.78333709      -0.36078206      -0.00370238      -0.00667468      -0.00530678
C        0.96287105      -0.20954825       0.67376771       0.09075633       0.00196879      -0.00125036      -0.00011011
C        1.99554379      -1.13490202       0.80176035      -0.21461008       0.00159106      -0.00093213       0.00002887
C        3.36147279      -0.71166320       1.00456701      -0.05198527      -0.00382669      -0.00328736       0.00091597
N       -0.32188274      -0.79620361       0.37177910      -0.12710427       0.00401196      -0.00129980      -0.00533103
C       -1.55700267      -0.22046696       0.28962449       0.04080309      -0.00040381      -0.00021516       0.00169408
C       -1.81171968       1.14017140       0.56100847      -0.07249939       0.00112520       0.00321571      -0.00738715
C       -3.09867469       1.63896720       0.46076297      -0.06829640       0.00010171       0.00219417       0.00334912
C       -4.17380051       0.83528534       0.09236821      -0.10521993       0.00013508       0.00404541      -0.00119402
C       -3.92920462      -0.50746747      -0.17975709      -0.07142039      -0.00336249       0.00213876       0.00129433
C       -2.65308986      -1.02713209      -0.08210122      -0.09018129      -0.00228957       0.00190080      -0.00524505
H        1.80998259      -2.18888240       0.61228142       0.00960276       0.00057379       0.00477916       0.00230543
H        3.41023399       0.30056481       1.39517398       0.02016524      -0.00207948      -0.00737132       0.00245133
H        3.96149256      -1.37750125       1.62084829       0.01363129      -0.00130509       0.00034782      -0.00471552
H       -0.30752013      -1.79181575       0.22745407       0.11167288       0.00592943      -0.00024452       0.00127742
H       -0.97602445       1.76008143       0.83705218       0.01769118       0.00010516       0.00116798       0.00042227
H       -3.26258274       2.68907155       0.67767286       0.01212239      -0.00130309       0.00276238      -0.00170450
H       -4.74481064      -1.15858711      -0.47408626       0.01385467       0.00151805      -0.00713221       0.00503684
H       -2.48299281      -2.07603791      -0.30049010       0.01682676       0.00318758      -0.00244602       0.00355225
H       -5.17393940       1.24203208       0.01698693       0.01488228       0.00161136       0.00209580       0.00109816
S        4.49106943      -0.62697904      -0.58498861      -0.18583702       0.00001965       0.00699964       0.00015072
C        3.51092415       0.60469859      -1.49261649      -0.07989634      -0.00377673       0.00616632      -0.00286523
H        3.49907453       1.55752410      -0.96795532       0.02156798      -0.00114020      -0.00090574       0.00357699
H        3.95163323       0.74026779      -2.48124169       0.01767826      -0.00180525      -0.00088400       0.00396702
H        2.48297220       0.26393815      -1.58916763       0.02657736       0.00311575      -0.00516979       0.00273858
