20
Properties=species:S:1:pos:R:3:charge:R:1:forces:R:3 energy=-13010.32018774652 pbc="F F F"
C        4.22840243      -0.25860122      -0.40025108      -0.05219749       0.00217003      -0.00370664      -0.00004366
C        2.99269061      -0.67292599      -0.64972836      -0.04174308       0.00152630       0.00005467      -0.00338472
C        1.81370047       0.05578407      -0.11286561       0.17918646      -0.00007080      -0.00047921       0.00341639
O        1.91537109       1.06437786       0.57167157      -0.29274124       0.00019740       0.00217289       0.00248100
N        0.60905671      -0.51247391      -0.45896475      -0.09740925      -0.00266054       0.00344899       0.00199667
C       -0.69123124      -0.10062240      -0.13842438       0.04473036      -0.00416232       0.00216975      -0.00225350
C       -0.97232825       1.02174289       0.64201602      -0.04498589      -0.00033372      -0.00255298      -0.00105387
C       -2.29101993       1.35593783       0.90432228      -0.03843816       0.00117508       0.00075675      -0.00387704
C       -3.33831049       0.59578281       0.40584996      -0.04584226      -0.00063159      -0.00191911       0.00225809
C       -3.05700208      -0.52100578      -0.36806095      -0.03595797      -0.00186321       0.00108857       0.00362107
H       -3.86190927      -1.12623223      -0.76392133       0.04355828       0.00553875       0.00221067       0.00040522
C       -1.74646579      -0.86752550      -0.63775487      -0.05104484      -0.00267250      -0.00087353      -0.00372800
H        4.39025091       0.62397572       0.20359173       0.04196751      -0.00020045      -0.00146711      -0.00189894
H        5.09462777      -0.78010316      -0.78466675       0.04378792       0.00079873      -0.00202389      -0.00274410
H        2.82790737      -1.55737686      -1.25579493       0.04328292      -0.00183538      -0.00297657       0.00120733
H        0.65623760      -1.34190201      -1.02671345       0.13790835       0.00512137       0.00596362       0.00376924
H       -0.16025679       1.61230043       1.02857740       0.03782725       0.00081608       0.00251177       0.00041288
H       -2.49785790       2.22864345       1.50946189       0.04228187      -0.00323579      -0.00330735      -0.00107722
H       -4.36265383       0.86881807       0.61745392       0.04310259      -0.00218241      -0.00281802      -0.00056371
H       -1.53811088      -1.74173966      -1.24314914       0.04272667       0.00250472       0.00174662       0.00105678
