26
Properties=species:S:1:pos:R:3:charge:R:1:forces:R:3 energy=-24946.782156967707 pbc="F F F"
C       -4.69351363       0.30310390      -0.03194605      -0.04954690      -0.00293576      -0.00679059      -0.00553502
C       -3.88411422       0.15287251       1.08415938      -0.03942357      -0.00010165      -0.00063108      -0.00337647
C       -2.51363077      -0.01672630       0.96261913      -0.04439420       0.00413217      -0.00135737      -0.00027448
C       -1.93811624      -0.03646617      -0.30722026       0.04696188       0.00449649       0.00107506      -0.00168060
N       -0.56401153      -0.20213898      -0.53154287      -0.09273406       0.00188151       0.00086428       0.00573863
C        0.45864431      -0.36103611       0.36892357       0.17701742       0.00286504       0.00349177       0.00126218
O        0.30491653      -0.39430978       1.57947330      -0.28056052      -0.00747391      -0.00427937       0.00025578
C        1.82467040      -0.49460741      -0.29070538      -0.04193602      -0.00167535       0.00166271       0.00131854
C        2.90666227      -0.80092226       0.72347045      -0.02878429      -0.00295978      -0.00088818      -0.00073764
S        4.58439484      -0.95208634       0.01270925      -0.09931023      -0.00167140      -0.00311168      -0.00383442
C        4.98032650       0.80267380      -0.25033753      -0.06846250       0.00408459       0.00646224      -0.00037781
C       -2.75240025       0.11419231      -1.43161608      -0.05194977       0.00420927      -0.00366390       0.00232353
H       -2.30929814       0.09830010      -2.42064626       0.04014387      -0.00582578       0.00199260       0.00020868
C       -4.11771770       0.28201844      -1.29404266      -0.03795732       0.00204835       0.00066694      -0.00178323
H       -5.76086281       0.43275269       0.07798446       0.04065084      -0.00125276       0.00330791       0.00222414
H       -4.32238245       0.16618627       2.07339181       0.03955587       0.00261922       0.00141551      -0.00256754
H       -1.88910481      -0.13352060       1.83134796       0.03627374       0.00515765       0.00046751       0.00032246
H       -0.29828399      -0.19637868      -1.50326222       0.14159818      -0.00038258      -0.00045514       0.00285541
H        2.04970164       0.43418644      -0.82220290       0.03907659      -0.00230068       0.00079801       0.00394591
H        1.78821276      -1.26983830      -1.06054405       0.04122502      -0.00158686      -0.00241392      -0.00031859
H        2.71109368      -1.75718388       1.20155998       0.04076300      -0.00133322      -0.00413094       0.00108752
H        2.90695435      -0.04976324       1.50933371       0.03448363      -0.00579264       0.00368925      -0.00403564
H        4.30900845       1.26916838      -0.96766496       0.03779204       0.00835540      -0.00370786      -0.00394209
H        5.98875371       0.83851706      -0.65246527       0.04119435      -0.00049929      -0.00134697       0.00118079
H        4.95831372       1.35829281       0.68465585       0.03733223      -0.00209752       0.00490831       0.00175459
H       -4.73318233       0.39600286      -2.17658794       0.04099070      -0.00195978       0.00197481       0.00398485
