25
Properties=species:S:1:pos:R:3:charge:R:1:forces:R:3 energy=-24930.945962103393 pbc="F F F"
O        1.20933257      -1.06197432      -0.08526269      -0.35796040       0.00118910       0.00183294      -0.00585676
C        0.86819428       0.01332596      -0.63264551       0.09134379      -0.00126427       0.00367158       0.00247452
C        1.66645641       0.85611397      -1.40265210      -0.21546781      -0.00049466       0.00156021       0.00271101
C        3.07027576       0.58236978      -1.59299432      -0.05189881      -0.00032713       0.00128813       0.00441883
N       -0.48787562       0.47424258      -0.46485813      -0.12638088      -0.00204525      -0.00115705       0.00077141
C       -1.56395193      -0.14292393       0.10641832       0.04098409      -0.00222849      -0.00232355      -0.00083898
C       -2.79624188       0.54340276       0.13522893      -0.08985088      -0.00100486       0.00198492       0.00364673
C       -3.92381114      -0.02344321       0.69698517      -0.07117957      -0.00013258      -0.00357335      -0.00237552
C       -3.87784148      -1.29888416       1.25213575      -0.10491650      -0.00086181      -0.00098684       0.00226994
C       -2.66696709      -1.98497168       1.22710727      -0.06808275      -0.00175032      -0.00068760      -0.00256183
C       -1.52454922      -1.43467651       0.67224476      -0.07211016      -0.00295883      -0.00038758       0.00059203
H        1.27273416       1.80545116      -1.75538141       0.00954968       0.00046692      -0.00301992      -0.00247199
H        3.47931443       0.90886311      -2.54578515       0.01348153      -0.00034794      -0.00290039       0.00483153
H        3.29433250      -0.46633499      -1.42595895       0.01963418      -0.00062109       0.00032772      -0.00372862
H       -0.68505504       1.36500201      -0.88898673       0.11186367       0.00158933       0.00029715       0.00083162
H       -2.85231987       1.53920656      -0.29145423       0.01686249       0.00161290       0.00216905      -0.00308723
H       -4.85200375       0.53735760       0.70117414       0.01390640       0.00459041       0.00177638      -0.00081564
H       -2.60600986      -2.98180103       1.65090049       0.01217670       0.00446195       0.00628142       0.00402520
H       -0.58516427      -1.96010977       0.65461406       0.01742184      -0.00273838      -0.00162179       0.00220703
H       -4.76127239      -1.74295967       1.69222950       0.01491102       0.00035014      -0.00349652      -0.00224399
S        4.32134462       1.47859728      -0.37567002      -0.18986592       0.00189919       0.00400692      -0.00496919
C        3.60919510       0.84048854       1.16835885      -0.08044834      -0.00179311      -0.00276150       0.00168291
H        4.21053038       1.19529249       2.00551217       0.01785801       0.00117164       0.00090538       0.00427091
H        3.58378514      -0.24616527       1.16453940       0.02318159       0.00295017      -0.00208962      -0.00402137
H        2.58438284       1.18695055       1.27283940       0.02498697      -0.00171342      -0.00109671      -0.00176221
