25
Properties=species:S:1:pos:R:3:charge:R:1:forces:R:3 energy=-24931.238111423358 pbc="F F F"
O        0.06017990       0.84932234      -2.58518278      -0.35366100       0.00027726      -0.00103137      -0.00007951
C        0.56490890       0.06468509      -1.77186364       0.16717120      -0.00278686      -0.00081684      -0.00063610
C        1.80273198      -0.65662993      -2.14324327      -0.05237451       0.00051419       0.00253870      -0.00125766
C        2.25762749      -1.80116760      -1.63947258      -0.07878444       0.00681273       0.00195168       0.00052928
N        0.06210466      -0.17869832      -0.52774810      -0.09515327      -0.00146895       0.00228484      -0.00031937
C       -1.14471712       0.29152707      -0.01688185       0.04586196      -0.00342468      -0.00525000      -0.00082016
C       -2.19901628       0.76892748      -0.80913968      -0.05568763      -0.00379688      -0.00602873      -0.00367947
C       -3.39444298       1.14817457      -0.21724439      -0.05420792      -0.00184167      -0.00684290       0.00271868
C       -3.57217477       1.07969465       1.15777765      -0.07344541       0.00217397       0.00025214       0.00181124
C       -2.52195561       0.62214171       1.94526148      -0.05597245       0.00271584       0.00606314       0.00077266
C       -1.32452010       0.23729674       1.37280791      -0.05552769       0.00181753      -0.00144305       0.00201316
H        2.31719642      -0.18063536      -2.96869112       0.02006179       0.00116473       0.00084675      -0.00056603
H        1.76684439      -2.32237827      -0.82977491       0.02305866      -0.00032083       0.00281749      -0.00063218
H        3.17099578      -2.24371777      -2.02445973       0.02056181       0.00112566      -0.00351204       0.00199956
H        0.69681385      -0.65377010       0.17975031       0.08037416       0.00046051      -0.00099759       0.00215493
H       -2.06727804       0.84333064      -1.87545250       0.02405955       0.00564134      -0.00029198       0.00048089
H       -4.20073118       1.50181450      -0.85002226       0.01974472       0.00208121       0.00858436       0.00160448
H       -4.51002002       1.37870018       1.60950559       0.02154501      -0.00183542      -0.00132718      -0.00131926
H       -2.63760893       0.56346666       3.02167312       0.02004459       0.00088138       0.00407097       0.00067681
H       -0.50364775      -0.11583476       1.98565968       0.02402434      -0.00196409       0.00120297       0.00167871
S        1.89113317      -1.40992118       1.76758386      -0.53134263       0.00270494      -0.00225263      -0.00723170
C        3.16089320      -0.15669040       1.35483037      -0.12086286      -0.00528650      -0.00636967      -0.00033549
H        3.54826113       0.32553406       2.25681763       0.01742034      -0.00321412       0.00191966       0.00306715
H        4.00549628      -0.60447530       0.82543622       0.02162174      -0.00062333       0.00127546      -0.00317335
H        2.75775320       0.63172958       0.70964378       0.02146989      -0.00180823       0.00235598       0.00054268
