26
Properties=species:S:1:pos:R:3:charge:R:1:forces:R:3 energy=-24946.770087585934 pbc="F F F"
C        4.80712025       0.26196309      -0.49979424      -0.04921824      -0.00002524      -0.00011909      -0.00310730
C        4.42081281       0.61618501       0.78463769      -0.03770028       0.00104992      -0.00341911      -0.00181665
C        3.08365603       0.60376293       1.13552482      -0.05162619       0.00310254       0.00232315       0.00159064
C        2.10855006       0.23555744       0.20680486       0.04781031       0.00333602       0.00032441       0.00408916
N        0.77590554       0.24664025       0.64219368      -0.09255519       0.00472364       0.00296928      -0.00136333
C       -0.37174954      -0.06228008      -0.03967116       0.17550594       0.00663424      -0.00067925      -0.00315307
O       -0.40355975      -0.42227989      -1.20531987      -0.27988064      -0.00492356       0.00026066      -0.00353767
C       -1.63085918       0.08672104       0.80506663      -0.04015506      -0.00081991      -0.00010787      -0.00327928
C       -2.86126378      -0.26181787       0.00363518      -0.02875201      -0.00612564      -0.00110812      -0.00178933
S       -4.35034102      -0.07601711       1.05161875      -0.10031360       0.00018456      -0.00030677       0.00135933
C       -5.61149848      -0.55216553      -0.16806314      -0.06689746       0.00221425       0.00261680       0.00185811
C        2.49303346      -0.11956116      -1.08565399      -0.04392371      -0.00319012       0.00291492       0.00288707
C        3.83767795      -0.10136760      -1.42259544      -0.03917396      -0.00387630      -0.00351622      -0.00013639
H        5.85186866       0.26928786      -0.77620464       0.04062085       0.00462131       0.00270858      -0.00355952
H        5.16354653       0.90295592       1.51718008       0.04096935      -0.00143380       0.00105484       0.00190113
H        2.78905925       0.88284423       2.14042669       0.04011633       0.00420494      -0.00077799       0.00436989
H        0.65341583       0.52626894       1.60201960       0.14222814      -0.00174986       0.00197707       0.00256710
H       -1.69721886       1.10959404       1.18483359       0.04056097       0.00101264       0.00224895      -0.00169915
H       -1.55413478      -0.55069028       1.68986096       0.04061273      -0.00361898      -0.00433310      -0.00357948
H       -2.93940039       0.39149233      -0.86226014       0.03431490       0.00084172      -0.00261454      -0.00271575
H       -2.79285073      -1.28492732      -0.35839135       0.03432235      -0.00112370      -0.00161306      -0.00188373
H       -5.46304252      -1.57442806      -0.50977691       0.03796116      -0.00307699      -0.00210478       0.00346572
H       -6.57843364      -0.48451574       0.32321195       0.04133194      -0.00037026      -0.00186402      -0.00014283
H       -5.60590673       0.12090993      -1.02288552       0.03794973      -0.00339491       0.00318897       0.00053428
H        1.74347350      -0.40270164      -1.80468763       0.03637974       0.00254660       0.00041700       0.00282253
H        4.12717351      -0.37814117      -2.42782652       0.03951195      -0.00074347      -0.00044032       0.00431812
