26
Properties=species:S:1:pos:R:3:charge:R:1:forces:R:3 energy=-27646.53655125782 pbc="F F F"
C        2.79620252       2.13245044      -0.75318855      -0.03662834      -0.00176224       0.00211525      -0.00056245
C        3.66582878       2.15427843       0.32790865      -0.06426207       0.00077508      -0.00241283      -0.00214614
C        3.33237216       1.39763002       1.43456097       0.09156202       0.00412733       0.00055638      -0.00043876
F        4.17000987       1.40531437       2.49800788      -0.10499439      -0.00146351       0.00140605       0.00624123
C        2.18821511       0.63082538       1.51493182      -0.05981480       0.00648862       0.00053660       0.00071888
C        1.32786071       0.61819399       0.41783581       0.04760037       0.00004431       0.00714832       0.00165054
N        0.14869471      -0.13231955       0.38106127      -0.09986259      -0.00110477       0.00784973      -0.00140406
C       -0.42497241      -0.88583733       1.36609863       0.17904355       0.00167275      -0.00532819      -0.00328936
O        0.01322229      -0.98143673       2.50277548      -0.28325593      -0.00517892       0.00329721       0.00045542
C       -1.69555519      -1.60998572       0.93404894      -0.04045537      -0.00034811      -0.00503645       0.00006875
C       -2.83731682      -0.70403249       0.48118990      -0.02350747      -0.00250607       0.00006401      -0.00316469
S       -2.68318896       0.03130160      -1.18836742      -0.05390257       0.00143854       0.00341932       0.00729454
C       -2.86989304      -1.45475554      -2.21654292      -0.06177152      -0.00096167       0.00006136       0.00080573
C        1.63921288       1.37756533      -0.71509737      -0.05878590       0.00521217      -0.00672239      -0.00512621
H        3.02937963       2.71348551      -1.63505678       0.04309833      -0.00661517       0.00166130       0.00198890
H        4.57431290       2.73701628       0.31976307       0.04646222      -0.00156707      -0.00432089      -0.00104846
H        1.96960426       0.06506833       2.40363694       0.03989985      -0.00320135      -0.00139496      -0.00037763
H       -0.39535096      -0.04232407      -0.47059812       0.11201385      -0.00237888      -0.00139037       0.00055099
H       -1.46114049      -2.32553410       0.14542918       0.03907092       0.00459020       0.00051881      -0.00526491
H       -2.01927797      -2.18261153       1.79842304       0.04333214      -0.00232750      -0.00085842       0.00633116
H       -3.77485944      -1.25527617       0.50441456       0.04074942      -0.00234988       0.00352794       0.00302069
H       -2.94163956       0.13905463       1.15965150       0.04094042       0.00519570      -0.00345168      -0.00280771
H       -2.85067106      -1.11736483      -3.24793145       0.04402043       0.00118951      -0.00268875       0.00233692
H       -3.82036983      -1.94549109      -2.02448780       0.03834877       0.00299828       0.00166953      -0.00298665
H       -2.05478802      -2.15648909      -2.06279858       0.03734516      -0.00145655      -0.00085447      -0.00132723
H        0.96914552       1.37456508      -1.56627086       0.04375352      -0.00051068       0.00062802      -0.00151975
