20
Properties=species:S:1:pos:R:3:charge:R:1:forces:R:3 energy=-13010.320207736831 pbc="F F F"
C        4.15315338      -0.17864448      -0.96978476      -0.05219590       0.00143001      -0.00507906       0.00171455
C        3.10899007      -0.20551412      -0.15121599      -0.04175050       0.00307632       0.00367868       0.00031396
C        1.72306966      -0.05148961      -0.66611312       0.17919059       0.00189373      -0.00708230      -0.00397332
O        1.47241894       0.10592464      -1.85293971      -0.29272893       0.00122792       0.00294625      -0.00404064
N        0.76035360      -0.10481820       0.31573275      -0.09739077       0.00036095       0.00231443      -0.00158575
C       -0.63174331       0.00243822       0.20079327       0.04474191      -0.00399550       0.00027271      -0.00416878
C       -1.29121650       0.18136864      -1.01607020      -0.04500279      -0.00667440      -0.00341867      -0.00136062
C       -2.67311779       0.27909243      -1.03363148      -0.03843874      -0.00308956       0.00336709       0.00114230
C       -3.41445125       0.20230651       0.13591013      -0.04585201      -0.00137914      -0.00066124       0.00182125
C       -2.75709488       0.02271084       1.34463653      -0.03595659      -0.00142581       0.00022138      -0.00474500
H       -3.31980968      -0.04001763       2.26668046       0.04355700       0.00337517      -0.00022051      -0.00194129
C       -1.37895771      -0.07708680       1.37819890      -0.05104441      -0.00384535       0.00177094       0.00082703
H        5.16623570      -0.29203817      -0.60775462       0.04378406      -0.00066121       0.00349565       0.00245896
H        4.00310170      -0.04169571      -2.03216475       0.04197438      -0.00013822      -0.00078247       0.00484695
H        3.25756947      -0.34152730       0.91471694       0.04327407      -0.00230799      -0.00193980       0.00116801
H        1.09248251      -0.23649311       1.25624053       0.13789675       0.00591854      -0.00007790      -0.00155802
H       -0.71697136       0.24019345      -1.92414946       0.03783090       0.00024753       0.00357688       0.00212993
H       -3.17482254       0.41862637      -1.98211609       0.04227286       0.00072315      -0.00171904       0.00595795
H       -4.49233557       0.28128493       0.10784576       0.04310079       0.00273638      -0.00155678       0.00168040
H       -0.87575612      -0.21776638       2.32742102       0.04273734       0.00252899       0.00089384      -0.00068799
