20
Properties=species:S:1:pos:R:3:charge:R:1:forces:R:3 energy=-15709.851013791715 pbc="F F F"
O        1.18692071      -2.23565262       0.76034206      -0.29604000      -0.00395906      -0.00699259      -0.00202391
C        1.63034572      -1.13501227       0.45982004       0.17644873       0.00059487      -0.00743865       0.00080278
C        3.09371991      -0.93284691       0.30637616      -0.02965447      -0.00268897       0.00130158      -0.00464381
C        3.75620607       0.20981647       0.44300425      -0.05915809      -0.00240143       0.00096397       0.00436722
N        0.84615624      -0.03158448       0.23091194      -0.09794065       0.00552214      -0.00372006       0.00180630
C       -0.54260148       0.07139863       0.32640928       0.03581253       0.00736989       0.00022180      -0.00122887
C       -1.39266936      -0.92778552       0.80420081      -0.03480911       0.00460006       0.00715997       0.00485911
C       -2.75938306      -0.70325010       0.87114801      -0.04136873       0.00206543      -0.00421105      -0.00407901
C       -3.30900725       0.50291079       0.46731296      -0.03670998       0.00049672      -0.00151948       0.00252511
C       -2.48025868       1.50766552      -0.01182068      -0.04780392       0.00103630       0.00106842       0.00038471
C       -1.12702385       1.27596329      -0.07292751       0.08300409       0.00355853       0.00046327      -0.00014048
F       -0.30477927       2.25953247      -0.54095300      -0.09988780       0.00263957       0.00108895      -0.00185008
H        3.62475015      -1.85817866       0.12315463       0.04433371       0.00359388       0.00527834       0.00454312
H        4.83189114       0.25175764       0.33880493       0.04725004      -0.00221990      -0.00173567      -0.00591062
H        3.26995853       1.14127341       0.70261189       0.04294533      -0.00455757       0.00149113       0.00017979
H        1.30038605       0.77689462      -0.15983581       0.13159655      -0.00554087       0.00301414       0.00351643
H       -0.96890468      -1.86798217       1.11240621       0.04005394      -0.00463998       0.00451913      -0.00273938
H       -3.39842292      -1.49077996       1.24513510       0.04551852      -0.00295692      -0.00252499       0.00128488
H       -4.37442523       0.67151975       0.52061412       0.04595219      -0.00165634      -0.00258420       0.00272982
H       -2.87176109       2.46119517      -0.33434619       0.05045713      -0.00085682       0.00415551      -0.00438314
