26
Properties=species:S:1:pos:R:3:charge:R:1:forces:R:3 energy=-24946.78203754692 pbc="F F F"
C       -4.10997143       0.78514552      -0.84320403      -0.03795094       0.00024677      -0.00026937      -0.00357113
C       -2.73490148       0.79282482      -0.98519647      -0.05197873      -0.00216419       0.00007308       0.00240496
C       -1.92824731       0.03687492      -0.13212869       0.04696598       0.00185102      -0.00049811       0.00113700
N       -0.54376466       0.09695758      -0.34296121      -0.09270333       0.00189805       0.00084440      -0.00356126
C        0.47455660      -0.52679876       0.33173246       0.17699242      -0.00113586       0.00429539       0.00439697
O        0.30701866      -1.28212018       1.27596297      -0.28064290       0.00008733      -0.00513858      -0.00264372
C        1.85391407      -0.18466906      -0.21521692      -0.04186151      -0.00148404      -0.00388897       0.00056124
C        2.94010232      -0.98855522       0.46750279      -0.02871372       0.00595580      -0.00130147       0.00253972
S        4.63276571      -0.61159217      -0.11228494      -0.09936093      -0.00212497      -0.00230854      -0.00306517
C        4.92292162       0.96522437       0.74523677      -0.06843714       0.00133137       0.00174772       0.00021247
C       -2.52117130      -0.72938502       0.87043359      -0.04440370      -0.00382068       0.00318310      -0.00071165
C       -3.90151563      -0.72650204       0.99936922      -0.03939135       0.00072625      -0.00423018       0.00522892
C       -4.70391426       0.02336048       0.15247826      -0.04957125      -0.00047117      -0.00231511      -0.00209307
H       -5.77912882       0.01497602       0.26450908       0.04069371       0.00861536      -0.00090275       0.00264363
H       -4.71910419       1.37597117      -1.51398738       0.04097049      -0.00623760       0.00564593      -0.00295023
H       -2.27889762       1.39120250      -1.76530652       0.04015427       0.00031446      -0.00115104      -0.00097053
H       -0.26601309       0.69188521      -1.10682265       0.14153846       0.00255556       0.00326115      -0.00315917
H        1.87418484      -0.35236961      -1.29524489       0.04119082      -0.00613013       0.00132943      -0.00386555
H        2.02820749       0.88670540      -0.08310373       0.03907999      -0.00162175      -0.00274335       0.00649574
H        2.79919245      -2.04843550       0.27165003       0.04078206       0.00298690      -0.00063124       0.00224429
H        2.88355281      -0.85622480       1.54499539       0.03452453      -0.00853805       0.00300751       0.00061282
H        5.92967700       1.27962614       0.48605246       0.04118394       0.00577890       0.00042525       0.00383804
H        4.86105914       0.84771281       1.82503577       0.03735102      -0.00186180       0.00041627       0.00000727
H        4.22987023       1.73842923       0.42206930       0.03777687       0.00442041       0.00198786      -0.00497093
H       -1.90236842      -1.31202418       1.53093718       0.03631167       0.00109815       0.00012216      -0.00452986
H       -4.35299025      -1.32493004       1.77942550       0.03949934      -0.00227676      -0.00096104       0.00376869
