25
Properties=species:S:1:pos:R:3:charge:R:1:forces:R:3 energy=-37436.05534933621 pbc="F F F"
O        0.80620474      -1.18975764      -0.62820015      -0.35571435       0.00137695      -0.00462912       0.00131207
C        0.81463095       0.04838329      -0.82513645       0.09175891       0.00065622      -0.00193221       0.00173318
C        1.81845435       0.80820174      -1.41350937      -0.21335237      -0.00127816      -0.00142870      -0.00124736
C        3.07068299       0.20954882      -1.82426991      -0.05007355       0.00138333      -0.00139438      -0.00003559
N       -0.33390381       0.82016378      -0.39791052      -0.12538095      -0.00365856       0.00393840       0.00348908
C       -1.52760500       0.40898974       0.10977966       0.04471805      -0.00147111      -0.00011408       0.00811595
C       -1.88797126      -0.94620335       0.28257191      -0.07237196      -0.00067726      -0.00273211      -0.00162869
C       -3.12590601      -1.27223865       0.79977898      -0.06554160      -0.00244449      -0.00001985      -0.00055003
C       -4.06102308      -0.30675689       1.17086057      -0.09415956      -0.00063324      -0.00270565      -0.00216176
C       -3.69203062       1.01839450       0.99781787       0.02245047      -0.00016535      -0.00371924       0.00075455
Cl      -4.84379207       2.29721340       1.45719497      -0.16278540       0.00078027       0.00321087      -0.00287710
C       -2.47151003       1.39290019       0.48565922      -0.08423775      -0.00468699       0.00046094      -0.00566310
H        1.73307062       1.89029399      -1.45492451       0.01263470       0.00012698       0.00324509      -0.00124776
H        3.51818524       0.65264653      -2.71100847       0.01706144       0.00275740       0.00345995       0.00333388
H        2.97079561      -0.86344090      -1.95863230       0.02257896      -0.00151271      -0.00302007      -0.00402915
H       -0.24355049       1.81394123      -0.52785551       0.11511631      -0.00350049       0.00557810       0.00098778
H       -1.16896565      -1.69480560       0.00102555       0.02046676       0.00294590      -0.00066540       0.00447099
H       -3.38003133      -2.31942280       0.92149229       0.01623537       0.00514823       0.00407721      -0.00147092
H       -5.02778654      -0.56897082       1.57313979       0.02161052       0.00299382      -0.00134053       0.00229878
H       -2.23766123       2.44375484       0.37388823       0.02352076       0.00151019       0.00224719      -0.00014455
S        4.55025014       0.37475382      -0.58113243      -0.17723580       0.00802632       0.00152682      -0.00275263
C        3.79103461      -0.51383619       0.80980403      -0.07905793      -0.00336592      -0.00449483       0.00396908
H        4.46745054      -0.45954436       1.66346443       0.02061691      -0.00458681      -0.00166659      -0.00395397
H        2.83628640      -0.06074275       1.06467796       0.02780554       0.00214278       0.00186742      -0.00278794
H        3.61150549      -1.55620474       0.55597619       0.02333643      -0.00186724       0.00025082       0.00008484
