26
Properties=species:S:1:pos:R:3:charge:R:1:forces:R:3 energy=-37451.753454791025 pbc="F F F"
C       -4.70616039       0.25453947       0.07902555      -0.04340103       0.00265788      -0.00222960      -0.00140434
C       -3.86666601       1.03420830      -0.70132200      -0.03993011       0.00087381       0.00126319      -0.00125366
C       -2.49082483       0.93507814      -0.58975211      -0.03898705       0.00048594      -0.00242887       0.00047761
C       -1.91782259       0.04123502       0.31802651       0.04497575       0.00365586       0.00232765       0.00046602
N       -0.54376619      -0.10949290       0.48765665      -0.09232961       0.00014388       0.00164322       0.00081777
C        0.49169055       0.53265381      -0.15103768       0.17681497      -0.00262177      -0.00401358      -0.00342357
O        0.34360148       1.37867408      -1.01715259      -0.27649525       0.00235315       0.00658761       0.00557895
C        1.85748052       0.07729423       0.33807648      -0.04215430      -0.00824112       0.00026898      -0.00062333
C        2.97702062       0.87211225      -0.30274493      -0.03064286      -0.00773398      -0.00133337       0.00378643
S        4.65312350       0.37149987       0.22537433      -0.09751213       0.00009703      -0.00191470      -0.00172465
C        4.84567960      -1.16414960      -0.72793374      -0.06866904       0.00214753      -0.00198332       0.00074055
C       -2.78692546      -0.73849020       1.09569364       0.02774609       0.00492648      -0.00088715      -0.00179800
Cl      -2.11859655      -1.88839012       2.25902001      -0.05949466      -0.00389996      -0.00170819       0.00110022
C       -4.15966176      -0.63986184       0.98444240      -0.04195432       0.00252783      -0.00036710       0.00299206
H       -5.77971457       0.33538829      -0.01032681       0.04406819       0.00105115      -0.00050185      -0.00163415
H       -4.28394521       1.73401049      -1.41163299       0.04305771      -0.00133420       0.00398497      -0.00218357
H       -1.83874764       1.54016448      -1.19556738       0.03742007       0.00105570      -0.00111618       0.00211843
H       -0.28089536      -0.79110495       1.18482695       0.13036992       0.00368236       0.00215931      -0.00294988
H        1.89958807       0.15817015       1.42738567       0.04293519       0.00316945       0.00506135      -0.00341260
H        1.96683773      -0.98893354       0.12178269       0.04053375       0.00000025       0.00344726      -0.00254381
H        2.90023541       0.82082434      -1.38620256       0.03576334      -0.00202034      -0.00566364       0.00494230
H        2.89321376       1.92098109      -0.03066954       0.04246946      -0.00315430      -0.00008750      -0.00076524
H        5.84250159      -1.53939811      -0.51603699       0.04299101       0.00693483       0.00414601      -0.00139154
H        4.12577328      -1.92224509      -0.42887293       0.03896543      -0.00047567      -0.00151692      -0.00095338
H        4.76235487      -0.98138606      -1.79719302       0.03871996      -0.00236157      -0.00402786       0.00081736
H       -4.79034042      -1.26009186       1.60387384       0.04473957      -0.00391923      -0.00111011       0.00222412
