26
Properties=species:S:1:pos:R:3:charge:R:1:forces:R:3 energy=-24946.79425747837 pbc="F F F"
C       -4.65233147      -0.23585840       0.08439872      -0.04870935      -0.00197172      -0.00093641      -0.00101514
C       -3.93664229       0.66716734      -0.68745251      -0.03931027       0.00187798      -0.00035494       0.00156077
C       -2.55733992       0.58774038      -0.79650476      -0.04345489       0.00315532       0.00002132       0.00163839
C       -1.87791519      -0.42217359      -0.11732809       0.04808244       0.00111747      -0.00317599       0.00096296
N       -0.48583481      -0.58436440      -0.16353799      -0.09724228       0.00025295      -0.00024129      -0.00045603
C        0.47241332       0.21989743      -0.72559662       0.17808397      -0.00072386       0.00099064       0.00553461
O        0.23099815       1.25968115      -1.31812770      -0.28331369       0.00632748      -0.00422929       0.00078427
C        1.89261646      -0.25319581      -0.47904992      -0.04145849      -0.00281353      -0.00074598      -0.00329234
C        2.45863314       0.43512735       0.76297344      -0.02637199      -0.00576424       0.00057331      -0.00205088
S        4.14398989      -0.07765197       1.23085337      -0.09977055       0.00144509      -0.00215883       0.00841705
C        5.10790373       0.74498291      -0.07555153      -0.06727560       0.00050003      -0.00131275      -0.00347095
C       -2.59684101      -1.33677100       0.65468774      -0.05010017      -0.00060550       0.00092018       0.00181995
H       -2.07241571      -2.12448646       1.18238599       0.04001898       0.00154314       0.00126731      -0.00027450
C       -3.97207789      -1.24108244       0.75633561      -0.03762352       0.00051384      -0.00192457      -0.00396679
H       -5.72747951      -0.15891883       0.16348148       0.04071658      -0.00553438       0.00054579      -0.00519559
H       -4.45764494       1.45357675      -1.21735854       0.03958867       0.00288978      -0.00003034       0.00225639
H       -2.00527353       1.29401102      -1.39206047       0.03661907       0.00236237       0.00177123       0.00349534
H       -0.14604289      -1.39900961       0.31976518       0.14012422       0.00048276       0.00045090       0.00203508
H        2.47771784       0.02253520      -1.35234976       0.03948560       0.00255715       0.00301139       0.00084682
H        1.95453836      -1.33612517      -0.36444443       0.04164421      -0.00383590       0.00051454      -0.00006325
H        1.85362079       0.19666263       1.63550425       0.03601252      -0.00184268       0.00217767       0.00130572
H        2.42891398       1.51547018       0.63187056       0.03624606      -0.00157075       0.00312667       0.00289805
H        4.93760934       1.81910839      -0.07780690       0.03753162       0.00150687       0.00312229      -0.00445573
H        4.88482705       0.33474869      -1.05631515       0.03821767      -0.00369627      -0.00338959      -0.00713278
H        6.15328645       0.55657608       0.14884089       0.04121078       0.00369332       0.00118711      -0.00123598
H       -4.51419381      -1.95435716       1.36282070       0.04104839      -0.00186634      -0.00118102      -0.00094560
