25
Properties=species:S:1:pos:R:3:charge:R:1:forces:R:3 energy=-24930.946036002315 pbc="F F F"
O       -0.82832850       0.41095188       1.08790894      -0.35806563       0.00524374       0.00400297       0.00198713
C       -0.85684569       0.75157741      -0.11846169       0.09128512      -0.00081814      -0.00735266      -0.00261147
C       -1.90342230       1.37731535      -0.79154061      -0.21547154       0.00236555       0.00191244      -0.00018717
C       -3.15830825       1.64448926      -0.13166233      -0.05189392      -0.00163426      -0.00334174       0.00046354
N        0.29360184       0.47443376      -0.94254144      -0.12638013       0.00329681       0.00211635      -0.00010876
C        1.52832541       0.00078264      -0.60186546       0.04096502       0.00015701      -0.00551019      -0.00024505
C        1.91123797      -0.33022747       0.71490897      -0.07214080       0.00281265       0.00367222       0.00169090
C        3.18768465      -0.80095604       0.96942047      -0.06808569      -0.00084028      -0.00295345       0.00060879
C        4.12815972      -0.96576449      -0.04344275      -0.10495620      -0.00301781       0.00134748       0.00067896
C        3.75610809      -0.64406274      -1.34554344      -0.07116349      -0.00006179      -0.00310862      -0.00024473
C        2.48768240      -0.17160584      -1.62184327      -0.08985437       0.00050907       0.00037679       0.00094848
H       -1.83584696       1.54877142      -1.86216940       0.00958016      -0.00068553       0.00298392      -0.00475369
H       -3.68081899       2.53334299      -0.47589780       0.01349742      -0.00027251      -0.00221287       0.00152151
H       -3.03920310       1.67156003       0.94669919       0.01964330      -0.00112989       0.00148683       0.00204911
H        0.18929154       0.73063131      -1.90983208       0.11182005      -0.00055296      -0.00015507      -0.00100320
H        1.18091391      -0.20312338       1.49549478       0.01745651       0.00001540      -0.00432505      -0.00045507
H        3.45167597      -1.04686677       1.99243401       0.01215861       0.00074414       0.00327292       0.00113350
H        5.12238496      -1.33430732       0.17401830       0.01492183      -0.00478757      -0.00129380      -0.00353718
H        2.21563667       0.07117449      -2.64371208       0.01685836       0.00409904       0.00119572       0.00172803
H        4.46389089      -0.76476524      -2.15815095       0.01387895       0.00059726       0.00466363      -0.00082333
S       -4.58241541       0.31608111      -0.36551662      -0.18972382      -0.00367752       0.00171935      -0.00556673
C       -3.65516859      -1.10583744       0.28050593      -0.08039990      -0.00646479       0.00098806       0.00226505
H       -4.30749470      -1.97928571       0.28013089       0.01784910       0.00136134      -0.00415473       0.00009053
H       -2.78327089      -1.29164493      -0.34127052       0.02504642       0.00013707       0.00339705       0.00321070
H       -3.29864863      -0.91024561       1.28848248       0.02317461       0.00260381       0.00127232       0.00116030
