29
Properties=species:S:1:pos:R:3:charge:R:1:forces:R:3 energy=-34115.50879915463 pbc="F F F"
C       -1.86927533      -0.98216050      -0.78105684      -0.04081504      -0.00129139      -0.00063700      -0.00431850
C       -3.13411314      -0.41932956      -0.77446332      -0.02852125      -0.00109859      -0.00027244      -0.00070358
C       -3.38096439       0.77852519      -0.11880447      -0.03136140       0.00036446       0.00217016       0.00064507
C       -4.73620224       1.41476692      -0.10636261       0.27749690       0.00013051      -0.00089984       0.00075415
F       -5.21898300       1.55898761       1.15867674      -0.11836796       0.00244848      -0.00185196       0.00129492
F       -4.71324215       2.66639396      -0.64286294      -0.11844671      -0.00196644      -0.00031741      -0.00010207
F       -5.65406050       0.70538981      -0.80019792      -0.10962962      -0.00040197      -0.00514250      -0.00061460
C       -2.33799226       1.41517006       0.54694143      -0.02293626      -0.00268930       0.00271518       0.00547038
C       -1.07603206       0.86392860       0.54712486      -0.04582733      -0.00147638       0.00669660      -0.00719601
C       -0.82289339      -0.33803514      -0.12174242       0.04531388      -0.00243315       0.00359894       0.00789415
N        0.49085789      -0.80938989      -0.09239882      -0.09839107      -0.00107998       0.00240516       0.00733159
C        1.00541399      -1.97406323      -0.59773806       0.17251045       0.00118413       0.00205075       0.00122549
O        0.34040945      -2.84407695      -1.13700131      -0.28664789      -0.00316117      -0.00035306      -0.00363115
C        2.51110203      -2.13958946      -0.43245676      -0.04066665       0.00314991      -0.00191573       0.00028332
C        3.35279066      -0.87627629      -0.34850296      -0.01708786       0.00144256      -0.00055327       0.00059694
S        3.28003343      -0.10049139       1.31491668      -0.05443527      -0.00006985       0.00227007       0.00092597
C        3.97228496       1.53729733       0.93822888      -0.06144833       0.00263206       0.00242022       0.00319376
H       -1.69010226      -1.91240211      -1.29113970       0.04041471       0.00092070      -0.00562484       0.00002184
H       -3.93477200      -0.92761347      -1.29058386       0.04529833      -0.00536806       0.00091022      -0.00425754
H       -2.51848743       2.34644196       1.06537822       0.04882304       0.00362960       0.00138297       0.00103250
H       -0.26960607       1.36726221       1.06733199       0.04416256      -0.00660813       0.00197953      -0.00296006
H        1.13988378      -0.22559749       0.42253679       0.10658557       0.00440279      -0.00246118      -0.00060724
H        2.82766423      -2.73094894      -1.28845570       0.04443135      -0.00152139      -0.00006006      -0.00140578
H        2.68136934      -2.76674554       0.44359492       0.04338973       0.00207640      -0.00457717      -0.00475918
H        3.02255721      -0.14957726      -1.09036311       0.03573754       0.00860503       0.00099364      -0.00133359
H        4.39401834      -1.10491259      -0.56050900       0.04365350      -0.00198728      -0.00293853       0.00401233
H        4.99211174       1.45772753       0.57143886       0.04073127      -0.00340502      -0.00341137      -0.00592766
H        3.98042101       2.09549367       1.86989328       0.04577738      -0.00004326       0.00408654       0.00206617
H        3.35723791       2.06699111       0.21459230       0.04025644       0.00361441      -0.00266491       0.00106829
