23
Properties=species:S:1:pos:R:3:charge:R:1:forces:R:3 energy=-22178.864064041158 pbc="F F F"
O       -2.18408487       1.81376387      -1.11713790      -0.29189447      -0.00072295       0.00111015      -0.00420161
C       -2.47123565       0.70387849      -0.69268389       0.17734256       0.00252249       0.00197926      -0.00222910
C       -3.88731786       0.24975486      -0.66512201      -0.02754866       0.00328728       0.00480808       0.00491645
C       -4.41723266      -0.64327494       0.16288736      -0.05540465      -0.00009564       0.00087222      -0.00036267
N       -1.54468251      -0.20589661      -0.23512614      -0.09917518      -0.00108469      -0.00472260       0.00245428
C       -0.15944475      -0.06855643      -0.12397366       0.04884186       0.00135583       0.00066912      -0.00458602
C        0.52133123       1.13191569      -0.33670458      -0.03862969       0.00175726       0.00502015      -0.00034872
C        1.89533368       1.17736125      -0.18344296      -0.02518077       0.00283318      -0.00445333       0.00621678
C        2.61604535       0.04668405       0.17705406      -0.02886106       0.00119792      -0.00534989      -0.00231420
C        4.09806382       0.11957678       0.39195014       0.27764571      -0.00550321       0.00195158      -0.00247321
F        4.71695560      -1.04902820       0.08967545      -0.11118261       0.00141240       0.00504904       0.00057224
F        4.40926407       0.39569096       1.68949990      -0.11579815      -0.00164573      -0.00020884      -0.00553314
F        4.68096182       1.08448740      -0.35840645      -0.10993128       0.00175667       0.00125914       0.00336837
C        1.93917688      -1.14971733       0.38546766      -0.02198355      -0.00391297      -0.00000148      -0.00200762
C        0.56942448      -1.20499877       0.23598824      -0.04310607      -0.00191342      -0.00089788      -0.00164060
H       -4.50845689       0.78072759      -1.37487425       0.04646102       0.00221298      -0.00206880       0.00322396
H       -3.84982680      -1.13432849       0.94404374       0.04374452       0.00412534       0.00333471      -0.00058218
H       -5.46898043      -0.89044219       0.12216077       0.04929714      -0.00253008      -0.00221301      -0.00199714
H       -1.88917072      -1.13417565      -0.06056791       0.13805151      -0.00193281      -0.00963836       0.00071343
H       -0.02351387       2.01358829      -0.62390357       0.04214346      -0.00338418       0.00463128      -0.00093596
H        2.41047608       2.11139907      -0.35506052       0.04816521       0.00381941      -0.00624398       0.00321480
H        2.48475138      -2.04126041       0.65829451       0.04932556      -0.00004053       0.00717510       0.00187640
H        0.05578705      -2.14399043       0.39859048       0.04767761      -0.00351439      -0.00206159       0.00265576
