28
Properties=species:S:1:pos:R:3:charge:R:1:forces:R:3 energy=-34099.88742115124 pbc="F F F"
O       -1.20829261      -1.35582218      -0.86679448      -0.35281608      -0.00312407       0.00101361      -0.00603130
C       -1.42759675      -1.01057849       0.31729654       0.09299041       0.00377466      -0.00047371       0.00027653
C       -2.54156067      -1.29730401       1.09660340      -0.21245688       0.00293300       0.00012268      -0.00145117
C       -3.67647236      -2.01401251       0.55167609      -0.04895160       0.00307450       0.00234544       0.00359322
N       -0.42692190      -0.20596127       0.99502799      -0.12540168      -0.00478890      -0.00150178       0.00166068
C        0.81525329       0.16417571       0.59782282       0.03433179      -0.00263616      -0.00264999       0.00079186
C        1.40196605      -0.22596818      -0.62873843      -0.06624428      -0.00051073       0.00135662      -0.00176892
C        2.67534971       0.18016713      -0.95448152      -0.04646702      -0.00195872       0.00576456      -0.00266403
C        3.43447682       0.98697373      -0.10111169      -0.08186995       0.00650112      -0.00006984      -0.00496212
C        4.78927022       1.45246841      -0.46731192       0.26976079      -0.00181727       0.00440560      -0.00098676
F        5.39432140       0.66568277      -1.39907570      -0.13689335      -0.00520809       0.00321384       0.00111506
F        5.64131449       1.50906518       0.60166168      -0.14196268      -0.00235456      -0.00443071      -0.00014781
F        4.81363201       2.72581364      -0.99796513      -0.15255637       0.00094640       0.00052842      -0.00090235
C        2.85501098       1.38634719       1.10822701      -0.04838162       0.00783024       0.00020589      -0.00477562
C        1.58751000       0.98602670       1.44987497      -0.07871657       0.00117942       0.00418868      -0.00097559
H       -2.64154496      -0.87352050       2.09188822       0.01428660      -0.00292040      -0.00264831      -0.00471523
H       -3.40053730      -2.58201065      -0.33204946       0.02430353       0.00106278      -0.00238172       0.00448979
H       -4.18935371      -2.66020760       1.26012713       0.01943215      -0.00463851       0.00307599       0.00149405
H       -0.69043158       0.08891725       1.92086299       0.11752614       0.00236035       0.00284849      -0.00099314
H        0.82163534      -0.84317249      -1.29146966       0.02185394      -0.00447732      -0.00244822       0.00286167
H        3.09592643      -0.13725860      -1.89830243       0.02485078       0.00497017      -0.00366683       0.00307696
H        3.41455530       2.01862560       1.78296602       0.02640987       0.00485227      -0.00195746       0.00771249
H        1.16818460       1.31288636       2.39481731       0.02247512      -0.00436014      -0.00253761       0.00475030
S       -5.15783803      -0.92274010      -0.04539470      -0.17230082      -0.00352485       0.00103300      -0.00214970
C       -4.26983248       0.01214317      -1.32445618      -0.07885881       0.00065222      -0.00079042      -0.00113525
H       -3.39020359       0.48775495      -0.89769934       0.02859901      -0.00379174      -0.00508150       0.00233947
H       -3.94461945      -0.64091953      -2.13142801       0.02442866       0.00374920       0.00317510       0.00037669
H       -4.94367900       0.77062174      -1.72296362       0.02262894       0.00222491      -0.00264010      -0.00088028
