30
Properties=species:S:1:pos:R:3:charge:R:1:forces:R:3 energy=-19294.614212562843 pbc="F F F"
C        6.34245059      -0.02774785       1.27212142      -0.05323453       0.00323872      -0.00245305       0.00101551
C        5.35373953       0.02304327       0.38810900      -0.04267768       0.00775469       0.00268551      -0.00101781
C        3.93240284      -0.04543955       0.81812018       0.17880550       0.00896052      -0.00072313       0.00252462
O        3.60152785      -0.17983794       1.98806549      -0.29432863      -0.00356311       0.00094882      -0.00233126
N        3.03619743       0.05971084      -0.22178739      -0.09654188       0.00320330      -0.00282895       0.00349729
C        1.63592579       0.03961888      -0.19383656       0.04522546      -0.00241811      -0.00823165       0.00306688
C        0.88999381      -0.17958323       0.96654283      -0.04796591      -0.00458276       0.00071917      -0.00186440
C       -0.49102036      -0.19602706       0.90063454      -0.03757331      -0.00157241       0.00020268       0.00280283
C       -1.18005291       0.01438529      -0.29360623      -0.00618458      -0.00012756      -0.00949355       0.00045133
C       -2.65135264      -0.00607677      -0.34262900      -0.00237018       0.00079063       0.00204021       0.00268462
C       -3.37936017      -0.96158424       0.37086076      -0.03737008      -0.00075697      -0.00102962      -0.00464620
C       -4.76372526      -0.98822519       0.31607543      -0.03976013       0.00198779       0.00027892      -0.00318222
C       -5.45114865      -0.04964264      -0.44143827      -0.03973987      -0.00289633       0.00260699       0.00185211
C       -4.74150002       0.91322006      -1.14626311      -0.03988112       0.00042939      -0.00409764      -0.00354380
C       -3.35656417       0.92988405      -1.10255406      -0.03704274       0.00081406      -0.00449239      -0.00220462
C       -0.42083199       0.24126072      -1.44226918      -0.03577127      -0.00293044       0.00216773       0.00294354
C        0.95862667       0.24383259      -1.39805635      -0.05343582      -0.00367095       0.00002155      -0.00100557
H        7.38119232       0.02234758       0.97339305       0.04344627      -0.00703929      -0.00121431      -0.00462979
H        6.11975077      -0.12242224       2.32641580       0.04169421       0.00448389      -0.00056449      -0.00532173
H        5.57386195       0.11621331      -0.66980610       0.04297400      -0.00265960       0.00347314      -0.00172785
H        3.43584335       0.18336854      -1.13709226       0.13823795      -0.00101918       0.00319322       0.00743733
H        1.39572738      -0.33285867       1.90378013       0.03893587      -0.00232413       0.00528106      -0.00137337
H       -1.04875368      -0.35229372       1.81435994       0.04274336      -0.00091501      -0.00398434       0.00032822
H       -2.85519546      -1.70803092       0.95339929       0.03984218       0.00250708       0.00794501      -0.00137504
H       -5.30667493      -1.74612754       0.86555548       0.04156097       0.00210546       0.00282084      -0.00179478
H       -6.53201516      -0.06848227      -0.48258274       0.04190306      -0.00446216       0.00351083       0.00456157
H       -5.26771228       1.65497128      -1.73261873       0.04155364      -0.00015791      -0.00239439      -0.00069836
H       -2.81561740       1.69387144      -1.64572077       0.03972907       0.00058136      -0.00182509      -0.00313063
H       -0.91753619       0.39106313      -2.39120468       0.04356170       0.00440228       0.00225306      -0.00130733
H        1.51654625       0.40546629      -2.31274210       0.04366455      -0.00016414       0.00318395       0.00798958
