36
Properties=species:S:1:pos:R:3:charge:R:1:forces:R:3 energy=-31231.07401366938 pbc="F F F"
C       -6.75812330      -0.04082524      -0.27341113      -0.04185474       0.00208552      -0.00630276       0.00138778
C       -6.08929831       0.98914321       0.37326738      -0.04148168       0.00090332       0.00470114       0.00257876
C       -4.70546503       1.05566607       0.33463281      -0.03776283       0.00423449      -0.00092159      -0.00309870
C       -3.95893626       0.08696181      -0.33923783      -0.00244774       0.00418024      -0.00203216       0.00049332
C       -2.48895776       0.15516179      -0.37573959      -0.00801401       0.00059184      -0.00459123      -0.00068964
C       -1.70457661      -0.98724883      -0.21803796      -0.03783059       0.00532944       0.00133982       0.00239969
C       -0.32154922      -0.94284604      -0.24361699      -0.04695395      -0.00348205       0.00144241       0.00077767
C        0.32367493       0.27674559      -0.45044798       0.04503654       0.00007054      -0.00678121       0.00029893
N        1.71808051       0.41869280      -0.51090029      -0.09062427       0.00115685      -0.00152691      -0.00159439
C        2.70317836      -0.51433575      -0.30854047       0.17719224       0.00140877       0.00162791       0.00366586
O        2.48946030      -1.68338010      -0.02822437      -0.28043845      -0.00107164      -0.00594354      -0.00726969
C        4.10751699       0.04989551      -0.46790742      -0.04193477      -0.00248641      -0.00381567       0.00017204
C        5.15764111      -1.03653734      -0.36970950      -0.02925788      -0.00138840       0.00195081       0.00098367
S        6.87968230      -0.43803342      -0.50382023      -0.09973948      -0.00216410      -0.00048381      -0.00721688
C        7.10476249       0.25906062       1.15957032      -0.06879804       0.00034390       0.00232447       0.00086488
C       -0.44870035       1.42748667      -0.61620296      -0.05399753       0.00034392       0.00092807       0.00140064
C       -1.82704519       1.36724689      -0.57004322      -0.03689991      -0.00166003      -0.00116463       0.00239001
C       -4.64473639      -0.94938999      -0.97650210      -0.03803712       0.00234397      -0.00379022       0.00045835
C       -6.02922409      -1.00877078      -0.95056911      -0.04132027       0.00084314      -0.00121799      -0.00242652
H       -7.83875793      -0.08904154      -0.24866309       0.04014489       0.00023596      -0.00292146      -0.00022309
H       -6.64627887       1.74404263       0.91191167       0.03960596      -0.00341885       0.00842289       0.00202798
H       -4.19537074       1.85576433       0.85476891       0.03823442      -0.00030501       0.00654482       0.00070493
H       -2.18569709      -1.94056342      -0.04382886       0.04104217       0.00113065       0.00719145      -0.00224922
H        0.25621026      -1.83994125      -0.10343949       0.03777580      -0.00123010       0.00247511      -0.00068356
H        2.03344050       1.35194189      -0.72248949       0.14267409       0.00202986      -0.00554333       0.00399663
H        4.26900986       0.81100463       0.30038292       0.03936187      -0.00101151      -0.00949027       0.00167882
H        4.18633155       0.57726454      -1.42206458       0.04165253      -0.00014759      -0.00016284      -0.00130429
H        5.03337608      -1.59182405       0.55642678       0.03469284      -0.00308285       0.00127783       0.00118897
H        5.03663615      -1.74820694      -1.18231111       0.04102492       0.00280138       0.00103172      -0.00186797
H        8.12959044       0.61442206       1.21394633       0.04157868       0.00545181      -0.00029125      -0.00176096
H        6.44081662       1.10060952       1.34165802       0.03808254       0.00134922       0.00736711       0.00386279
H        6.95686910      -0.49609035       1.92848788       0.03758853      -0.00128397       0.00005588       0.00512058
H        0.03618370       2.38202596      -0.78295360       0.04161209      -0.00546909       0.00729010      -0.00198699
H       -2.39829338       2.27408844      -0.71262341       0.04213616      -0.00420295       0.00156908      -0.00032063
H       -4.08846029      -1.70316081      -1.51813914       0.03835914      -0.00255028       0.00229369      -0.00117928
H       -6.53934200      -1.81409032      -1.46226559       0.03959787      -0.00188025      -0.00285423      -0.00258036
