20
Properties=species:S:1:pos:R:3:charge:R:1:forces:R:3 energy=-13010.32024739489 pbc="F F F"
C        4.20528639       0.36804690       0.61301239      -0.05218237       0.00244428      -0.00305120      -0.00098939
C        3.10820153      -0.21652910       0.14914704      -0.04177178      -0.00471136      -0.00132080      -0.00009835
C        1.75840901       0.32312327       0.45976496       0.17922550      -0.00249285      -0.00490434      -0.00045725
O        1.58671508       1.32302415       1.14307940      -0.29279092      -0.00186308      -0.00099525      -0.00064559
N        0.73231264      -0.40895565      -0.09279049      -0.09742756      -0.00170927       0.00651430       0.00194233
C       -0.65078048      -0.19875407      -0.01585064       0.04473180       0.00331489      -0.00007155       0.00111045
C       -1.23036567       0.85452648       0.69289236      -0.04497045       0.00097758      -0.00045771       0.00033679
C       -2.60949350       0.98491010       0.71148419      -0.03840815      -0.00057624       0.00331539      -0.00138456
C       -3.42609542       0.08859420       0.03864739      -0.04584813       0.00126185      -0.00084164      -0.00215201
H       -4.50079486       0.20392122       0.05977733       0.04312636       0.00075929      -0.00450421       0.00122329
C       -2.84792001      -0.95862994      -0.66424740      -0.03593534       0.00390559      -0.00247199      -0.00205714
C       -1.47357673      -1.10285356      -0.69159928      -0.05103876       0.00163737       0.00613592      -0.00119734
H        5.19241789      -0.01630873       0.39461962       0.04378916       0.00742416       0.00214860      -0.00011462
H        4.12573589       1.25402396       1.22822488       0.04200436       0.00384141      -0.00186947      -0.00132965
H        3.18538349      -1.10489964      -0.46875247       0.04328548      -0.00208089       0.00044466       0.00209402
H        1.00325748      -1.21191222      -0.63524864       0.13777876      -0.00066183       0.00438778       0.00212909
H       -0.59750066       1.55123656       1.21450928       0.03790266      -0.00120575      -0.00198587      -0.00158382
H       -3.04889509       1.80520246       1.26304410       0.04225564      -0.00331458       0.00271737       0.00241214
H       -3.46953292      -1.66718768      -1.19510457       0.04353746      -0.00227248      -0.00418829      -0.00146190
H       -1.03166556      -1.92372414      -1.24400605       0.04273632      -0.00467808       0.00099892       0.00222349
