20
Properties=species:S:1:pos:R:3:charge:R:1:forces:R:3 energy=-13010.320234657933 pbc="F F F"
C        4.21308764       0.47755123      -0.28226054      -0.05217609       0.00172281      -0.00440673       0.00197552
C        3.09613519       0.06121736       0.30074337      -0.04173392      -0.00365326       0.00364171       0.00081564
C        1.76792796       0.29736137      -0.32368708       0.17920661      -0.00118718      -0.00497303      -0.00512118
O        1.63306313       0.87542609      -1.39315934      -0.29275513       0.00529871       0.00657958      -0.00313532
N        0.71608591      -0.19586827       0.41377816      -0.09740537      -0.00030244      -0.00230450       0.00467389
C       -0.65695042      -0.15790972       0.13832972       0.04474039      -0.00238871       0.00242486      -0.00386550
C       -1.51350841      -0.74576473       1.07199258      -0.05104473      -0.00055401      -0.00302252      -0.00337066
C       -2.88065627      -0.74618932       0.86901519      -0.03594536       0.00035815       0.00059155       0.00321137
C       -3.41784144      -0.16060919      -0.26832887      -0.04585699      -0.00172164      -0.00017693       0.00379933
C       -2.56764982       0.42258997      -1.19563711      -0.03842445      -0.00136254       0.00135391      -0.00309109
H       -2.97464769       0.88217619      -2.08643053       0.04226588      -0.00327757      -0.00042372      -0.00018857
C       -1.19525438       0.43090271      -1.00667822      -0.04501777      -0.00383930      -0.00093113       0.00007600
H        5.18520038       0.30963416       0.16118563       0.04377225       0.00623718       0.00216208       0.00339818
H        4.16654034       1.00007413      -1.22810429       0.04200273      -0.00098030      -0.00303406       0.00249817
H        3.14094779      -0.46172897       1.25022020       0.04328658      -0.00249886      -0.00008706      -0.00290996
H        0.95572782      -0.65247662       1.27761621       0.13784748       0.00559846      -0.00020085       0.00114015
H       -1.10448305      -1.20726478       1.96303171       0.04274643      -0.00017330       0.00437739      -0.00149066
H       -3.52918507      -1.20567418       1.60297220       0.04353317       0.00007693      -0.00251251       0.00227438
H       -4.48708376      -0.15956122      -0.42787627       0.04312090       0.00113921      -0.00124489       0.00035391
H       -0.53635739       0.88296837      -1.72717385       0.03783738       0.00150733       0.00218687      -0.00104364
