26
Properties=species:S:1:pos:R:3:charge:R:1:forces:R:3 energy=-27440.25319350921 pbc="F F F"
O       -0.86226793       1.41825453       0.66813014      -0.34712765      -0.00362858      -0.00576315      -0.00148853
C       -1.01605631       0.21975164       0.99807183       0.09897897       0.00315334      -0.00211658       0.00664088
C       -2.08643511      -0.34584227       1.68046000      -0.20078006      -0.00483262      -0.00021167      -0.00533158
C       -3.25094791       0.43903005       2.04108576      -0.04561673       0.00218494      -0.00149794       0.00456664
N        0.01820733      -0.73197675       0.64279615      -0.11966357      -0.00015853      -0.00321715      -0.00558328
C        1.22843564      -0.53237193       0.07002866       0.03084771       0.00294178       0.00210449      -0.00366718
C        2.04832108      -1.65409730      -0.19824254      -0.07073420       0.00027805      -0.00306141       0.00164436
C        3.28805887      -1.52056350      -0.76551715      -0.04922836      -0.00116489      -0.00013887      -0.00211264
C        3.79337059      -0.25116497      -1.10392707      -0.04456531       0.00332440      -0.00135830       0.00382807
C        5.07227391      -0.11354175      -1.68089286       0.05319595      -0.00305327      -0.00027482      -0.00433063
N        6.13109838      -0.00793246      -2.15785016      -0.31822944      -0.00079030       0.00368148       0.00116141
C        2.97929470       0.86746797      -0.84403428      -0.04509281       0.00309058       0.00024840      -0.00538118
C        1.73586824       0.74266122      -0.27843782      -0.06157391       0.00499157       0.00483457       0.00002248
H       -2.13474704      -1.41903097       1.84094883       0.01615029       0.00209095       0.00465732       0.00046961
H       -3.72477436       0.14526782       2.97461686       0.02117436      -0.00135850      -0.00421354       0.00171893
H       -3.02411415       1.50110747       2.06195114       0.02537869       0.00048614      -0.00262483      -0.00055798
H       -0.19261390      -1.68557415       0.88749571       0.11913543      -0.00457516      -0.00064922       0.00238891
H        1.68508423      -2.64426132       0.04934696       0.02374301      -0.00294990      -0.00316895       0.00576325
H        3.89269759      -2.39598376      -0.96022803       0.02719943      -0.00177401       0.00154848       0.00343531
H        3.35064010       1.85093396      -1.10085001       0.02598731       0.00158791       0.00068897      -0.00045176
H        1.11245834       1.59700873      -0.08436998       0.02340315      -0.00153282       0.00459421      -0.00058788
S       -4.75525275       0.30329023       0.83979338      -0.16311578      -0.00129457       0.00381304      -0.00532128
C       -3.94395325       0.95292722      -0.64846563      -0.07785253       0.00050755       0.00257391       0.00004328
H       -3.03613351       0.39181381      -0.85576858       0.02925955      -0.00230149       0.00068698       0.00143338
H       -4.63695112       0.85614466      -1.48395292       0.02403626      -0.00022483      -0.00172098       0.00360354
H       -3.67652814       1.99997175      -0.52322805       0.02509018       0.00500278       0.00058552      -0.00190611
