26
Properties=species:S:1:pos:R:3:charge:R:1:forces:R:3 energy=-24946.782181037284 pbc="F F F"
C       -4.11779484      -0.07247531       1.21340681      -0.03796674       0.00149647      -0.00197638       0.00174533
C       -4.69613540       0.27252788       0.00061964      -0.04955368       0.00203840      -0.00050284      -0.00137260
C       -3.88751447       0.42331707      -1.11589203      -0.03942670       0.00644019      -0.00000815      -0.00389931
H       -4.32716125       0.69089651      -2.06749108       0.03952785      -0.00186094       0.00298431      -0.00255412
C       -2.51563607       0.23743019      -1.04303744      -0.04439721       0.00590542      -0.00346018       0.00560709
C       -1.93782946      -0.10901192       0.17781790       0.04696712       0.00289891      -0.00460613      -0.00075158
N       -0.56244653      -0.31968918       0.35100252      -0.09272282       0.00188787       0.00302245      -0.00287047
C        0.45972034      -0.22813816      -0.55917712       0.17703103       0.00104055       0.00221901      -0.00157411
O        0.30381236       0.06115012      -1.73484404      -0.28050274      -0.00304681      -0.00432226      -0.00429903
C        1.82787021      -0.52508823       0.04018979      -0.04193075       0.00026606       0.00317534      -0.00317910
C        2.90783648      -0.54890873      -1.02144706      -0.02877641      -0.00321767      -0.00357109       0.00378016
S        4.58831189      -0.87661454      -0.37963585      -0.09935032      -0.00270864      -0.00625222       0.00019327
C        4.97937374       0.74807067       0.33568052      -0.06853320      -0.00020552       0.00385546       0.00227693
C       -2.75136265      -0.26254418       1.30231597      -0.05197221       0.00344898       0.00214539       0.00178084
H       -4.73260346      -0.19485484       2.09497684       0.04098092      -0.00372587      -0.00096587       0.00592413
H       -5.76422617       0.42127273      -0.07151847       0.04068524      -0.00104960       0.00015810      -0.00113521
H       -1.89137974       0.35561742      -1.91193032       0.03624557      -0.00148380       0.00042062       0.00219104
H       -0.29544472      -0.56914581       1.28977119       0.14165549      -0.00027546      -0.00051676      -0.00126558
H        1.79697043      -1.47546276       0.57966322       0.04122864      -0.00341916      -0.00025389      -0.00560950
H        2.05072253       0.23248639       0.79677646       0.03909852      -0.00060927       0.00138915      -0.00670971
H        2.90393896       0.38355913      -1.58051178       0.03446349      -0.00781668      -0.00278262       0.00539336
H        2.71362300      -1.34562017      -1.73504012       0.04073598      -0.00224265       0.00205332       0.00258106
H        4.31104895       1.00413754       1.15418243       0.03781838       0.00120225       0.00024826       0.00927098
H        4.94848082       1.53077195      -0.41897872       0.03733648       0.00009376       0.00887540      -0.00296904
H        5.98982646       0.68250268       0.72810256       0.04120750       0.00898918      -0.00299783      -0.00185475
H       -2.30696740      -0.53289703       2.25321102       0.04015065      -0.00404626       0.00166942      -0.00069931
