30
Properties=species:S:1:pos:R:3:charge:R:1:forces:R:3 energy=-28061.921328655208 pbc="F F F"
C       -2.66549935      -1.04460076       0.40990788      -0.05533550      -0.00215675      -0.00053879       0.00364374
C       -1.28859187      -1.05089510       0.42349989      -0.05313940      -0.00053697      -0.00224934      -0.00280485
C       -0.55857980      -0.01923469      -0.17548867       0.03549553       0.00071093      -0.00001677      -0.00153547
N        0.84144674      -0.10591990      -0.12060416      -0.10028745       0.00366729       0.00243985       0.00402319
C        1.77617126       0.76634690      -0.58885694       0.17450698       0.00270551       0.00053488      -0.00949271
O        1.51661108       1.83985775      -1.11750130      -0.29402316       0.00199267       0.00294214       0.00275294
C        3.21737537       0.30118623      -0.39373087      -0.04182116       0.00020367      -0.00435512       0.00157947
C        3.63555488       0.07471698       1.05602431      -0.02398036       0.00065834      -0.00162414       0.00455715
S        3.01483829      -1.45001363       1.85821174      -0.05823281      -0.00091734      -0.00544566      -0.00049511
C        3.95108031      -2.70584751       0.93749774      -0.06277756      -0.00137699       0.00432431       0.00150494
C       -1.25111989       1.02095383      -0.78736261      -0.04722712      -0.00332963       0.00264760       0.00035595
C       -2.63907492       1.02706658      -0.79845017      -0.06412306      -0.00497841       0.00060487      -0.00148798
C       -3.35911214      -0.00040397      -0.20006592       0.06658161      -0.00264708      -0.00300510      -0.00129158
O       -4.72108567      -0.08179764      -0.15569520      -0.14648332      -0.00055345       0.00737155      -0.00654093
C       -5.45761773       0.98270291      -0.73209779       0.01769808       0.00076976       0.00212019      -0.00335612
H       -3.22951517      -1.84380343       0.86958094       0.04270127      -0.00206849       0.00244050       0.00513402
H       -0.76937682      -1.86964088       0.90837253       0.04273346       0.00115441      -0.00008909      -0.00175562
H        1.20545617      -0.89270865       0.40549227       0.11106326       0.00097404      -0.00485082       0.00226274
H        3.39325743      -0.60677910      -0.97178993       0.03785905       0.00036515      -0.00077895      -0.00119014
H        3.84188228       1.07966228      -0.82367716       0.04132235      -0.00627418      -0.00231082      -0.00170715
H        4.72093845       0.06038104       1.12939950       0.03917820       0.00035343      -0.00145996       0.00252830
H        3.28007639       0.89103845       1.67977503       0.03936936       0.00295718       0.00436892       0.00146341
H        3.69435502      -2.70460114      -0.11811006       0.03608072      -0.00144137      -0.00018119      -0.00121085
H        3.67666306      -3.66611600       1.36286519       0.04196008       0.00096456       0.00249473      -0.00179444
H        5.02134670      -2.56042760       1.05650824       0.03671747       0.00283928       0.00084462      -0.00115202
H       -0.70710364       1.82659241      -1.25045693       0.03693377      -0.00113442       0.00158316      -0.00206140
H       -3.14200326       1.84901138      -1.28511424       0.03995249       0.00070958       0.00459157       0.00525197
H       -5.24082709       1.93356733      -0.23956278       0.03392532       0.00061030      -0.00604370      -0.00509939
H       -6.50568710       0.73905429      -0.58829770       0.03939769       0.00865389      -0.00234905       0.00151054
H       -5.25713799       1.07814102      -1.80180487       0.03395427      -0.00287595      -0.00401048       0.00640729
