24
Properties=species:S:1:pos:R:3:charge:R:1:forces:R:3 energy=-16125.238945803549 pbc="F F F"
O       -2.56993031      -0.25233819      -2.17483605      -0.30556214      -0.00329497       0.00320357      -0.00140088
C       -2.76898597       0.11897344      -1.02463619       0.17281416       0.00187304       0.00238682       0.00038830
C       -4.14972669       0.44404606      -0.57029768      -0.03185003       0.00095144      -0.00914540      -0.00029261
C       -4.60994519       0.37847464       0.67349730      -0.06174500       0.00190453       0.00579248      -0.00008930
N       -1.78639375       0.28128038      -0.08555423      -0.09886020       0.00142281       0.00144608      -0.00040921
C       -0.40682947       0.04460789      -0.19965836       0.04100175      -0.00062946      -0.00059965       0.00083723
C        0.18732900      -0.59047699      -1.29416305      -0.04292268      -0.00159739       0.00278248      -0.00190286
C        1.55143921      -0.80274153      -1.31161062      -0.05240997      -0.00271765      -0.00167019       0.00197345
C        2.36126287      -0.39417777      -0.25496570       0.07141307      -0.00137261       0.00873314      -0.00390408
O        3.69425196      -0.65322235      -0.38206987      -0.14271973      -0.00157135      -0.00690848      -0.00463914
C        4.54451902      -0.25434114       0.67780778       0.02002250       0.00141830      -0.00037217      -0.00408228
C        1.77468414       0.24020709       0.83616526      -0.05992900      -0.00264448       0.00192270       0.00147709
C        0.40531954       0.45213767       0.85409718      -0.05060282      -0.00167798       0.00465254      -0.00036450
H       -4.81180694       0.69399637      -1.38966062       0.04128926       0.00085316      -0.00076694       0.00201227
H       -3.99987469       0.05362972       1.50795205       0.03952143      -0.00020384      -0.00421795      -0.00122790
H       -5.64048908       0.60962262       0.90515003       0.04402082      -0.00109862       0.00184778      -0.00235880
H       -2.06326861       0.74726112       0.76136484       0.13437490       0.00181149      -0.00177584       0.00126722
H       -0.41981529      -0.90636790      -2.12539159       0.03931540       0.00325100      -0.00462948      -0.00155277
H        2.01305432      -1.29297642      -2.15774788       0.04391649       0.00656201       0.00026276       0.00619050
H        4.51949317       0.82714878       0.82906624       0.03544853      -0.00340345       0.00263423       0.00066942
H        5.54778272      -0.54725362       0.38637164       0.04140408       0.00225748      -0.00725000      -0.00258288
H        4.28333768      -0.75460724       1.61318508       0.03546782       0.00301069       0.00090890      -0.00075841
H        2.36494339       0.57520272       1.67510601       0.04299627      -0.00533714       0.00151758       0.00548126
H       -0.03317855       0.94868754       1.71133208       0.04359507       0.00023249      -0.00075496       0.00526888
