20
Properties=species:S:1:pos:R:3:charge:R:1:forces:R:3 energy=-13010.241812246339 pbc="F F F"
C        3.71745514       0.42121621       0.43510751      -0.05847403      -0.00096580       0.00017722      -0.00024586
C        3.15452439      -0.71615903       0.04380173      -0.02954448      -0.00279179      -0.00014742       0.00210512
C        1.73358369      -0.91252625      -0.35149636       0.17554323      -0.00286157       0.00239605      -0.00316634
O        1.43088069      -1.80338847      -1.13409154      -0.29870600      -0.00236315      -0.00335576       0.00098196
N        0.83181758      -0.05409880       0.22517890      -0.09919906      -0.00209248       0.00116193       0.00229152
C       -0.55422952       0.02740418       0.03581749       0.04393993      -0.00151247      -0.00437891      -0.00165340
C       -1.25822706       0.90071196       0.86727497      -0.04982724       0.00168047      -0.00561862       0.00054923
C       -2.62573493       1.05251546       0.73210492      -0.03523677       0.00279750       0.00020603       0.00343024
C       -3.31503896       0.33644396      -0.23591778      -0.04460244      -0.00154156       0.00562554       0.00249971
H       -4.38404773       0.45462343      -0.34401990       0.04363805      -0.00303054      -0.00154337       0.00019137
C       -2.61585438      -0.53071463      -1.06152103      -0.03811595      -0.00169045       0.00292666       0.00260470
C       -1.24524719      -0.69493386      -0.93745196      -0.04339467      -0.00084780      -0.00152661      -0.00357407
H        3.17348767       1.35607727       0.49309862       0.04103501      -0.00205606       0.00213156      -0.00325427
H        4.77054689       0.47411256       0.67499394       0.04578840      -0.00017664      -0.00406147       0.00446374
H        3.74982910      -1.61155645      -0.08039436       0.04300334       0.00561097       0.00276227      -0.00082098
H        1.18362005       0.52095377       0.97132852       0.13511853       0.00316587       0.00320552      -0.00265620
H       -0.72802101       1.46416598       1.62585865       0.04333663      -0.00339020       0.00027248      -0.00180228
H       -3.15447048       1.73301000       1.38632856       0.04405366       0.00130490       0.00128673      -0.00066922
H       -3.14258289      -1.09541827      -1.81953926       0.04275156       0.00643350       0.00147208       0.00122482
H       -0.71119313      -1.37558434      -1.57720833       0.03889231       0.00432738      -0.00299233      -0.00249993
