23
Properties=species:S:1:pos:R:3:charge:R:1:forces:R:3 12_adduct=T (SP=-840.97680582478,U=-840.77806462,H=-840.77712041,G=-840.82767362) energy=-22884.549175898137 pbc="F F F"
C        1.44420321      -1.37040871       0.06018083      -0.05844806       0.00175701      -0.00499577       0.00044873
H        0.49922157      -1.87026850      -0.12427449       0.03214060      -0.00223000      -0.00175720       0.00031995
H        1.63748710      -1.33614094       1.12827766       0.04499592       0.00457076       0.00514282       0.00033501
S        1.43341532       0.26918719      -0.67350600      -0.07012540      -0.00124652      -0.00544300      -0.00020206
C       -0.08729820       2.46543036      -0.10942596      -0.00754318      -0.00142018       0.00241347       0.00079228
H       -0.28214839       2.52986593      -1.17952490       0.04460719       0.00216650       0.00560677      -0.00172830
C        0.08673669       0.99808379       0.30374944      -0.00026005       0.00342146      -0.00158408      -0.00320052
H        0.38260347       0.96419837       1.35083022       0.04250786       0.00336106      -0.00228132      -0.00191320
C       -1.21314235       0.24431210       0.15005895       0.00442645      -0.00005971       0.00037477       0.00205631
C       -1.89380798      -0.18422585       1.28326471      -0.03380653      -0.00228133      -0.00172434       0.00329744
C       -1.74163267      -0.04307091      -1.10647745      -0.03821026       0.00053496      -0.00064158       0.00031529
C       -3.09424878      -0.87488241       1.16594539      -0.03209721      -0.00071287      -0.00324855      -0.00255896
H       -1.47996727       0.01729691       2.26275306       0.04392553       0.00068384       0.00096678       0.00474427
C       -2.93769920      -0.73345999      -1.22519338      -0.03012716      -0.00349134       0.00329227       0.00098570
H       -1.19933413       0.26393918      -1.98991162       0.03643007       0.00253385       0.00194212      -0.00257662
C       -3.61823928      -1.15106095      -0.08799321      -0.03469240      -0.00295453      -0.00165602       0.00094796
H       -3.61686392      -1.19779224       2.05525733       0.04911916       0.00078492       0.00300313      -0.00260914
H       -3.33892708      -0.94715102      -2.20569419       0.04944259       0.00705097       0.00216258       0.00284673
H       -4.54894410      -1.68894266      -0.18100641       0.04772433      -0.00572007       0.00136051      -0.00165254
H       -0.94618090       2.88909887       0.41039417       0.05210657      -0.00656059      -0.00518874       0.00209650
C        1.08682915       3.28195090       0.20131909       0.08209254      -0.00130534      -0.00057835      -0.00009534
N        1.99928427       3.92454304       0.46459596      -0.27245140      -0.00117678       0.00522692      -0.00240912
H        2.23878360      -1.92814492      -0.42682149       0.04824281       0.00229392      -0.00239295      -0.00023999
