28
Properties=species:S:1:pos:R:3:charge:R:1:forces:R:3 1_TS=T (SP=-1068.465910644519,U=-1068.23450852,H=-1068.23356431,G=-1068.29430598) energy=-29074.751611500305 pbc="F F F"
C        4.14993123      -0.86783258       0.51397085      -0.05257507      -0.00085678      -0.00140562       0.00118027
C        3.54303908      -1.00607655      -0.72852214      -0.04397587      -0.00246914       0.00067098       0.00153544
C        2.26208282      -0.52259607      -0.94122914      -0.03721540      -0.00089959      -0.00026553      -0.00072217
C        1.56045470       0.11627250       0.08344208       0.00969316       0.00067719      -0.00185895      -0.00040584
C        2.17653815       0.23978319       1.32437069      -0.03772962       0.00166892      -0.00089700      -0.00143189
C        3.46118534      -0.24440014       1.54124103      -0.05228769      -0.00057927      -0.00261093       0.00165185
C        0.16334939       0.66614082      -0.11885260       0.00356472       0.00226741       0.00005210       0.00157984
C       -0.89410946      -0.38417822      -0.28913113      -0.14486122       0.00218381       0.00015497       0.00063377
C       -0.76258298      -1.32425406      -1.32324627       0.02635607       0.00200832       0.00489365      -0.00290322
N       -0.60639420      -2.08183588      -2.18674527      -0.36014140      -0.00577741      -0.00345018       0.00203322
C       -2.02768170      -0.32192903       0.52681841       0.15505140      -0.00059636      -0.00252538      -0.00180306
O       -2.27363416       0.53238781       1.38348123      -0.36867046      -0.00252326      -0.00014222       0.00143902
O       -2.93844696      -1.34489785       0.30018755      -0.17080308      -0.00291791      -0.00280503      -0.00049922
C       -4.08611212      -1.30488596       1.12615817       0.01176726       0.00184011       0.00197866       0.00280148
S        0.19051500       1.91430720      -1.50612014      -0.15570651      -0.00056675      -0.00341119      -0.00346571
C       -1.55591616       2.33174626      -1.52459684      -0.07844739       0.00367544      -0.00104908      -0.00154431
H       -0.11691449       1.25330732       0.74941631       0.02760493      -0.00248710      -0.00285684       0.00084228
H       -1.67581733       3.30992071      -1.98575780       0.01854844      -0.00049077      -0.00047646       0.00342311
H       -1.93516815       2.34437287      -0.50833897       0.03061294      -0.00225384       0.00489165       0.00213710
H       -2.12014457       1.59994557      -2.09328185       0.03330097       0.00307893       0.00091048      -0.00096941
H       -3.82130565      -1.40372011       2.17799420       0.02347394       0.00203456       0.00080616       0.00171943
H       -4.62357220      -0.36581779       1.00795096       0.02355418      -0.00523883      -0.00282536      -0.00551233
H       -4.71889878      -2.13473871       0.82549126       0.02205173       0.00483853       0.00314035       0.00005404
H        1.62785129       0.71666306       2.12722605       0.03445588       0.00205138       0.00278375      -0.00481163
H        3.92271668      -0.13679993       2.51413180       0.02120766       0.00122699      -0.00048579       0.00221537
H        5.14841761      -1.24746414       0.67690074       0.01986802       0.00313327       0.00206237      -0.00006305
H        4.06642152      -1.49587750      -1.53845996       0.02396180      -0.00081974       0.00546035       0.00040817
H        1.78510947      -0.64604099      -1.90170276       0.01733156      -0.00220818      -0.00074022       0.00047757
