34
Properties=species:S:1:pos:R:3:charge:R:1:forces:R:3 28_adduct=T (SP=-938.842670639807,U=-938.51666358,H=-938.51571937,G=-938.57495332) energy=-25546.801672756883 pbc="F F F"
N       -3.08112823       0.13264305       0.02590743      -0.15484706       0.00388817      -0.00446706       0.00225934
C       -2.26716330       0.43831513       1.05514577       0.17036688      -0.00025105      -0.00111634      -0.00282473
C       -1.69980318      -0.68008453       1.85862219      -0.04937398      -0.00137423       0.00150881      -0.00049130
H       -2.09205112      -0.63951329       2.87860301       0.03829965       0.00036246       0.00305759       0.00101230
C       -0.17181076      -0.47351599       1.85417719      -0.03358753       0.00258918       0.00057746      -0.00041548
O       -1.94578741       1.63555952       1.30133908      -0.40070355      -0.00363629      -0.00219843      -0.00149565
S        0.66205271      -1.48250655       0.58499239      -0.24639314      -0.00124529      -0.00035454      -0.00072243
C        0.67734703      -0.16271907      -0.67268924      -0.09773347       0.00140241       0.00086439      -0.00016003
H       -1.96890569      -1.65497200       1.44943620       0.02700785      -0.00024756       0.00026849       0.00230993
H        0.00711883       0.55776775       1.51373838       0.01209853      -0.00008389      -0.00074533      -0.00254180
C        0.45001832      -0.61243842       3.23118425       0.02908473       0.00083444      -0.00047486       0.00000445
H       -0.30330518       0.28782253      -0.77962048       0.02672405       0.00167169      -0.00423633       0.00142986
H        1.39276061       0.60117772      -0.38518645       0.02626206       0.00070799       0.00133660       0.00450450
H        0.97599284      -0.59362497      -1.62594605       0.02319605      -0.00363900       0.00065470      -0.00142960
C       -3.56295634       1.14079711      -0.89733668      -0.03248054       0.00144812       0.00075992       0.00369474
H       -3.11444459      -0.82706870      -0.27025758       0.11682920       0.00045674      -0.00065168      -0.00156326
H        1.47184722      -0.98787648       3.17225700       0.03022993       0.00045797      -0.00091771       0.00266070
H       -0.14132613      -1.24502437       3.89183078       0.04216007      -0.00086045       0.00353693       0.00096410
N        0.55325721       0.72232255       3.94270066       0.09926742       0.00123914       0.00095295      -0.00140492
C        1.30516587       1.66927723       3.10900653      -0.01211166       0.00061879      -0.00005853      -0.00459174
C        1.27172969       0.51266003       5.20111460      -0.00515772      -0.00156830      -0.00004630       0.00054898
H        0.73244953      -0.20748459       5.81089781       0.03990927      -0.00444313      -0.00301008      -0.00305167
H        1.34677264       1.45785369       5.73108657       0.04118127      -0.00061477      -0.00003570       0.00402819
H        2.26467939       0.12843554       4.98595110       0.04049041      -0.00103089      -0.00044719       0.00224816
H        0.69928172       1.94093562       2.26007510       0.03076385      -0.00373874       0.00067667       0.00155996
H        2.22360696       1.20226206       2.77082973       0.03722242       0.00249678       0.00277130      -0.00053038
H        1.52031232       2.55731085       3.69270877       0.04001176       0.00052515      -0.00144393      -0.00666098
H       -2.77931800       1.49319475      -1.56865842       0.02577749       0.00218524       0.00498995      -0.00059050
H       -4.37547994       0.71967336      -1.48617113       0.02987819      -0.00091904       0.00125191      -0.00439680
H       -3.93395047       1.98744176      -0.33086157       0.02024322      -0.00396093      -0.00156289       0.00362053
C       -0.77703752       1.30240124       4.22040097      -0.01247031       0.00159507       0.00089622      -0.00043859
H       -1.29538825       1.49469519       3.28754622       0.02028685       0.00074107      -0.00215431      -0.00001134
H       -1.33675999       0.59050398       4.82601739       0.03937290       0.00241364       0.00104574      -0.00103452
H       -0.63873459       2.22885461       4.77380512       0.03819513       0.00197983      -0.00122871       0.00351104
