31
Properties=species:S:1:pos:R:3:charge:R:1:forces:R:3 5_carbanion=T (SP=-1087.745626796115,U=-1087.48633884,H=-1087.48539463,G=-1087.54576856) energy=-29598.009048930602 pbc="F F F"
C        2.22708800       1.82564937       0.07897394      -0.08023411      -0.00139498       0.00061462       0.00041670
H        2.88071741       0.96445406       0.17410588       0.02379980       0.00133904       0.00631792      -0.00009099
H        1.97583584       2.18785067       1.07319119       0.02584300       0.00227944       0.00407203       0.00041825
S        0.76760150       1.38741583      -0.88007050      -0.16257629      -0.00437880      -0.00405364      -0.00141114
C       -1.14845492      -0.58192371      -0.32951045      -0.09956096       0.00027868      -0.00036480      -0.00182360
C        0.13431671      -0.02492629       0.18848497      -0.00096021       0.00059923      -0.00256219      -0.00282536
H       -0.02444672       0.44744119       1.15650757       0.03125790      -0.00566512      -0.00125609      -0.00577650
C        1.21405432      -1.06955293       0.37798059       0.01576767      -0.00000035      -0.00557651       0.00077966
C        1.63798432      -1.38992266       1.66228041      -0.03492585       0.00022130      -0.00086897      -0.00009947
C        1.83622662      -1.69396468      -0.70351408      -0.03405310       0.00596538       0.00091159      -0.00118227
C        2.68164171      -2.28604485       1.87150483      -0.05391509       0.00072982      -0.00072739       0.00212652
H        1.13488758      -0.92395976       2.50138765       0.02781410       0.00346973      -0.00666363      -0.00056143
C        2.88333362      -2.57693324      -0.49769328      -0.04508945       0.00284995      -0.00318997       0.00377846
H        1.47567740      -1.48741717      -1.70041338       0.01849850      -0.00417835      -0.00604073      -0.00287443
C        3.31309059      -2.87765997       0.79070257      -0.06003760      -0.00014320       0.00149196       0.00601686
H        2.99678267      -2.52031120       2.87978227       0.02290331       0.00180655       0.00454141      -0.00035403
H        3.36459397      -3.03668815      -1.35084635       0.02624424       0.00420739       0.00323416       0.00050240
H        4.12948587      -3.56826696       0.94581924       0.02168372      -0.00330882      -0.00373311      -0.00230102
C       -1.09830533      -1.62082259      -1.27061792       0.03662976       0.00388762      -0.00120931      -0.00170335
N       -1.07847952      -2.48105306      -2.04887856      -0.34396487       0.00140992       0.00669936       0.00535880
C       -2.42579578      -0.07928539       0.01802418      -0.01583252       0.00119335       0.00259105      -0.00350685
C       -3.62466593      -0.73964255      -0.36518318      -0.05290835      -0.00015596       0.00098218       0.00091568
C       -2.63246052       1.10990736       0.76348989      -0.06914245       0.00155508      -0.00185663       0.00136989
C       -4.84294497      -0.23438149       0.01670113      -0.00822256      -0.00233721      -0.00087199       0.00147675
H       -3.56956154      -1.64340892      -0.95580615       0.02628418      -0.00382232       0.00883069      -0.00195499
C       -3.91051653       1.51602960       1.07967241      -0.00449353      -0.00001353      -0.00159831       0.00182401
H       -1.80346473       1.73469082       1.06503446       0.03082230      -0.00054764       0.00294731      -0.00559847
N       -5.03534022       0.88121008       0.73856649      -0.27886543       0.00209339      -0.00137334      -0.00108436
H       -5.74989126      -0.75505255      -0.27192514       0.00990370      -0.00494172       0.00197196       0.00257955
H       -4.04535879       2.42997954       1.65098456       0.00997231      -0.00142240      -0.00226167       0.00358256
H        2.76008571       2.60721492      -0.45548355       0.01735028      -0.00157566      -0.00099789       0.00200268
