63
 
C           -3.68385775616970       -2.63432285909829       -1.51920743748675
C           -2.34350633387075       -2.31215751782288       -1.50020204054439
N           -1.86523023252461       -1.20370840888255       -0.95512191196361
C           -2.76572723304525       -0.38047913272820       -0.40806618465461
N           -2.38807885824154        0.78076097865316        0.16644858039787
C           -1.14633772096870        1.40303694479454        0.29158264573433
C            0.04568611636405        0.83884315580328       -0.12105238173163
C            1.26188129982606        1.52168260420848        0.03328881559769
N            2.41573242139840        0.91245796330047       -0.37488765395631
C            3.76438296157716        1.38658864532566       -0.33779881256537
C            4.69249068130665        0.40077510742524       -0.64848946843095
C            6.11892163057979        0.72450287729571       -0.70539332107316
C            7.04984031022970        0.07600901686248        0.33154091031202
N            6.82877512023608       -1.35216521625247        0.52821453510861
C            5.79710921104483       -1.59444619437859        1.51432936739227
C            8.04534187708262       -2.05310253098894        0.87457584694918
O            4.01238794199390        2.55823352824454       -0.01294207861148
C            1.24154113866491        2.79188030318697        0.61272377238467
C            0.05039069830405        3.35503401793554        1.03157151780699
C           -1.14736181733917        2.67932450734394        0.88373558229188
O           -2.39581497989905        3.16512112498788        1.27923172323655
C           -2.43368042175081        4.42813948188645        1.87855320135286
N           -4.08733081127609       -0.59784607350511       -0.36150214015955
C           -4.55741058539450       -1.71596734419058       -0.91200518421647
C           -5.98142349281369       -1.93191423016986       -0.85580743907066
C           -6.94331716237805       -1.10323700096510       -0.24429233739676
C           -6.91009350098049        0.09868837574276        0.46484255144770
C           -8.09082252890857        0.63009756116954        0.93369088757228
C           -9.30564067551753       -0.03511854774915        0.69530195068669
C           -9.32707199838198       -1.20987239579722        0.00046496132685
N           -8.15836158340931       -1.72757534398054       -0.45682439750649
N           -8.03310632338740       -2.85850676020849       -1.14130076612647
C           -6.73584420759679       -2.99061541025739       -1.38439533530787
H           -4.04236545193795       -3.54337451584803       -1.97210561777130
H           -1.59869290680962       -2.96608257868201       -1.94047084150134
H           -3.15532553924260        1.32857303128457        0.53251763676959
H            0.02221369935535       -0.14078205241296       -0.56968609418256
H            2.30073477058384       -0.01902051531338       -0.74658225614297
H            4.36932558341516       -0.59535324573894       -0.90826374261376
H            6.22361055847974        1.80978118505634       -0.60947030390304
H            6.92469884853991        0.62078077690063        1.28326135935400
H            8.07936865460076        0.22702489897751       -0.00519062693980
H            4.92371432838768       -0.99825124168174        1.25755167358910
H            6.12178882025355       -1.32243333779609        2.53352189117541
H            5.52956589939005       -2.65244451036156        1.50489031168445
H            7.82757544014641       -3.11926813656232        0.95968049442949
H            8.78390261069536       -1.91226948718247        0.08574388300010
H            8.48146197928673       -1.71343347067288        1.83045440525480
H            2.17296149587587        3.32139471130501        0.72118996234049
H            0.07613347790922        4.33764640846457        1.47798452090764
H           -3.48251254239585        4.61739696324307        2.11014358415659
H           -1.84965678294581        4.45537966290792        2.80607496341631
H           -2.06773327941535        5.21001866358164        1.20294087834402
H           -5.95301042159390        0.56686567885386        0.61839329118135
H           -8.09130538958306        1.55742788781803        1.48509995216720
H          -10.23194999971072        0.38004539448276        1.06099688872855
H          -10.21764842809078       -1.77501860684092       -0.22056895727012
H           -6.39359410100532       -3.84500455870839       -1.93519603514115
S            6.87026697322767        0.41091511326244       -2.40533462575607
C            6.39942999127200       -1.32794444834743       -2.64670377466237
H            6.52724433551803       -1.84623646372928       -1.70177842394238
H            5.36721125931452       -1.37983120736240       -2.98283035361433
H            7.05812293175142       -1.73664322611277       -3.40721008440551