64
 
C            4.38703697145406       -2.90690361615879        0.51948040735349
N            3.33064219232739       -3.54568583001983        0.05897660211751
C            2.26152704924686       -2.79380616894708       -0.25202864203615
N            1.21575421232945       -3.49485765386754       -0.74605037385731
C           -0.01159804009465       -3.06107024760558       -1.23048509767254
C           -0.51378925842758       -1.79081936219652       -1.01399690145426
C           -1.75739524595583       -1.41696144942667       -1.52385935523576
N           -2.19236369965058       -0.11995266672714       -1.24105195408370
C           -3.30610422085487        0.51009187777891       -1.68000416938493
O           -4.10982971479428        0.06334506100564       -2.47099099817286
C           -3.45752570493934        1.91270954386992       -1.08610831122711
C           -3.76464745777252        1.89829334603992        0.41438498471167
S           -5.00798970448536        3.18015876093931        0.85160298620108
C           -4.17519681664028        4.71579627104169        0.35429960366285
C           -2.54275084392948        2.07671276314685        1.31769680103311
N           -1.60970765685294        0.95861376962267        1.26338165803414
C           -2.09808219031322       -0.19737664180241        1.99622629653242
C           -0.29465746715162        1.34370313212178        1.74195022715486
C           -2.49576619652985       -2.33036332400883       -2.26161463471185
C           -2.00453882692561       -3.61088707582345       -2.46971899764888
C           -0.77752804677188       -3.99443835822350       -1.96052544673036
O           -0.21180553092607       -5.24009518716105       -2.10745947783792
C           -0.93665761399572       -6.21779067299156       -2.81016407434225
N            2.18393113639435       -1.47372255634850       -0.10794903404867
C            3.26023903861904       -0.83639248991031        0.34997534990141
C            3.14261428904651        0.60547748909287        0.43526186903751
C            2.30603011631133        1.39892143703875       -0.36070950106030
N            2.41634824398608        2.68721229577007       -0.07529362840726
N            3.30509214483044        2.76601859421222        0.90537514928892
C            3.70169371938424        3.91047264752523        1.50109569749177
C            4.60910297697179        3.85893959089086        2.51396235301831
C            5.11710133719083        2.61474307148933        2.94245208571672
C            4.71451092029414        1.45990500618094        2.33243569177179
C            3.79764947066091        1.52311399728566        1.27240813066505
C            4.42518413908517       -1.53150469177987        0.68426919273142
H            5.24220100777382       -3.52797815710918        0.75739672721787
H            1.40570586435736       -4.47839886042281       -0.88977318521075
H            0.08080511983203       -1.08809942958708       -0.45552786612468
H           -1.66829757409468        0.35426620748645       -0.49814527948654
H           -2.54742463388346        2.48425332529083       -1.28034404069751
H           -4.28924435626134        2.37721338480053       -1.61986986425236
H           -4.29947520637076        0.98114868219638        0.67208106131621
H           -3.84308660898136        4.63813769472819       -0.67574723718806
H           -3.34334672207124        4.92675017029876        1.01949761604260
H           -4.92113698512241        5.49873466678698        0.44234873573744
H           -2.89482570321415        2.24914674118987        2.34874948924574
H           -2.00222080832053        2.97010862060711        0.99299939949896
H           -3.05022304750678       -0.52340883823916        1.58402280216748
H           -2.23219477927974        0.01823646625072        3.06567377495493
H           -1.38422180629322       -1.01216461819601        1.88790942441424
H            0.08631732468024        2.16612649288345        1.13783657367476
H           -0.30428883914611        1.65370337501110        2.79723432680523
H            0.38134105938341        0.49599585817498        1.63629067339490
H           -3.44995496302707       -2.04573438868780       -2.67037006501221
H           -2.60221230798947       -4.30310285127889       -3.04058437267215
H           -1.11491994670927       -5.91833081202919       -3.84785692256347
H           -0.31481590715931       -7.11190879536132       -2.79577070423200
H           -1.89381810582608       -6.43446813107852       -2.32484127186631
H            1.64624327674347        1.06594090793388       -1.13656731904659
H            3.25766065593508        4.81824944442872        1.12527462763700
H            4.93175002075075        4.76842696185595        2.99263427971129
H            5.82312432754091        2.58411965263884        3.75699562082667
H            5.07859424859329        0.49875303320510        2.65700201129991
H            5.31544167429934       -1.02731746538708        1.01788893268607