26
 
C           -3.07178620245044        1.72575072552347        0.90768258132879
C           -1.82645448957326        1.13207452574766        0.84621377224505
C           -1.48147321401036        0.33257703156150       -0.24244071113050
N           -0.20720643627499       -0.24290997317387       -0.23879684074933
C            0.41122983045518       -0.95437833706378       -1.21418695092895
O           -0.07959623685364       -1.27068123887802       -2.27531424292429
C            1.83717694809996       -1.36065670295914       -0.83992061353786
C            2.74080380998421       -0.17921237103126       -0.49889328665411
S            2.54578137637215        0.45160393990362        1.20690665081647
C            3.45380292876198       -0.82869229860947        2.11730029878125
C           -2.40189943735098        0.13549145990442       -1.26687331366056
C           -3.64569571591562        0.73658909430729       -1.19440514660875
C           -3.98766742493288        1.53052354078165       -0.11331172880755
H           -4.96087996685620        1.99528650874020       -0.06493585488251
H           -3.32751491460473        2.34381394665933        1.75577041042003
H           -1.10875263515670        1.28781187477123        1.64001573220486
H            0.35419809636349       -0.00621655126111        0.57427167831311
H            2.25138627642128       -1.88782258588753       -1.70160483994371
H            1.79429851836049       -2.06403191706287       -0.00447311694880
H            3.79097041774647       -0.45083722773635       -0.60881426064238
H            2.52870117673755        0.67042888503912       -1.14722003786644
H            2.99036547400430       -1.79897969096451        1.96389812654420
H            3.40394468858962       -0.55800600461169        3.16644708548243
H            4.48803700559807       -0.83994863348448        1.78439039796309
H           -2.13763265603021       -0.47968714830106       -2.11024263815150
H           -4.35413721746497        0.58010914808019       -1.99440666490875