29
 
C           -3.41567305274773       -1.40112831459227        1.35561857892918
C           -4.08983321563909       -0.72255644287640        0.35473911963734
C           -3.38220344189064       -0.04889606187441       -0.62469989083570
C           -1.99299217774284       -0.05194299161566       -0.62050674053776
C           -1.23547229081549        0.66509474453865       -1.70660499130443
N            0.01158959878933        1.23918437468767       -1.25314406430340
C            1.19533384566155        0.92798793076140       -1.81808829004798
O            1.30528198738648        0.16623266309896       -2.75620072348498
C            2.40253570406604        1.61245029579405       -1.18590947145745
C            3.10072172957919        0.65424601609440       -0.22926591845253
S            2.10998160760331        0.42191006285565        1.29313914444975
C            2.99866128294805       -0.99806114118316        1.98327559842810
C           -1.32388984947892       -0.73917332062083        0.38359305905915
C           -2.03143746022755       -1.40595173336413        1.36775687234655
H           -3.96783943078592       -1.92364078711954        2.12281991205061
H           -5.16994638022094       -0.71431672928183        0.33874439864093
H           -3.91237216742220        0.48216208170575       -1.40275724735711
H           -0.96959246945534       -0.03704410063342       -2.50571214384687
H           -1.86522106139881        1.45244216216858       -2.13887015696301
H           -0.01405530792012        1.79924292545777       -0.41588392507931
H            2.11159687151438        2.52250381370748       -0.65976869480049
H            3.09623663738473        1.86718034799388       -1.98936424728003
H            3.22463877412207       -0.32287714861266       -0.69899859992420
H            4.07487392590250        1.04463163154989        0.07197871829886
H            2.93638227527666       -1.83342115974066        1.29116313468373
H            2.51142861618897       -1.25150399469891        2.91854360951829
H            4.03502188360439       -0.72556170110478        2.16435470685663
H           -0.24484851056528       -0.74677385474793        0.39721837779734
H           -1.49890792369947       -1.93241956834887        2.14615744104694