29
 
C           -4.51470009988129       -0.57575900165330       -0.48372788498882
C           -3.46964064537339       -1.29788723250495       -1.03422566548518
C           -2.16437503666496       -0.86532837886284       -0.88728547286593
C           -1.89443430963883        0.29654946561926       -0.17404805055289
N           -0.56035143629865        0.75633119244284       -0.02545564549296
C            0.41391249112628       -0.10819761008695        0.38311607807608
O            0.20187932034246       -1.28360591269198        0.59640795245654
C            1.79627463933520        0.50513046184599        0.55770631103733
C            2.76291807215980       -0.52607829421456        1.11806830378872
S            4.43768991374610        0.15036842338215        1.34382796953088
C            5.02409512029693        0.12566303668456       -0.37548903574500
C           -0.31898776288986        2.17069190839110       -0.21386371510901
C           -2.94444780002798        1.01740438753413        0.38522606988715
C           -4.24734187297798        0.58223709265128        0.22554772194731
H           -5.53260946743026       -0.91469438663624       -0.60407608485051
H           -3.67021849885371       -2.20251971189530       -1.58849012201458
H           -1.35214157561755       -1.42959384410978       -1.31488729647812
H            1.74532972912458        1.36059139450104        1.23406314292175
H            2.14942007732073        0.86000674784184       -0.41427663883223
H            2.43906172680986       -0.85180152631146        2.10523945747800
H            2.82913226881275       -1.39907826132953        0.46992615077598
H            4.48025568733755        0.85371931154070       -0.97080717491282
H            4.90071544491919       -0.87386336103226       -0.78269609094041
H            6.07591352940398        0.38855302801766       -0.34834575315444
H           -1.19230857683236        2.61355174294580       -0.68879253122340
H           -0.13394480445864        2.68547231715180        0.73327136551177
H            0.53838439363926        2.32910890531580       -0.86946356261213
H           -2.74430819248896        1.91082558026452        0.95850250938995
H           -5.05517233494108        1.14883092244338        0.66502769245676