20
 
C            3.62768782319349        0.20526075937144        0.96884365449154
C            3.19220899969538       -0.19855080630720       -0.21418513842595
C            1.78614534544476       -0.56512943380542       -0.54114623826923
O            1.53542391059461       -1.44396886493643       -1.33955372206557
N            0.85288500003233        0.17215670709524        0.12855942593246
C           -0.54134399951569        0.08889903560066        0.07747770455970
C           -1.21472398954687       -0.87885967692154       -0.66241189672074
C           -2.59740219793105       -0.90302164446298       -0.66151376403899
C           -3.32251635515619        0.02374646447519        0.06794442536199
H           -4.40175914639936       -0.00255594732656        0.06319481227080
C           -2.65389104131097        0.98673805110114        0.80536225819293
C           -1.27315343991733        1.02127818773440        0.81177874288976
H            2.97702290593691        0.33471956609374        1.81975751029083
H            4.67233415344021        0.39869632712504        1.14766876945327
H            3.88173109581469       -0.38041801543289       -1.02658524608262
H            1.20632588758500        0.90744856862954        0.72505348414027
H           -0.65245116660219       -1.59924162568753       -1.23188673572939
H           -3.11177988894053       -1.65707149490000       -1.23846738144349
H           -3.20928146022478        1.71486348186441        1.37816383620046
H           -0.75346243619222        1.77501036068985        1.38836606981465