24
 
O            0.15495102406667       -1.53939349193215       -0.37496793153095
C            0.69318380263734       -0.44752787803549       -0.61889797524576
C            1.97419257088598       -0.20371630513004       -1.08048719526849
C            2.93464019579597       -1.26499228783774       -1.26068261228765
N           -0.08021271145339        0.77049008225338       -0.48050562003521
C           -1.37506376529564        0.95304407102261       -0.15199434717736
N           -1.79261741162933        2.23314457846040       -0.16439305275647
C           -3.05055259005756        2.48363363774833        0.15278563842076
C           -3.97556657615315        1.51873874162651        0.49851084530993
C           -3.54420214818600        0.19069586866651        0.51300844190036
C           -2.24463870804242       -0.10421831009800        0.19032155009778
H            2.30713561271311        0.81385538192637       -1.23793907259952
H            3.60258737863692       -1.14981494186469       -2.11264179708472
H            2.46608732492669       -2.24588085782088       -1.24695804693258
H            0.40952265919442        1.62591912889304       -0.70378736625393
H           -3.32741411450244        3.53414204139082        0.12459582244371
H           -4.99331461504829        1.78432857744191        0.74774408474457
H           -4.23380676551099       -0.60150386835043        0.77875913189119
H           -1.85195203371124       -1.10731791580649        0.18160136091929
S            4.24986954236056       -1.39834318712722        0.17184269784559
C            3.08962777618374       -1.45789698565082        1.55154380071460
H            2.23971598250887       -0.83118303598215        1.28283186848326
H            3.58634483377873       -1.07390443121463        2.43841151972340
H            2.76148273590012       -2.48229861258031        1.71330375919311