19
 
C            4.11041318632034       -0.17659562887545       -0.37294520287355
C            3.00752527508186        0.27181516735073        0.20876419052919
C            1.67063982408379       -0.18268808956170       -0.24859382447681
O            1.51148803579456       -0.97014929657811       -1.15720490983797
N            0.64495314386320        0.38177653659581        0.46413851680802
C           -0.72415641045378        0.19890091177913        0.32491454617050
C           -1.30719318009921       -0.64205553124997       -0.62317066593841
C           -2.68663495444414       -0.72493648769894       -0.64537224218741
C           -3.43256145788764        0.01776993012495        0.25989068735898
C           -2.75095922341968        0.82088202768489        1.15858535823675
N           -1.43364401627674        0.91312883642811        1.19504324139737
H            5.09529810898887        0.13165433002627       -0.06702098081130
H            4.03840539319923       -0.87916543178391       -1.18742293543035
H            3.04055825484584        0.97656318874761        1.02783036429251
H            0.86844298720762        1.03074997509449        1.20798683726761
H           -0.69008219317089       -1.19982549629386       -1.30608790199845
H           -3.17658867944594       -1.36503346725030       -1.36452295281307
H           -4.51000551431540       -0.02605102274840        0.26691083580486
H           -3.27589857987182        1.42325954820871        1.88849182505908