38
 
C           -3.29936661693463       -2.37509907817233        0.64403734747377
C           -3.81475231740466       -1.44758294923245       -0.24237185483220
C           -3.19948275126662       -0.21858233749997       -0.41062538323942
C           -2.05573214158335        0.10197670848705        0.30535983999089
C           -1.34396546723922        1.44078277917799        0.17797677999847
N            0.09754149060951        1.19106505007232        0.11216996431913
C            0.65898188325280        0.36910099560962       -0.79422692324655
O            0.02777001162505       -0.22873262643826       -1.64104612264810
C            2.17140969240913        0.17083481996038       -0.65060952038297
C            2.95325509088076        1.40623328778331       -0.21769042825133
C            2.36169218607024       -0.98811277065102        0.32758623075465
S            4.08676074080438       -1.56590327847090        0.44709792942730
C            4.22661322500553       -2.46608204741671       -1.12100132785149
C           -1.75494484730217        2.23440719981786       -1.06547413805576
C           -1.61747552283288        2.26932190856404        1.43683153819494
C           -1.55081749841867       -0.83521617835461        1.20122969695864
C           -2.16176084446069       -2.06310731487697        1.36790606569726
H           -3.77747131202532       -3.33547611760695        0.76872778844531
H           -4.70058383578469       -1.68167639670268       -0.81474385941483
H           -3.61871746450568        0.48021185349549       -1.11579025211368
H            0.68221423616380        1.69209629203735        0.75951424442611
H            2.51835014337570       -0.14612921859513       -1.63935191741188
H            4.01909966230614        1.20864429492800       -0.31025516824048
H            2.76312589992010        1.65936224285379        0.82434648263273
H            2.70462474512952        2.25926785002108       -0.84520122937681
H            2.09728928875732       -0.68397798066845        1.34091731740966
H            1.74663756970307       -1.84128785443885        0.03872703325017
H            5.17906535697649       -2.98503569250826       -1.09821384269210
H            3.41243590648764       -3.18103797791466       -1.19744692357668
H            4.20558540406343       -1.77094891829271       -1.95522660452661
H           -1.13197538079901        3.12341958092037       -1.14694068307061
H           -1.61035650792710        1.62471307865226       -1.95288535647734
H           -2.79266943186617        2.54803148107011       -1.00105836968876
H           -1.11763572846004        3.23443474101068        1.37365003617119
H           -2.68610349529483        2.43942960525314        1.53807036933402
H           -1.27143592831727        1.74659669205423        2.32580704005317
H           -0.65943807258034       -0.60793417898160        1.76937760567352
H           -1.74776736853763       -2.77800754494641        2.06435848041106