23
 
O            1.03501339169758       -0.02731171353450        1.81971804629204
C            1.20594845891946        0.23700339608115        0.64819719160593
C            2.54053430741285        0.67754435722468        0.12240901201126
C            3.70420499043307       -0.00788644966604        0.76352913470990
C            2.66010393022983        1.64784599751969       -0.77463682223938
N            0.24286746586526        0.16392583113343       -0.31598360118000
C           -1.10249866222131       -0.19635192680855       -0.19592671927897
C           -1.70223176462831       -0.48641175059508        1.02591651206207
C           -3.03974527415549       -0.83602228510121        1.06691072887174
C           -3.79232338434280       -0.90021806778470       -0.09324523293110
C           -3.19735055698078       -0.60899153877182       -1.30972031276245
C           -1.86235993911001       -0.25922361472002       -1.36327902600089
H            3.74333772998196       -1.05024190969565        0.44771112238823
H            4.64104871246723        0.47765596560061        0.50597019673994
H            3.56783127259814        0.00109588507467        1.84334625953169
H            1.81326688893086        2.17068094026228       -1.18765247023785
H            3.62821530013868        1.98825223171938       -1.10363065635702
H            0.53959865387468        0.37021000584406       -1.26021831824315
H           -1.11905294285201       -0.43910475965708        1.92977139109988
H           -3.49669660497865       -1.06035867698534        2.01924537847508
H           -4.83543895156944       -1.17501796931051       -0.05210543852400
H           -3.77442528872676       -0.65473873264543       -2.22163781038401
H           -1.39984773298345       -0.03233521518388       -2.31468856564858