26
 
O            0.60082773731731       -1.38211577022130       -0.33167962240767
C            0.56735460126912       -0.16909239160191       -0.24180575829720
C            1.74384452870416        0.71854461816376       -0.26526199152352
C            3.02845924740366        0.34215982037324       -0.27112062326012
C            3.49727235887756       -1.07334096920680       -0.27518610146632
C            4.12224518828670        1.36517721760286       -0.26958576946260
N           -0.60173649497296        0.53927090567426       -0.10103597832231
C           -1.91375218302578        0.07375346083818       -0.00997338804459
C           -2.91977354567884        1.01602238285808        0.20603741053907
C           -4.23911889952373        0.62173647621911        0.30818249727628
C           -4.57632343863115       -0.71691533357965        0.19560134323047
C           -3.58066095277633       -1.65380025142916       -0.02215273309530
C           -2.25605886189372       -1.27086203911913       -0.12592919176888
H            1.52301557672854        1.77924460145706       -0.26503694894150
H            3.92796873319722       -1.30863147108785       -1.24851469006694
H            4.27596600945360       -1.21233152904299        0.47326573533701
H            2.67673177836529       -1.75738224541963       -0.08872108515760
H            4.81919094944460        1.16810736987197       -1.08270983197976
H            4.68276987312054        1.30397986630714        0.66312240959103
H            3.73337755430627        2.37481724947098       -0.37474299368045
H           -0.51677671713844        1.54298127771769       -0.01837386202612
H           -2.66082641604508        2.06284978465162        0.29533200992918
H           -5.00648973177604        1.36304260938922        0.47740658376526
H           -5.60779366051716       -1.02516430461011        0.27661151529111
H           -3.83526057051173       -2.69938555461075       -0.11310810305488
H           -1.48445266398338       -2.00266578066216       -0.29366588236750