23
 
C            4.79039527999752        0.04793629181684       -0.10853252205541
C            3.40791802415493        0.52429532204217        0.14743277628018
C            2.29648237125944       -0.15058673011307       -0.13157152634182
C            0.96634124115648        0.42268989334257        0.16738325838369
O            0.81629796749921        1.51712493027939        0.67302340461011
N           -0.06134198721515       -0.41177685056055       -0.18703597214788
C           -1.43880952667315       -0.22212519665957       -0.06259821775888
C           -2.27630149944422       -1.24451642634466       -0.50832067523147
C           -3.64802154148857       -1.11678818275765       -0.41241746292610
C           -4.20407354721779        0.03061443199845        0.12855769115055
C           -3.37461728723745        1.04673537954950        0.57162556334574
C           -1.99968334862921        0.93035347931603        0.48083455430263
H            4.79324963123318       -0.94066852038396       -0.56166418417120
H            5.30611914799959        0.74419173950597       -0.76929370656850
H            5.34957947739202        0.01308345161181        0.82605103698593
H            3.30550775607279        1.50310374555829        0.59878701486709
H            2.33642689617929       -1.13318585875404       -0.58296110986714
H            0.19749414780120       -1.29751862009069       -0.60000116370111
H           -1.84523185878699       -2.14228742102983       -0.93149082451071
H           -4.28460045109106       -1.91664192722722       -0.76162960797002
H           -5.27648637738604        0.12997997958352        0.20330922240945
H           -3.80062268560594        1.94446229537771        0.99463762157519
H           -1.35602182997020        1.72152479393921        0.82587482933950