47
 
Cl           2.05896006894801        4.59202440755997        0.71293763187086
C            1.39118889876759        3.06464047097108        0.27005135263289
C            0.06137200217353        2.80074754884276        0.55901016645555
N           -0.51144850390153        1.64605065377295        0.28754184961246
C            0.25595154915481        0.71589915319864       -0.27965652453555
N           -0.25350606530252       -0.49759729421282       -0.59644497490282
C           -1.50622749552554       -1.03753065662585       -0.34131507343014
C           -2.42069330144446       -0.46446404389016        0.52708820789471
C           -3.64676763693879       -1.08190039523927        0.75786777741982
N           -4.59638828951048       -0.55579593979556        1.63754069736456
C           -4.47044601865296        0.48036917651122        2.52353829010160
C           -5.70492510624061        0.69967746019351        3.32336712391669
C           -5.74854225060440        1.64199495951172        4.25339092041685
O           -3.47074314687604        1.15234468485662        2.66072347730337
C           -3.95385778011487       -2.26654636008671        0.09863551332001
C           -3.04194246376121       -2.84620111471381       -0.76861678108026
C           -1.81384522319317       -2.25064337516170       -0.99274716778177
O           -0.83392766157145       -2.74946159007284       -1.81888857399136
C           -1.09081212556304       -3.95027269068886       -2.50335712007049
N            1.54472303937759        0.87316742029099       -0.59553303015312
C            2.13979937024478        2.03710036145644       -0.33624961256159
C            3.52999660226627        2.15905085867923       -0.69826344293575
C            4.31457847384790        3.27449801173811       -0.98422686961845
N            5.55855535500724        2.93271114532135       -1.32071935057698
C            5.60576476275277        1.60820796679321       -1.25229630888698
C            6.67940261641816        0.73989059572713       -1.48260029609830
C            6.48497248211898       -0.60577553883899       -1.33661114465738
C            5.22003275718697       -1.09824225437607       -0.95855779678719
C            4.18051446797471       -0.24484471519952       -0.74058907750911
N            4.36899486236311        1.08509727010966       -0.88733434872758
H           -0.56816216485655        3.54179589706099        1.03165582566675
H            0.36215006091231       -1.09331271727631       -1.13448661917710
H           -2.17456739522104        0.45952065940151        1.01986470163701
H           -5.47031444420976       -1.06326422761335        1.65195473128790
H           -6.55607279655233        0.06386998289671        3.11935524146461
H           -6.62204395152927        1.82844566081041        4.85414630672624
H           -4.88091166921234        2.25699164745851        4.42914515573967
H           -4.90704624574211       -2.74883154498351        0.26140866680589
H           -3.30763406282025       -3.76752775062263       -1.26144684897714
H           -0.19748283377686       -4.14974505549460       -3.09344090657952
H           -1.25914225675248       -4.78057037480015       -1.80996209250928
H           -1.95130043149053       -3.85473415163945       -3.17301498505600
H            4.02186576571881        4.30487375006591       -0.98541722923351
H            7.62812863918845        1.16458848764020       -1.76441071642162
H            7.29466617801492       -1.29783774109702       -1.50697809714004
H            5.06825762755184       -2.15881596634304       -0.84051627633273
H            3.18887574129195       -0.55964273209569       -0.45815570086992