26
 
C           -3.94914154520612        1.45590577674608        0.79609361057430
C           -2.58951421887989        1.52544592246118        0.56255596690205
C           -1.89415159440887        0.40451190581414        0.11295613531133
N           -0.51663575786360        0.54015637410162       -0.10368482189395
C            0.38514903221916       -0.38794188495958       -0.53224635422756
O            0.12423302969331       -1.53666186083347       -0.80377262077886
C            1.79481548132544        0.18997372718532       -0.62194476881523
C            2.75808174389208       -0.82010872382670       -1.22438086945280
S            4.45404999942914       -0.16879057135524       -1.34604053728630
C            4.99669430141276       -0.38146452268184        0.37404479467476
C           -2.57993532500059       -0.78701687542521       -0.09959873738483
C           -3.94151089713022       -0.84444672413522        0.13746848242137
H           -4.46667539645306       -1.77285800334240       -0.03046220812539
C           -4.63143313424010        0.26940240384064        0.58432700436879
H           -5.69399492601024        0.21559689606490        0.76658258290250
H           -4.47648037156895        2.33176864784914        1.14427567837001
H           -2.05844443526902        2.45328632651343        0.72835439009521
H           -0.15949876262757        1.46689310978053        0.08723275477360
H            2.11606426485576        0.46553755301682        0.38664995657173
H            1.78210967521160        1.09511801261719       -1.23395073578645
H            2.45991795255997       -1.06542943877225       -2.24256142238603
H            2.78308240025389       -1.73792359615179       -0.63828988898914
H            4.40574335067788        0.24575262232010        1.03538379262198
H            6.03641231658495       -0.07480410660410        0.41145025085690
H            4.90659399359061       -1.42737448831875        0.65359263026716
H           -2.04553117704861       -1.65452848190469       -0.44743559493191