20
 
C            4.21076653060233        0.38675794284871        0.09381000892181
C            3.08342085403234       -0.30881231933539        0.10822911974430
C            1.76744655211542        0.37717874464156        0.02502336063199
O            1.65871994359005        1.58288171456017       -0.05859486134569
N            0.71475875047726       -0.49659618383254        0.05347291980654
C           -0.65593809605370       -0.23157441060845       -0.00317164240472
C           -1.17541970245097        1.05593021344856       -0.10392676581417
C           -2.54507847076941        1.24017841138594       -0.15514627226141
H           -2.93923066537832        2.24251988552734       -0.23329386747355
C           -3.40899239870680        0.15940140810168       -0.10750238257279
H           -4.47684474715952        0.31254677541807       -0.14807012345429
C           -2.89373346237301       -1.12237137064808       -0.00725010736306
C           -1.52773863501492       -1.31900318091186        0.04469234588168
H           -1.12850950963856       -2.32161923957733        0.12300257013722
H            5.18098759058947       -0.07583044877736        0.15227466485630
H            4.17374506017267        1.46160601671505        0.02097711617631
H            3.08320072279131       -1.38817830937146        0.18030733518675
H            0.94149459786364       -1.47936591313164        0.12555501688297
H           -0.50537077230445        1.89788134188133       -0.14112622714257
H           -3.55768414238497       -1.97353107833425        0.03073779160638