59
 
F           -7.52008922833686        5.93036541924385        0.29770125530225
C           -6.60920169443557        4.93889679487044        0.29610635237388
C           -5.25506603297644        5.23516222106916        0.39907505655936
Cl          -4.72394457840385        6.87191707540249        0.53056385745918
C           -4.33414134266755        4.20357996668250        0.39602861023603
C           -4.75447762960657        2.87496483869772        0.29202758590900
N           -3.77016542008843        1.90022829727658        0.29755005074114
C           -3.87169282837901        0.54569562704133        0.24747097766820
N           -5.05972161773674       -0.02838608202587        0.17178851968731
C           -5.10928056545274       -1.36029535095826        0.14308558831276
N           -4.11141597052365       -2.19329238909169        0.18985252453791
C           -2.87529957611620       -1.64939185557667        0.26287465290567
C           -2.67588286638099       -0.24650929414152        0.28503785428569
C           -1.36586076104504        0.25565135681990        0.34047777328351
C           -0.28958002628643       -0.59589019463356        0.38757636128696
N            1.03129027562075       -0.16592085284687        0.43624460712728
C            1.51631780492400        1.11228962875034        0.46141183421890
C            2.99224448893883        1.19971050933224        0.48002573215606
C            3.83294924405830        0.32032784427685       -0.05403823677668
C            5.32356827562436        0.46659283391081       -0.04267450315546
N            5.75777059967146        1.80903317756431        0.29217554906773
C            5.61849114558115        2.70610213406810       -0.83721827784149
C            7.10695073558354        1.83501115895434        0.81465435331272
O            0.81090331883993        2.10380316983434        0.47225785035344
C           -0.49479544951780       -2.00907280268753        0.38396697776220
O            0.65443414072381       -2.74322985676555        0.45494232469043
C            0.57761404551715       -4.15506605004874        0.46776134484625
C            2.00025466663798       -4.68675374709404        0.73478174744968
O            2.54397740472052       -5.00595119510268       -0.51994431893070
C            1.49009137900425       -5.56401082057478       -1.27299376292801
C            0.23652558925505       -4.74882298326965       -0.91376021000311
C           -1.76451342041192       -2.51436524891452        0.31445281971333
C           -6.11702126761134        2.59503783152928        0.18864354679029
C           -7.03455613524461        3.62699573805385        0.19130853103542
H           -3.28375112556879        4.43934668913847        0.47647032498017
H           -2.82674108376476        2.25847988499233        0.36349584912910
H           -6.10319000689759       -1.78510083299066        0.07780183134390
H           -1.16022080819044        1.31331233557330        0.34517380921182
H            1.69887387013458       -0.92398688241357        0.47075592600114
H            3.37998397607457        2.11105756197935        0.91145409479026
H            3.48323431121936       -0.58302794829100       -0.54012527871796
H            5.71307615128626       -0.22418766305629        0.71474754266094
H            5.72664881165962        0.13091474331370       -1.01718356100388
H            5.83233383824757        3.72296072464024       -0.51198004942420
H            6.30257715588509        2.45055031713098       -1.66268185522843
H            4.59658778587609        2.66656014239206       -1.20816586610080
H            7.16142892055339        1.21453115754188        1.70826309714916
H            7.35632504134838        2.85844179451545        1.09046462094954
H            7.85573048236368        1.47829018497171        0.08931114727394
H           -0.11929753734432       -4.47456401056754        1.25089264747185
H            2.63562241213817       -3.93635465471581        1.20513644449073
H            1.94749545584528       -5.58044276669034        1.37328750300860
H            1.76354079432792       -5.50131274371609       -2.32550949105586
H            1.34909628160059       -6.61930438397670       -0.99697848393489
H            0.08546005827740       -3.93657117057826       -1.62439157089679
H           -0.65598800533741       -5.36946260034128       -0.89257893852228
H           -1.96879979523382       -3.57122792426627        0.29282470693991
H           -6.43558451617718        1.56992811186310        0.10961171969189
H           -8.09111917181742        3.42676303390620        0.11214559764795