64
 
C            2.70479731728158        4.29850975073905        2.32896471505491
O            2.41735236151038        3.12329095822161        1.62515746773659
C            1.07618530600612        2.76159604326242        1.49973479646725
C            0.01183156197817        3.44694030122239        2.05722450287644
C           -1.28764863980641        3.00975230565175        1.87683390044961
C           -1.55618091779811        1.86934873059191        1.11637224298635
N           -2.81798606426289        1.38550356922706        0.91643542705530
C           -4.06581269689543        1.94381934730096        1.29107176878389
C           -5.16900256871988        1.12099524676677        1.01573495341670
C           -5.11765606508278       -0.23018537799057        0.53116463666060
C           -6.45303295554815       -0.97562302863149        0.60152020474376
N           -6.40708671725449       -2.40712714794241        0.84319168791492
C           -5.75425177964084       -3.15358294605151       -0.21058731441617
C           -5.88119844777657       -2.75326842509176        2.14517443740397
O           -4.13617247333767        3.06451873541307        1.81396436873101
C           -0.47688802653446        1.17347339265878        0.55189821418610
C            0.82240616520270        1.60267950020381        0.74275677554854
N            1.94374789116977        0.95600716296085        0.21889164483420
C            2.08449724254480       -0.21121365656340       -0.43016276882427
N            1.01657006935682       -0.97187697619873       -0.72107970480330
C            1.25251793009964       -2.09645270836439       -1.35191968739516
C            2.53250783820652       -2.52766807899137       -1.72036459576119
C            2.66424069588763       -3.74674908139539       -2.39014392222223
N            2.70741355940153       -4.76074274631683       -2.93497148984201
C            3.60472076526148       -1.65828690723248       -1.37292689755254
C            4.98589633078052       -1.93352848463394       -1.66419505980100
C            6.07512831839351       -1.07812977840498       -1.38872808957131
C            6.23076264251584        0.18970374973727       -0.82521446908398
C            7.49216301272454        0.72551783186343       -0.72112877983859
C            8.60709499789173       -0.00113224395853       -1.17823918881536
C            8.44321712992422       -1.23796282073482       -1.72803235208264
N            7.19624367226777       -1.75700637304500       -1.82791971316218
N            6.89832300888231       -2.94414221130869       -2.34253705549466
C            5.58285641270892       -3.06251239815901       -2.25254285507695
N            3.35000512068823       -0.51960171616286       -0.73844821249286
H            2.39352692201455        4.23015137173415        3.37771222377362
H            2.22842115713893        5.17236093650893        1.87004510350333
H            3.78808112120155        4.41547573185357        2.28441978038401
H            0.17815514137276        4.33618096152434        2.64602214227315
H           -2.11493432852109        3.54933653885066        2.30622150590510
H           -2.87875999076575        0.59394494101082        0.28935934080917
H           -6.14074311309077        1.57997324219533        1.13280230898792
H           -4.30749893417669       -0.82566203825835        0.95108517003711
H           -7.00389499994070       -0.82509020390173       -0.33202754179652
H           -7.05070859652356       -0.54205467304573        1.41061145869229
H           -4.67266828278416       -2.97165991057759       -0.27183104535229
H           -6.19550844002500       -2.87694324335791       -1.16599028156068
H           -5.91891719728424       -4.21914344953067       -0.03829453153301
H           -6.39977295035007       -2.17124698932988        2.90653639694976
H           -6.06903954535854       -3.81376072715802        2.32556069670131
H           -4.79986633258205       -2.57641838328121        2.25063725521035
H           -0.65296913107815        0.28827163340476       -0.03670562691228
H            2.81355697509673        1.43483039776087        0.41491366721165
H            0.38298563915792       -2.69957165472934       -1.58357473646983
H            5.34735587025076        0.70522161917837       -0.48954853815714
H            7.63593328641966        1.70375236679288       -0.28967762751060
H            9.59780592430976        0.41727686973897       -1.09635020076382
H            9.24520878536473       -1.85413721383809       -2.10074219874018
H            5.11105612346247       -3.95492856594938       -2.61031024380342
S           -4.51037595443929       -0.31569548629421       -1.39232327247337
C           -5.07000612771233        1.29947192725281       -1.95988264832302
H           -6.02661878034120        1.20635149407330       -2.47118222677056
H           -4.32170501715811        1.70659130296896       -2.63343782952350
H           -5.16566122185663        1.92965734929002       -1.07099808939969