26
 
C           -4.00456471848088       -1.48883492923725        0.36474642332340
C           -4.63548131175841       -0.26823543165163        0.53863809185252
C           -3.89986232686537        0.90043221123704        0.44160327010906
H           -4.38484671777780        1.85585733283715        0.57539024696929
C           -2.54330021959094        0.86401021354805        0.17364845287123
C           -1.90911022492983       -0.36174990259480       -0.00109420479326
N           -0.53993400899756       -0.47945470941371       -0.27382982020529
C            0.39932897927294        0.49847514843974       -0.41413459061239
O            0.18743227967211        1.68460195305698       -0.31633726672887
C            1.78196128484824       -0.08003677927356       -0.70196014672383
C            2.78534876285077        1.02669553509499       -0.98380207812366
S            4.45064261573978        0.37671874314591       -1.32970873754527
C            5.01070054021141        0.03007534164126        0.36279238279757
C           -2.65045977120820       -1.53777808368976        0.09648075913927
H           -4.56786743065397       -2.40742986367730        0.43772702899041
H           -5.69375222847348       -0.23042163947693        0.74788072884561
H           -1.97330168628371        1.77427439189729        0.09831276297912
H           -0.22262654172437       -1.43361133775868       -0.38217396194103
H            1.72668531117943       -0.75276937316287       -1.56124725231926
H            2.09594884769713       -0.66408947706308        0.16792133693045
H            2.85332947301559        1.71892992731479       -0.14552888313244
H            2.49305650529619        1.58399996951720       -1.87248231544003
H            6.03621772675825       -0.31462872155014        0.28567614163538
H            4.39627127120334       -0.74548177750716        0.81110192575698
H            4.96774518939905        0.94269421408245        0.95056302162250
H           -2.15956160039956       -2.49224295575600       -0.03926846848934