25
 
C            3.20223134616608        1.06619842703474        1.11969985381580
C            4.12562662389959        0.95515506993179        0.08899699627167
C            3.74719513846326        0.32252493847936       -1.08429176344025
C            2.47496881735185       -0.18896930169315       -1.22580272684471
C            1.53204386242660       -0.08296231041373       -0.18924843538251
N            0.28539424412882       -0.59541308618650       -0.37391424122240
C           -0.84485933651470       -0.67195997331447        0.52181573301887
C           -1.89865705380357       -1.38832792931033       -0.02759247663082
C           -3.14911069958617       -1.55769036516374        0.65964603524905
O           -0.76676246369184       -0.16952494259798        1.65372292004279
C            1.92736424025679        0.56108467344182        0.99283996824168
H            5.12516816238954        1.35518477801976        0.19784990166851
H            4.45499825963573        0.22624398280595       -1.89939397110341
H            2.18989517075130       -0.68251639220543       -2.14793144807578
H            0.12995920292854       -1.03951822588667       -1.26804406667731
H           -1.82331824827118       -1.76368624052951       -1.04120289474028
H           -3.07938614140580       -1.30170124827749        1.71324867473200
H           -3.64761698564528       -2.51251529692587        0.50528704162889
H            1.20421064126330        0.64128027460781        1.78792463193081
H            3.48722259224176        1.55901516107496        2.04095959915612
S           -4.57900865337009       -0.35885647652687        0.03222942142303
C           -3.66227760896667        1.18757399622852        0.17505405132280
H           -2.61426812576258        0.95626119415634       -0.01462761309442
H           -3.77975244018296        1.59605082972026        1.17648135235884
H           -4.04126054469914        1.88706846352865       -0.56564222785728