59
 
C           -1.02145633960702        2.43285171040168        0.36402030534963
N           -0.15910764170782        1.44579745486998        0.57364414944155
C           -0.61498060514705        0.20964041052437        0.38467269411126
N            0.18800770323376       -0.86609109205868        0.56113270905727
C            1.52750615357076       -0.95168341253228        0.90630096637877
C            2.32097538825597        0.14793477994996        1.17941115105041
C            3.66375428830325       -0.00978200357431        1.51875912898156
N            4.39649582709962        1.15867144755885        1.77053833602079
C            5.70150333422299        1.28741035336245        2.12804872745913
O            6.46969164374277        0.36342196189670        2.29058697064021
C            6.13468128380164        2.73591410523831        2.32845801129322
C            7.52142681846110        2.97372359249823        1.74053508056935
S            7.49002856645198        3.25849759734142       -0.05917836335532
C            7.17873995465846        1.57881668979235       -0.67020518295766
C            4.21239289724279       -1.28096330238969        1.58455217230946
C            3.42103331475370       -2.38783366225946        1.31296507591466
C            2.08823834207222       -2.24539713859547        0.97429022664522
O            1.22934269714713       -3.27939686226511        0.68579624681931
C            1.73195970601126       -4.59172202495417        0.73387626127645
N           -1.86259243122140       -0.10957821350315        0.01597828871344
C           -2.73403218545632        0.86595971234676       -0.19937060978528
N           -4.00115227034056        0.60975637003169       -0.59648526186724
C           -4.65000864892159       -0.59083837998074       -0.79053452282747
C           -4.12821750749284       -1.80473983570608       -0.33832011414182
C           -4.83389454456714       -2.97836270801059       -0.49773261621811
C           -6.08091404216067       -2.97173689915276       -1.10437593202221
C           -6.59808083462680       -1.78327368456763       -1.57984770829140
C           -5.89567559516148       -0.58626042591103       -1.45592730080932
C           -6.45203570034276        0.68150909934372       -1.99911685480064
O           -6.20277841839925        1.78222921807657       -1.51964215655846
N           -7.24508896073449        0.54872797364683       -3.08333475677559
C           -7.85349067738784        1.67789915219068       -3.74118630752058
C           -2.32064364651081        2.21321180826699       -0.02893080173054
Cl          -3.41836769154384        3.52422140714824       -0.30541978247930
H           -0.64219447432302        3.43341735363803        0.51964296561415
H           -0.25801769842142       -1.75629753839346        0.38188148989049
H            1.87185024181849        1.12569215307863        1.12078925629723
H            3.85245170661671        2.00533638072977        1.67414292073691
H            6.17732950534527        2.90915783369937        3.40762874869090
H            5.42020609616650        3.43519991519935        1.89221953599035
H            8.16732780624640        2.11831752954617        1.94004302563923
H            7.96992089716805        3.87592483034885        2.15359198346829
H            6.13453963193244        1.31316465957004       -0.53077393402138
H            7.81997654086146        0.88155981163285       -0.14020212270274
H            7.42045122006901        1.58399812059604       -1.72818813668757
H            5.24771837665582       -1.41086835916819        1.84714185447119
H            3.87127687085786       -3.36543314986553        1.37183770203095
H            2.08379286826351       -4.85041850975334        1.73749038135232
H            0.89569214440271       -5.23679299801084        0.46801530694056
H            2.54387918208348       -4.73768240554606        0.01455243920477
H           -4.58514728037731        1.42922251235125       -0.79982722237801
H           -3.16828283839209       -1.79655651192807        0.14820236690897
H           -4.41784569358440       -3.90461099234103       -0.13040889789765
H           -6.64643404907470       -3.88554603698755       -1.20381296254438
H           -7.58321360405772       -1.78364731042521       -2.02467309798369
H           -7.36714666268616       -0.35784668894154       -3.50340501486821
H           -7.59033222191696        2.56895699319126       -3.17334947780347
H           -7.48179628318543        1.77774291100201       -4.76291262901061
H           -8.93926246020953        1.56947429782718       -3.76358471124894