58
 
C           -8.62802771328059        2.80758472458420       -0.06480702815613
N           -7.94960599114527        1.56339748549356        0.18466824654579
C           -6.68614491208659        1.51856577099553        0.69763295850728
C           -6.10297841347891        0.17826260158741        0.85364432187496
C           -4.69324021385165       -0.00144071291038        0.88762641817316
N           -3.88674721631931        1.11205135753006        0.83041878157144
C           -2.54617656301638        1.22139832910591        0.65300733582556
C           -1.95262142353944        2.50835618817403        0.63431543337813
Cl          -2.90911457065292        3.94061915656389        0.85111716274856
C           -0.59300188959685        2.58202624432032        0.43544507606619
N            0.16442968730695        1.51008925701525        0.26039700433048
C           -0.45735431176901        0.32926027800979        0.28780854426219
N            0.21942923517341       -0.82043535156561        0.11938439753377
C            1.56743079051527       -1.08086655340968       -0.13801040074740
C            1.92070322127472       -2.43568928081652       -0.27512828873212
O            0.87948411417653       -3.35302895049594       -0.13032204950491
C            1.19642297341625       -4.71102783514537       -0.24965326579331
C            3.23849596595518       -2.76403628995220       -0.53956041383629
C            4.20410384397229       -1.78334141430435       -0.66855994828605
C            3.87024763153192       -0.43360065804170       -0.53482227680674
N            4.78823539684277        0.57234775493800       -0.64741261200604
C            6.17962026917985        0.51262455030642       -0.97649344212726
C            6.76604536162530        1.77190981659396       -1.07027924040393
C            8.17813027365995        1.92899631502018       -1.35752868496717
O            6.72905962553616       -0.58075639824906       -1.18240494628773
C            2.53329833262636       -0.10134974541543       -0.26528877315837
N           -1.77718219348180        0.15540494533465        0.48141691415542
C           -4.17484636766523       -1.29265173342709        0.98124729010942
C           -5.00810222866618       -2.38877458626432        1.07644925657261
C           -6.38766175203892       -2.21881174957955        1.09321008471405
C           -6.91882810698518       -0.95364941826347        0.98063592184173
O           -6.10271173112829        2.56273350462931        0.99708459516711
H           -8.00415720048539        3.60164787925590        0.34372931425088
H           -8.76788798221143        2.97665257784775       -1.13614261613242
H           -9.60294502750536        2.82051500055386        0.42872850251301
H           -8.35709314270011        0.72447959064873       -0.19135969904362
H           -4.40608529612514        1.99414013833433        0.91038222719252
H           -0.07930438749988        3.53386040992803        0.41221622163906
H           -0.35278618114918       -1.65379539417799        0.15946229044457
H            1.59536188543610       -4.94917336091696       -1.24235122286534
H            0.25998356707836       -5.24952952847920       -0.10120490153057
H            1.91864961400026       -5.02721399195006        0.51170730686270
H            3.53648771800956       -3.79560108269134       -0.65045620277339
H            5.22871829519703       -2.03973236565169       -0.87934958275213
H            4.42075972644593        1.50471180387090       -0.52515972574519
H            6.19125504985903        2.65923798993300       -0.84467314833873
H            8.61434266224584        1.00651526274573       -1.73569529025498
H            8.42134794820110        2.77614921131254       -1.99779981396689
H            2.23865790180497        0.92922229263077       -0.15554179377422
H           -3.10473662759793       -1.40855819379806        0.98367644766630
H           -4.58392005600211       -3.37883342667456        1.15537889596888
H           -7.04183271466393       -3.07246808438497        1.19828910582732
H           -7.99273971520083       -0.83576180914203        1.03155415204986
S            9.23843730375166        2.33497522703983        0.18857355001757
C            8.80820332938857        0.88045477796333        1.16936855416117
H            9.02389846493091        1.09823554158904        2.21153654393819
H            9.38967606831555        0.02610941563002        0.83096489635064
H            7.74691766636195        0.68759251617363        1.02820582471569