59
 
F           10.41551788216233        0.09613352688179       -0.06502543172255
C            9.07430487540289        0.11309366656477        0.04907920816304
C            8.47628818242858        0.42730039339129        1.26374269817265
Cl           9.44685882037557        0.79860513612181        2.63927248750033
C            7.09641123245202        0.44177573248682        1.37004678278874
C            6.30827791143172        0.14218018522381        0.26017585982736
N            4.92345933241314        0.14017249767998        0.29437605649469
C            4.06446103745847        0.42826524352464        1.30759837290815
N            4.52967000735283        0.76528786798009        2.49734923300910
C            3.64778005811096        1.05619798836404        3.45398706194743
N            2.35038262604629        1.06245598052481        3.36182860537172
C            1.82909863491752        0.72043467660769        2.16203104034045
C            2.65188537347192        0.36949170192086        1.06280202711001
C            2.04925715110039        0.00464849698700       -0.15170909157319
C            0.68289307893418        0.00102575177509       -0.28314025363042
N            0.02399120494326       -0.35801132828535       -1.45632979933811
C            0.55883655889260       -0.79084064877964       -2.63683092563063
C           -0.47429311070037       -1.11876977552419       -3.64906512123122
C           -0.13388889092248       -1.59731508978685       -4.83700528767651
O            1.75211576443628       -0.90151282698083       -2.84410022395041
C           -0.14365606104432        0.37701943992932        0.81877113329157
O           -1.48111745452139        0.35725063038186        0.55882568614979
C           -2.37776616604073        0.73942870505936        1.58524896631489
C           -3.78866271752668        0.69481415965734        1.01112930093386
C           -4.20342893178038       -0.74754626784568        0.66249757224232
N           -5.48537374088253       -0.91744482542019        0.02237157940783
C           -5.54214627963146       -0.45722244067864       -1.35543962999737
C           -6.99563588646236       -0.40980188440597       -1.80991473351035
O           -7.74274520627611        0.56033054969309       -1.10251519903124
C           -7.31102018614386        0.74415980149697        0.23348379903259
C           -6.65064234396178       -0.51331928267619        0.79815744743178
C            0.42824134569499        0.71982484159002        2.01441237574928
C            6.92474769743601       -0.17220192535011       -0.95420020524724
C            8.30037780395243       -0.18625118338975       -1.05797924402560
H            6.61961255334394        0.68440274337682        2.30462856571729
H            4.48620937850484       -0.10464868394161       -0.58386992874105
H            4.07570401769497        1.32134352945468        4.41258599121718
H            2.63094304252208       -0.28735259352900       -1.01025810653001
H           -0.98252740078174       -0.29531531199521       -1.38016335760044
H           -1.50763367865459       -0.95535117803350       -3.37535633215314
H            0.90648509053802       -1.74891831351338       -5.07473467424238
H           -0.85861153071437       -1.84902085892448       -5.59172855761534
H           -2.28861538325550        0.05038496392520        2.43524921742938
H           -2.13973880745782        1.75527380565671        1.92648290014013
H           -3.81477217775343        1.31852234856444        0.11627592380211
H           -4.47533829472916        1.11629308199247        1.74643573041754
H           -4.21488360670688       -1.34288067321551        1.58073142898285
H           -3.45157239097312       -1.17787612813773       -0.00438715936109
H           -4.98443245881383       -1.16524002567435       -1.97769690645877
H           -5.10167681962096        0.54337597894080       -1.49558037280867
H           -7.06154357043129       -0.13153927807862       -2.86478063342285
H           -7.44612500708245       -1.40422870422698       -1.68042555670210
H           -6.60538345654607        1.58807146578672        0.27858302514417
H           -8.19933885835785        1.00806552290990        0.81396586040438
H           -6.36832511411985       -0.34544851301556        1.83812332462801
H           -7.38115573624708       -1.33185525540569        0.77628414409914
H           -0.15232423783589        0.99802472249720        2.87752802445243
H            6.32273743828307       -0.40663143772344       -1.81952841104595
H            8.78782740568337       -0.42711070240839       -1.98902744110010