61
 
F            3.19131192108952       -3.32632110903321       -3.68587182766423
C            3.32539988194593       -2.79647434197511       -2.45194286752469
C            3.21591901947457       -1.42673000213456       -2.25551806319978
Cl           2.88713726844794       -0.38423323253731       -3.57102405909968
C            3.39578692530581       -0.89917145371776       -0.99177925393408
C            3.64862579097615       -1.74202176153871        0.09087611020552
N            3.81587132334112       -1.24610396518211        1.37808650872461
C            3.39139393381090       -0.02892685867770        1.86652693132188
C            4.18828581503513        0.65568514380692        2.79278692389861
C            5.40250572826510        0.12078148650409        3.24071520251194
N            6.39684347483293       -0.32005975417255        3.61970013038587
C            3.77124913854779        1.92536327194889        3.25428113549236
N            2.68077685454967        2.51562215848537        2.85752354241979
C            1.86145794231523        1.85198614048536        2.01658347571384
C            2.13717468455982        0.54464162005124        1.51920486713742
C            1.16221497828859       -0.11195679920657        0.76287737214771
C           -0.01461693253091        0.51165921905712        0.37334359175905
N           -0.95472913955796       -0.11834771239088       -0.36380292682030
C           -0.71945467256828       -1.28290083005500       -1.18345667854733
C           -1.83923830561810       -2.01776749242088       -1.55860079623536
C           -3.18772756015301       -2.01283528092027       -1.07828900078928
C           -3.83331237051688       -0.77870786951788       -0.47186965810369
N           -3.64603181395623        0.44285620058372       -1.25197424965492
C           -3.98426806581288        0.27592160162921       -2.64901332028864
C           -4.38904072243432        1.53111718168596       -0.65928118690898
O            0.44114955767146       -1.51516169206933       -1.56185794022401
C           -0.24696404503070        1.85654395894941        0.82254670907650
O           -1.43474046674194        2.39684292220191        0.40874305114972
C           -1.68729580363931        3.76365446389418        0.63174048015715
C           -0.87364280123200        4.66817770525559       -0.29059234855060
C            0.65993264394429        2.48151859772248        1.63423725739935
C            3.77969953146843       -3.11290978402166       -0.12652069920563
C            3.61655997387928       -3.63604539561871       -1.39330080621344
H            3.31102155065276        0.16518418450074       -0.84686149169178
H            4.51186074548956       -1.71886741691319        1.94021271429100
H            4.39025352337137        2.46613460430774        3.95959427845461
H            1.31579991400502       -1.12707444115521        0.44434733198431
H           -1.79658330614320        0.40023243123539       -0.59665758768313
H           -1.59838871315991       -2.85053876830202       -2.20959089285597
H           -3.86340892748092       -2.49813894390744       -1.78307757583751
H           -3.41306194785279       -0.59163457449549        0.52055203674626
H           -4.90896617895537       -0.99684842141602       -0.33949306833764
H           -5.03531909880500       -0.02218300647219       -2.79853178700241
H           -3.33367841515701       -0.48299011533198       -3.07785536987619
H           -3.81291618022495        1.21896614962969       -3.16962078114819
H           -5.47924838819612        1.35664231594697       -0.66673837480145
H           -4.18103278951480        2.44862936782455       -1.21079114376733
H           -4.06745888483527        1.66117542565714        0.37310566601227
H           -1.51483388451062        4.02762336418228        1.68344297487057
H           -2.75429223984871        3.88236004321632        0.41995542806268
H           -1.15187362146702        5.70692647098560       -0.13049218747232
H            0.18991917548842        4.55098583401040       -0.09934161880044
H           -1.06752279215863        4.40170326163238       -1.32671669610946
H            0.50044813909187        3.47483176623699        2.02301170086103
H            3.99254515951873       -3.76757458803202        0.70582284497297
H            3.69743455712606       -4.69672722732223       -1.57245250006072
S           -3.46036061426870       -3.35181923727406        0.43346542482945
C           -1.88969728286339       -3.13905445549955        1.28438989159738
H           -1.98765466253758       -2.40962968405708        2.08719171130396
H           -1.58454968717982       -4.10074010683224        1.68701908174452
H           -1.16666883763581       -2.79327056941726        0.54103238319816