62
 
C            5.09439631231158       -1.90250873249400        0.59686707384436
N            4.03522288361523       -2.65236121570950        0.64434652840476
C            2.86298671056689       -2.13178574344484        0.22367276322273
C            1.72846235961608       -2.96604601874012        0.26759429308887
C            0.50278285606654       -2.50800511191954       -0.13674872065455
O           -0.65017858347565       -3.22467470738017       -0.13960933733640
C           -0.65240753482066       -4.52569442630058        0.41992974773533
C           -2.08816806629049       -5.02455368959014        0.39777937767161
C            0.37096582268666       -1.16326196858004       -0.59978209664083
N           -0.90822359601167       -0.77011546768955       -0.98309442917511
C           -1.31395122195927        0.43843875973599       -1.44699874720181
O           -0.58174380778380        1.38487271125138       -1.65086384572296
C           -2.81350489253024        0.51073144039110       -1.70355594672732
C           -3.62251238229554        0.49346310475175       -0.40067259550045
S           -3.71907031745342       -1.20398400646780        0.30218659901826
C           -4.82052655276446       -2.07605484437735       -0.85126025118103
C           -5.01163322670428        1.15457467294346       -0.55370314726446
N           -5.56569293102680        1.79606588609390        0.61143398811176
C           -5.87170976976196        0.90965448847493        1.71327288694961
C           -4.84566772122191        2.97219848893334        1.04735263777607
C            1.46592239027984       -0.34007470301767       -0.64209085479517
C            2.73614398392854       -0.79708028046672       -0.24269719448141
C            3.90163675307631        0.02437178506697       -0.26020790370747
N            3.81752465521134        1.30990496351588       -0.71637627298869
C            4.63101306902278        2.38736978054968       -0.38856704515983
C            5.22630348898386        2.50541936126271        0.86730501729378
C            5.99785721493810        3.60974389334203        1.16618714607936
C            6.16690087659565        4.60905362749649        0.22526790833506
F            6.91402432936995        5.68280360464569        0.53438088340387
C            5.55498926812931        4.52176711915452       -1.02018305588598
Cl           5.74718124200650        5.78321052715668       -2.17885691989272
C            4.78756644178435        3.41138953288892       -1.32165466432103
C            5.10529827207613       -0.56201990502712        0.14749826782963
C            6.35437937239996        0.07836498398301        0.05221547842436
N            7.40984010103974        0.52245559492050       -0.03739565226998
H            6.02287349873415       -2.35561602378662        0.91929281271451
H            1.87953732696899       -3.97002053614072        0.62695499631628
H           -0.00399802105243       -5.18759453496546       -0.16878014419960
H           -0.27645274827009       -4.48718995797658        1.45000256636645
H           -2.72241191280967       -4.34094621704676        0.95666016660228
H           -2.14307111686250       -6.01155080943013        0.84677908023145
H           -2.44760640016708       -5.08021602731763       -0.62656193129422
H           -1.62229552198062       -1.46278195960869       -0.77285185433274
H           -3.11682666740815       -0.30766016779552       -2.35990334857057
H           -2.99541133760542        1.45138328340218       -2.22680064950381
H           -3.06103769032911        1.03418632210761        0.36613214004487
H           -4.65706561563705       -3.13457220630391       -0.67700693280467
H           -5.85766237454322       -1.82923443089598       -0.64378492290679
H           -4.56553244462688       -1.82805572267930       -1.87694014170954
H           -5.73756421979445        0.41465768127025       -0.90138790038557
H           -4.93620358822495        1.92305667672544       -1.32904418497098
H           -6.49770470362604        1.44767994745283        2.42495674023416
H           -4.98035352230192        0.54674447323499        2.24319059558228
H           -6.43127325251474        0.05263542418681        1.34309241413423
H           -3.89256899990949        2.74724612578639        1.54897910520856
H           -4.64521012308662        3.61218497806601        0.18988941270459
H           -5.47409866482274        3.51945229498223        1.74937698454823
H            1.31637177169575        0.67351154351767       -0.97451117599532
H            3.04569397547186        1.51522111662161       -1.33457369195083
H            5.07106143210413        1.74543173634694        1.61631057403314
H            6.47002489568970        3.71262739245825        2.12962040910998
H            4.31237822538337        3.34178609241824       -2.28772510252052