74
 
Cl           5.90551228222036        3.71327031469391       -1.12768826404884
C            5.23802159152913        2.12859231463248       -1.00604653876528
C            5.97945121822988        1.05012053234133       -1.49682767968123
O            7.21310177125101        1.33813786344006       -2.01395194429907
C            8.08344707479006        0.26786833378233       -2.28150323454554
C            8.41133507128229       -0.57415744805000       -1.07134221184868
N            8.82872473315101       -1.80861505444144       -1.32609262009342
C            9.13084528587678       -2.59111127736606       -0.30396146856905
C            9.02141102135029       -2.19705716066503        1.01939252111469
C            8.58370021945945       -0.90777372046568        1.28321158974092
C            8.28114555557848       -0.07483488845589        0.21980678496822
C            5.40822384759606       -0.21484716447936       -1.42913805201025
C            4.16473491223680       -0.39854831657415       -0.85658102265410
C            3.45417123037093        0.67466688169501       -0.32357820771190
N            2.21753385467997        0.45802212158966        0.25613670855298
C            1.61441176350095        1.21881245113709        1.22629636773835
C            2.34233680687625        1.90304172000171        2.20646676932094
C            3.73370709508664        1.80036827801271        2.34841410121214
N            4.86264582286625        1.71484773754016        2.55836563586845
C            1.63559712070250        2.66788941960841        3.16559262590660
N            0.33895201886819        2.76574560592611        3.21440140744568
C           -0.39033839326002        2.07360388610886        2.31404106201168
C            0.19365437642630        1.26640719817189        1.29814443380277
C           -0.64116772942041        0.57516064266161        0.41291063997006
C           -2.01970255366070        0.64743417373622        0.50254163820461
N           -2.85907473684190       -0.03182290583607       -0.31505400825208
C           -2.54462592314613       -0.90595939861696       -1.39829824272312
C           -3.65794436765717       -1.50596487764293       -1.98694491704529
C           -5.01297440217103       -1.42035247194428       -1.53116029036251
C           -5.95809492476518       -2.43058152331878       -2.16916637788467
N           -6.95234033277567       -2.93578571871454       -1.23305919742809
C           -7.55411220235279       -4.15937525624418       -1.71157329319128
C           -7.97024115647804       -1.95302213936651       -0.93076474905743
O           -1.36406228595992       -1.08232837310895       -1.74029583745071
C           -2.59910161933171        1.48203523425653        1.52032858359557
O           -3.96269528105269        1.50936149271774        1.50093973152087
C           -4.66957685857986        2.27321636100643        2.44826856311537
C           -4.76877615284377        1.57830094879327        3.80438414500125
C           -1.79555187623866        2.16768299555517        2.38887039879735
C            3.99661805124149        1.95673683685000       -0.43576696060329
H            7.69826412717197       -0.38157211542478       -3.07912793490503
H            8.99992242252412        0.74303714326678       -2.64947574408389
H            9.46915954815657       -3.58520656447198       -0.56870424261529
H            9.26690720165592       -2.87935647395218        1.81872469612829
H            8.47439625190710       -0.55522457916735        2.29790023802378
H            7.93895303119777        0.93393828977661        0.38666058914174
H            5.93864057551179       -1.07235193161321       -1.81155405683507
H            3.73967708965715       -1.38981727355299       -0.81146784576943
H            1.63718567929768       -0.25549606707474       -0.16346089604983
H            2.19202806861073        3.21215009422172        3.91898903307425
H           -0.25596576930795       -0.03721125803543       -0.38678269715135
H           -3.83975957177280        0.18827134726743       -0.20444792500560
H           -3.46682993984146       -2.04378801543252       -2.90563873292689
H           -5.14221661596781       -1.41187752482740       -0.45064902408596
H           -5.36328047876048       -3.28843584076965       -2.49721461760412
H           -6.43487599124339       -1.99315562707120       -3.06448751768903
H           -8.10301188689987       -4.02884533142012       -2.66131133255923
H           -6.77879606812038       -4.91062278704023       -1.86130292617706
H           -8.25414373036148       -4.52877862796414       -0.96089443873415
H           -8.61353860204392       -2.33723699112891       -0.13745295792035
H           -7.49857317059231       -1.03523901261551       -0.59150562414024
H           -8.59468029514411       -1.71129703720261       -1.80687626086633
H           -4.22199970216469        3.26973668745533        2.55446133053052
H           -5.66796245289801        2.38443262591094        2.01401166591179
H           -3.78160387325428        1.43711345537710        4.23739013863056
H           -5.37220769736704        2.17709987495243        4.48199185557815
H           -5.23366999485089        0.60325650724850        3.68127956037014
H           -2.19127414816262        2.80123096629573        3.16668469761088
H            3.44864313018518        2.81771145568658       -0.08737387809384
S           -5.82082036301583        0.43109071013579       -1.89618724697503
C           -4.69334223958839        1.02224594964906       -3.16508176700749
H           -3.82993841311991        0.34744971748175       -3.15203632344517
H           -4.38273509585057        2.03386534804151       -2.91914397169595
H           -5.18145295430271        1.00369723695943       -4.13746448274989