45
 
C           -1.93339892230159       -3.29471134462143        1.21359180317454
N           -2.46918482108717       -2.14281458755237        0.80921537116360
C           -1.65189747993851       -1.17414875880622        0.43321804412891
N           -2.14710672911411        0.01682004376977        0.02661388461248
C           -3.46134324046982        0.45830458940697       -0.10617437576458
C           -3.65010569131167        1.76611868082425       -0.55582994351428
C           -4.92786743402241        2.26260339197692       -0.71694099074276
C           -6.02758419283889        1.47002362398357       -0.43544637981772
C           -5.85369610568518        0.16698398197983        0.01288980550450
C           -7.03407991393505       -0.69605006443680        0.34174818959646
C           -4.56939119483010       -0.33264246983556        0.17632323445559
C           -0.22402175098075       -1.37369098720138        0.45205297935284
C            0.72766535199649       -0.42476986564403        0.05446220378519
C            2.07205362250821       -0.72170802454527        0.11326190150039
N            3.06443102120881        0.17946043282030       -0.28244630445121
C            2.93145042086804        1.48062405752463       -0.63951199264334
O            1.88056186793448        2.08229038656394       -0.71474228181533
C            4.26042683412153        2.15032740013438       -0.98080654995292
C            5.31500405621212        2.04754833259864        0.11692015662651
S            6.18656999440892        0.44033907424986        0.18484379203584
C            7.28090085808547        0.61097476353151       -1.25164843530537
C            2.49576324148718       -1.98314393336133        0.57538178426684
C            1.58508713478688       -2.92313675410619        0.96390205300856
C            0.20523597717412       -2.64545231378518        0.90922350474124
N           -0.67307417329871       -3.60248472991958        1.29192990828535
H           -2.64601644548991       -4.05441510496957        1.51159032572404
H           -1.45633663150207        0.71095170422991       -0.22600622849878
H           -2.79385992229764        2.38779302001706       -0.77849787767377
H           -5.06759277819357        3.27536780186153       -1.06536417205491
H           -7.02422593102829        1.86572326046204       -0.56568451736105
H           -7.91368985265010       -0.38263964373414       -0.21563373984526
H           -7.26275359510698       -0.62170031805336        1.40526669078538
H           -6.82301832741926       -1.73873348809193        0.11738676674515
H           -4.41566518636901       -1.34040573873910        0.52291208841956
H            0.43802215215595        0.54944420151978       -0.30323338234133
H            4.01323511212253       -0.17764320973105       -0.20620293693846
H            4.04329116715920        3.20428750216602       -1.16638330660686
H            4.63523025147296        1.71853091647992       -1.91256244395457
H            4.86485231595539        2.17341918402147        1.10130978885639
H            6.08353081281131        2.80921230779719       -0.01706971917612
H            7.86712936277122       -0.30015735761781       -1.30495562423150
H            7.93427631305007        1.46633840714178       -1.10408313243909
H            6.69538544475311        0.72623391115289       -2.15915464861335
H            3.55512073885240       -2.19498934350085        0.61946312224023
H            1.89068626796550       -3.89428293796227        1.31855577774910