25
Properties=species:S:1:pos:R:3:charge:R:1:forces:R:3 energy=-24930.944699944306 pbc="F F F"
O        0.48077289       0.51898518      -1.51402909      -0.35768434      -0.00200042      -0.00191271       0.00436385
C        0.78613233      -0.43064835      -0.75421826       0.09142871       0.00181499      -0.00421438      -0.00103788
C        1.93800164      -1.21177068      -0.80598606      -0.21542861       0.00368667      -0.00271923      -0.00150706
C        2.98670950      -0.92533556      -1.75462369      -0.05185834       0.00264457       0.00072337      -0.00126883
N       -0.11835224      -0.77862732       0.31371645      -0.12646629      -0.00269915      -0.00255035      -0.00675394
C       -1.39683067      -0.36151654       0.55216930       0.04093815       0.00111474       0.00805331       0.00548304
C       -2.09727219       0.54523341      -0.27086303      -0.07209338      -0.00331669      -0.00244398      -0.00159071
C       -3.39499944       0.90895183       0.04381983      -0.06798951       0.00117365       0.00755283       0.00469803
C       -4.04855524       0.40913956       1.16650224      -0.10480242      -0.00018779       0.00044705       0.00025950
C       -3.36201636      -0.48284968       1.98506737      -0.07107054      -0.00177770       0.00092292       0.00256500
C       -2.06763703      -0.86266655       1.68740812      -0.08974219      -0.00454340      -0.00094942      -0.00113752
H        2.11992234      -1.96582291      -0.04520173       0.00957276      -0.00245442       0.00152197       0.00120958
H        2.61140727      -0.35209524      -2.59615366       0.01948526       0.00034401      -0.00028483      -0.00099693
H        3.54180307      -1.79127251      -2.10585858       0.01343643       0.00253787       0.00063028       0.00348402
H        0.21306102      -1.50435930       0.92680607       0.11197074       0.00355103       0.00503996       0.00079660
H       -1.58641372       0.93586263      -1.13414879       0.01748729       0.00024600       0.00030101       0.00122769
H       -3.90752499       1.60682219      -0.60962846       0.01219713       0.00006561       0.00052620      -0.00105331
H       -3.84160007      -0.88737149       2.86943935       0.01389913      -0.00026757      -0.00546045       0.00034779
H       -1.54880706      -1.55750899       2.33923927       0.01687361       0.00131879      -0.00261357      -0.00112004
H       -5.06267970       0.70669821       1.39988359       0.01494157       0.00096049      -0.00188916      -0.00239625
S        4.47675898       0.18500150      -1.12187936      -0.19036904      -0.00306367       0.00016188       0.00171466
C        3.47226666       1.60545184      -0.59874855      -0.08035192      -0.00169049      -0.00592512      -0.00166743
H        2.84065445       1.95386771      -1.41172867       0.02344021       0.00194212       0.00241046      -0.00784179
H        4.13681802       2.40592282      -0.27346081       0.01784457       0.00206057       0.00293959       0.00293299
H        2.81519777       1.31232584       0.21585523       0.02434109      -0.00145950      -0.00026770      -0.00071058
