29
Properties=species:S:1:pos:R:3:charge:R:1:forces:R:3 energy=-36834.39381759147 pbc="F F F"
O       -1.29367798       2.86245955       0.14838517      -0.34851348      -0.00191170      -0.00219525       0.00045058
C       -1.69692478       1.78340425       0.60112834       0.16934042       0.00057782       0.00168683       0.00121476
C       -2.96878503       1.75875644       1.35887397      -0.05073111       0.00476333       0.00108058       0.00116134
C       -3.38230567       0.85388103       2.24291184      -0.07847022      -0.00186059      -0.00156228       0.00269388
N       -1.05179996       0.59171975       0.43368155      -0.09577015      -0.00215227      -0.00191354      -0.00146128
C        0.20210700       0.40941238      -0.13311318       0.04346199      -0.00278697      -0.00214747      -0.00101769
C        1.14636594       1.43782523      -0.29026536      -0.05485192       0.00168011      -0.00344763       0.00453270
C        2.40165387       1.16518576      -0.80460786      -0.04587882       0.00097618      -0.00114714       0.00037329
C        2.76394405      -0.12384258      -1.18891684      -0.01838554       0.00116247      -0.00028867      -0.00012514
S        4.38588232      -0.46604624      -1.85067022      -0.10026218       0.00006692       0.00101422      -0.00406327
C        5.28848759      -0.81844346      -0.29535845      -0.07678527       0.00005536      -0.00154463      -0.00049297
C        1.81818200      -1.14158361      -1.05433922      -0.04965061      -0.00205432       0.00172043      -0.00215776
C        0.56414709      -0.88550014      -0.53959796      -0.05286021       0.00138465      -0.00132567       0.00449904
H       -3.56203307       2.64627092       1.17447232       0.02100773      -0.00352155      -0.00241931       0.00174725
H       -4.33831980       0.97882360       2.74095779       0.02214404      -0.00054764       0.00520853      -0.00590911
H       -2.82217595      -0.03831779       2.48373433       0.02445890       0.00688522      -0.00032160      -0.00289548
H       -1.59553536      -0.30609032       0.63474609       0.08128016      -0.00565646       0.00034798       0.00387851
H        0.88077465       2.44375826      -0.01408825       0.02715104       0.00195745       0.00345764      -0.00326941
H        3.11608225       1.97115781      -0.92079887       0.02577050      -0.00118267      -0.00232756      -0.00009190
H        5.28200782       0.05279636       0.35542860       0.02768809      -0.00221164      -0.00194378       0.00159851
H        6.31696398      -1.06406408      -0.55738118       0.02609894       0.00069308       0.00540296      -0.00446166
H        4.83962923      -1.66230811       0.22300803       0.02762334      -0.00424106      -0.00230155       0.00569601
H        2.07993046      -2.14529078      -1.36669616       0.02514480      -0.00041365       0.00089801       0.00053296
H       -0.15905889      -1.68656281      -0.43672182       0.02848023       0.00382733       0.00462078      -0.00057016
S       -2.49564139      -2.18854195       0.83654935      -0.52465630      -0.00167158      -0.00264555       0.00037073
C       -3.73010579      -1.69049509      -0.42065500      -0.12224866       0.00556185      -0.00192862      -0.00384841
H       -3.25557243      -1.31119596      -1.33091726       0.02448726       0.00251639       0.00126489      -0.00534143
H       -4.35156401      -2.54228859      -0.70912633       0.01927870       0.00208006      -0.00018339       0.00313058
H       -4.39118956      -0.91172938      -0.03535857       0.02564833      -0.00397666       0.00294093       0.00382541
