20
Properties=species:S:1:pos:R:3:charge:R:1:forces:R:3 energy=-13010.320252517024 pbc="F F F"
C        4.12861019      -0.07828750      -1.11868169      -0.05219339       0.00273798       0.00134225      -0.00064562
C        3.00216013       0.52875418      -0.76726208      -0.04176432       0.00320796       0.00203992      -0.00033568
C        1.74286278      -0.23691232      -0.57398088       0.17918769       0.00271781      -0.00380186      -0.00334526
O        1.67463397      -1.44807150      -0.73073350      -0.29281089       0.00003305      -0.00569736       0.00065092
N        0.67273571       0.54555076      -0.20521878      -0.09737340       0.00076989      -0.00178815       0.00116985
C       -0.65182989       0.17232777       0.05686536       0.04474257      -0.00457716      -0.00142584       0.00019731
C       -1.54242670       1.18651296       0.41620372      -0.05103692      -0.00205355       0.00228338      -0.00096600
C       -2.86622806       0.89671238       0.68775891      -0.03595085       0.00050564      -0.00352308       0.00110218
C       -3.32471893      -0.41051361       0.60737155      -0.04584152      -0.00072909       0.00451613       0.00233989
C       -2.44060667      -1.41806442       0.25161729      -0.03841880      -0.00606755       0.00228730       0.00442948
C       -1.11119533      -1.14290374      -0.02479499      -0.04495905      -0.00438880      -0.00231206      -0.00321976
H       -0.42650794      -1.92506281      -0.30259361       0.03788067       0.00304100      -0.00008899       0.00272929
H        5.05115884       0.46803657      -1.26295996       0.04379264      -0.00211036      -0.00102153       0.00091697
H        4.14023455      -1.14937705      -1.26898555       0.04197592       0.00169322       0.00534661      -0.00035956
H        2.98815558       1.60286137      -0.61618974       0.04327074      -0.00249061       0.00205335       0.00213322
H        0.85644839       1.52968083      -0.10554127       0.13783963       0.00432505      -0.00016590      -0.00233522
H       -1.19405862       2.21035418       0.48290066       0.04272525      -0.00035941       0.00033328      -0.00133685
H       -3.54193593       1.69571797       0.96339319       0.04356921       0.00352135      -0.00653741      -0.00009528
H       -4.35955792      -0.63933240       0.82056964       0.04309218      -0.00008115       0.00107673      -0.00107777
H       -2.78683590      -2.44112906       0.18684730       0.04227262       0.00030404       0.00508249      -0.00195205
