26
Properties=species:S:1:pos:R:3:charge:R:1:forces:R:3 energy=-37451.70558560584 pbc="F F F"
C       -3.94746972       0.79550095      -0.28946555      -0.03411727       0.00088306      -0.00330033       0.00101070
C       -4.67105637      -0.38518510      -0.22158405      -0.04910021      -0.00139730      -0.00384794       0.00336234
C       -3.98035166      -1.55989219       0.02771026       0.03711704       0.00101222      -0.00332538       0.00079470
Cl      -4.85804916      -3.07853615       0.12240672      -0.08020560      -0.00046633       0.00194498      -0.00132255
C       -2.61103523      -1.56986094       0.20588714      -0.05238893       0.00136746      -0.00070678       0.00170598
C       -1.89671024      -0.37157915       0.13499862       0.05373088      -0.00062953       0.00067509      -0.00281290
N       -0.51246188      -0.45085073       0.32838588      -0.09010623      -0.00172882       0.00528038      -0.00277097
C        0.43295992       0.54619753       0.30093186       0.17885645       0.00050272       0.00154098       0.00273244
O        0.17651856       1.72092786       0.09529567      -0.27649927      -0.00304274       0.00234160       0.00324064
C        1.84406352       0.04026665       0.55535847      -0.04133756       0.00413534       0.00203742       0.00034449
C        2.83501233       1.18154084       0.65661602      -0.02875158       0.00553118      -0.00194535       0.00207044
S        4.56457691       0.65599732       0.93178114      -0.09551006      -0.00836123      -0.00049595       0.00388091
C        5.00116751       0.09895577      -0.74250298      -0.06811915       0.00163830       0.00024549      -0.00508187
C       -2.57300888       0.82226544      -0.11654230      -0.04419834       0.00057849       0.00098688       0.00434172
H       -4.47074981       1.72246837      -0.48199310       0.04229535       0.00376347      -0.00299929      -0.00252230
H       -5.74157198      -0.40014659      -0.35636119       0.04415530      -0.00130262       0.00112677      -0.00171809
H       -2.10303672      -2.50528958       0.39908416       0.04347102      -0.00694802      -0.00256694      -0.00059270
H       -0.16865771      -1.38028224       0.51028831       0.14334865       0.00295867       0.00617583      -0.00113438
H        2.12368929      -0.63986561      -0.25386240       0.04005268      -0.00210894       0.00303921      -0.00569684
H        1.86064524      -0.56676741       1.46429173       0.04241027      -0.00327968       0.00375487       0.00250591
H        2.77691688       1.80701145      -0.23076412       0.03529976      -0.00223402      -0.00657200       0.00127867
H        2.59011945       1.81496426       1.50535017       0.04187001      -0.00023479      -0.00177964      -0.00085767
H        4.39776717      -0.74807737      -1.06010259       0.03866349       0.00470143      -0.00510350      -0.00215890
H        4.90791842       0.90603610      -1.46589805       0.03840324      -0.00201792      -0.00185799      -0.00497259
H        6.03964264      -0.21692001      -0.70603021       0.04256565       0.00303589       0.00352212       0.00444918
H       -2.02180421       1.74440970      -0.17189451       0.03809448       0.00364435       0.00182921      -0.00007653
