29
Properties=species:S:1:pos:R:3:charge:R:1:forces:R:3 energy=-26016.14564948835 pbc="F F F"
C       -3.00623469       2.00221525       0.50624360      -0.04234659      -0.00119411      -0.00247878       0.00438658
C       -1.70609797       1.54266262       0.36705542      -0.04914961      -0.00276484       0.00109952      -0.00082400
C       -1.49691369       0.18854646       0.11062869       0.04621882       0.00682007       0.00043923       0.00507632
N       -0.22317637      -0.37855432      -0.04674317      -0.09224155       0.00645242      -0.00265974      -0.00452270
C        1.01039363       0.21469807       0.00238249       0.17592917       0.00474283       0.00359264       0.00698839
O        1.19593210       1.40410823       0.20437853      -0.28065473      -0.00062703       0.00836388      -0.00024510
C        2.15807230      -0.76271069      -0.22104055      -0.04036304      -0.00496210       0.00332005      -0.00051783
C        3.48968273      -0.05414809      -0.15598096      -0.02865840      -0.00609778      -0.00093108      -0.00022179
S        4.84136281      -1.25787257      -0.42920781      -0.10153697      -0.00185597       0.00068486       0.00349106
C        6.25612912      -0.12488335      -0.28734784      -0.06704593      -0.00328783      -0.00001446       0.00045839
C       -2.59173016      -0.66963707       0.00205266      -0.05857133       0.00246655       0.00275079       0.00044277
C       -3.89269695      -0.20853495       0.14575145       0.00464570      -0.00228627      -0.00568101      -0.00037341
C       -5.05265142      -1.15368390       0.06232727      -0.07347631       0.00058049      -0.00265851      -0.00008384
C       -4.09037179       1.14600426       0.39928984      -0.05425806      -0.00214318      -0.00462371       0.00072027
H       -3.17109095       3.05312904       0.70400328       0.03969714       0.00066143       0.00260565       0.00093031
H       -0.86483690       2.20841133       0.45350148       0.03640847       0.00003206      -0.00139111      -0.00401501
H       -0.22381505      -1.37032953      -0.22346036       0.14198321      -0.00219037      -0.00411730      -0.00056354
H        2.11039894      -1.55904271       0.52640682       0.04020622      -0.00394409      -0.00061645      -0.00192006
H        2.03303254      -1.25775578      -1.18766358       0.04022177      -0.00073752      -0.00126895       0.00118194
H        3.53497235       0.72474206      -0.91346023       0.03392415      -0.00059789       0.00387355       0.00176213
H        3.61214602       0.42001852       0.81504385       0.03390726       0.00107478       0.00133091      -0.00308603
H        6.29152088       0.33879301       0.69641645       0.03750547       0.00130920      -0.00215783      -0.00167327
H        6.21935477       0.64780679      -1.05256430       0.03751605       0.00297440      -0.00132833       0.00045320
H        7.15889358      -0.71327591      -0.42823573       0.04073483      -0.00366613      -0.00403881      -0.00187487
H       -2.42686307      -1.72280273      -0.20003371       0.03805169       0.00198754       0.00274488      -0.00178548
H       -4.84431162      -1.98720677      -0.60604503       0.03516467      -0.00161882       0.00028062       0.00095673
H       -5.94982545      -0.64919528      -0.29176507       0.03460138       0.00842256      -0.00145388       0.00460158
H       -5.28263075      -1.57491014       1.04288073       0.03417380      -0.00064496       0.00440081      -0.00498279
H       -5.09720733       1.52658285       0.51138420       0.03741271       0.00109512      -0.00006691      -0.00476014
