25
Properties=species:S:1:pos:R:3:charge:R:1:forces:R:3 energy=-24931.23831547003 pbc="F F F"
O        0.10457744       2.39235036      -1.26990843      -0.35352811      -0.00849080      -0.00262904       0.00370900
C        0.66424958       1.29483315      -1.15054462       0.16685994      -0.00593521      -0.00201207       0.00225965
C        2.02318088       1.12202271      -1.71043103      -0.05244798       0.00065046      -0.00592609      -0.00444727
C        2.62098678      -0.01352091      -2.06254183      -0.07882697       0.00226529      -0.00270138      -0.00264735
N        0.11470108       0.22012946      -0.51480894      -0.09562945      -0.00288682       0.00175588       0.00446560
C       -1.16712225       0.15193891       0.02738227       0.04598212      -0.00056517       0.00241441       0.00507698
C       -1.41423083      -0.83967320       0.98762523      -0.05579725       0.00149658      -0.00109733       0.00098306
C       -2.67296298      -0.99322279       1.53704517      -0.05597407       0.00100572      -0.00253837      -0.00479290
C       -3.72327507      -0.16991311       1.14866926      -0.07313678      -0.00287978       0.00125159      -0.00241862
C       -3.48353891       0.81529423       0.20050265      -0.05420628       0.00009309      -0.00359148      -0.00026822
C       -2.22547205       0.98772575      -0.35700550      -0.05547028      -0.00172234       0.00066063       0.00027315
H        2.50856680       2.07340447      -1.89011148       0.01988325       0.00675267      -0.00518728       0.00214929
H        3.62001434       0.00220812      -2.48741718       0.02061330      -0.00467032       0.00030231       0.00125171
H        2.16314540      -0.98350939      -1.92936892       0.02277825       0.00476535       0.00610989      -0.00106971
H        0.75483884      -0.58691687      -0.25607138       0.08048160       0.00236743       0.00049320      -0.00025053
H       -0.59472714      -1.48162100       1.28829425       0.02434959       0.00204051       0.00106460       0.00600978
H       -2.83748121      -1.76683748       2.27870647       0.02008490       0.00350481      -0.00227863      -0.00308933
H       -4.70896841      -0.29611043       1.57932227       0.02157134      -0.00505770       0.00778483      -0.00270548
H       -2.04702489       1.76801731      -1.07719071       0.02409076       0.00348291       0.00750949      -0.00336985
H       -4.28802051       1.47011704      -0.11540462       0.01979629      -0.00117851      -0.00521347       0.00233573
S        1.92085273      -2.19344616       0.51730956      -0.53114933      -0.00216622       0.00574607       0.00236925
C        2.98973085      -0.95253187       1.33567368      -0.12044202       0.00137344       0.00240701      -0.00450519
H        3.19299716      -1.22849065       2.37445396       0.01729458      -0.00051316      -0.00107525       0.00089731
H        2.52344295       0.03922853       1.34635013       0.02132749       0.00183090      -0.00166292       0.00098645
H        3.94835261      -0.84906607       0.82134913       0.02149522       0.00443698      -0.00158645      -0.00320254
