30
Properties=species:S:1:pos:R:3:charge:R:1:forces:R:3 energy=-19294.601704384615 pbc="F F F"
O        3.39096994      -0.67452690       0.80491754      -0.29658011       0.00202318       0.00115443       0.00328271
C        2.62934011      -0.20470120      -0.02966600       0.18067865      -0.00121667      -0.00535048       0.00203591
C        3.09350993       0.37458931      -1.31547011      -0.04407747      -0.00333194      -0.00111981       0.00525879
C        4.38361625       0.41814620      -1.62073994      -0.05667561      -0.00606442       0.00312886       0.00147519
N        1.26462439      -0.15280532       0.11092505      -0.10111607      -0.00044520      -0.00071420      -0.00067536
C        0.44570396      -0.59220842       1.15261056       0.04653250       0.00085540      -0.00272912      -0.00114972
C        0.94726010      -1.19712598       2.30676351      -0.04967190      -0.00407934       0.00357355       0.00304179
C        0.07389289      -1.60766811       3.29938367      -0.03943087      -0.00129139      -0.00532573      -0.00068015
C       -1.29406216      -1.42608186       3.16548868      -0.04752732       0.00144983       0.00111438      -0.00113628
C       -1.79036068      -0.82563802       2.01961822      -0.03414730       0.00149433       0.00050286       0.00033965
C       -0.94219390      -0.40474432       1.00452158      -0.01083509       0.00291528       0.00127652       0.00231718
C       -1.49813484       0.22984515      -0.21644509       0.00199657       0.00347682      -0.00079161       0.00052964
C       -1.84368126      -0.54317805      -1.32474269      -0.03679356       0.00056329      -0.00053275      -0.00058246
C       -2.32013693       0.05206829      -2.48368388      -0.03331413      -0.00127007       0.00059374      -0.00058987
C       -2.47200020       1.43046972      -2.54567992      -0.03291340       0.00173435       0.00200873      -0.00158177
C       -2.15070021       2.20937845      -1.44245395      -0.03329846       0.00215781       0.00143077      -0.00011771
C       -1.67384738       1.61173935      -0.28471323      -0.03687582      -0.00198699      -0.00089987       0.00169010
H        2.35264090       0.76363802      -2.00541112       0.04357694       0.00777314       0.00204462      -0.00187234
H        5.11537045       0.02774830      -0.92707786       0.04126097      -0.00319235       0.00131932      -0.00612791
H        4.73616125       0.83741844      -2.55312010       0.04335651      -0.00294776      -0.00159199       0.00109905
H        0.75623663       0.26505133      -0.65298048       0.12390356      -0.00029037      -0.00046322      -0.00331925
H        2.01117579      -1.33400569       2.40565364       0.03934539      -0.00826778      -0.00244611       0.00089925
H        0.47271735      -2.07761909       4.18879039       0.04378919       0.00134401       0.00362308       0.00341601
H       -1.97174716      -1.74814215       3.94374756       0.04399661       0.00691994       0.00012100      -0.00041272
H       -2.85589784      -0.67820888       1.90462916       0.04142280       0.00041165      -0.00227851       0.00075745
H       -1.74020674      -1.61854800      -1.26980878       0.03879289       0.00418965      -0.00216017      -0.00373656
H       -2.57368155      -0.56250495      -3.33753206       0.04189065      -0.00406480      -0.00330975      -0.00014642
H       -2.84297372       1.89510397      -3.44920904       0.04203895       0.00249164       0.00399121      -0.00160852
H       -2.27116017       3.28416155      -1.48065469       0.04188041      -0.00472040       0.00103737       0.00048531
H       -1.43770710       2.21622996       0.58080778       0.03879448       0.00336931       0.00279310      -0.00289019
