35
Properties=species:S:1:pos:R:3:charge:R:1:forces:R:3 energy=-31215.645278282413 pbc="F F F"
O        2.75457283       0.94878895      -2.69962176      -0.34450829       0.00005488      -0.00034258       0.00173456
C        3.09336371       0.08434753      -1.88091726       0.16870008       0.00054711      -0.00035237       0.00058906
C        4.45449151      -0.49057175      -1.97928380      -0.04953141       0.00121887       0.00205534       0.00262414
C        4.89917774      -1.64342132      -1.48575473      -0.07706317      -0.00143621       0.00293276      -0.00043431
N        2.29931304      -0.37170624      -0.86881048      -0.09682573       0.00034762      -0.00100952      -0.00068429
C        0.95539422      -0.08103332      -0.67961125       0.04115597      -0.00063640      -0.00342899      -0.00232181
C        0.37909975      -0.39754450       0.56099995      -0.05853892      -0.00001671       0.00284158       0.00058210
C       -0.96633076      -0.20767394       0.78199701      -0.04830673      -0.00141647      -0.00510933      -0.00017340
C       -1.81013088       0.32334705      -0.19950501      -0.01889611       0.00002250      -0.00049649       0.00009764
C       -3.24704340       0.49504820       0.04101681      -0.00005363      -0.00134548       0.00035002       0.00119100
C       -3.94702415       1.60340459      -0.45435950      -0.04308334      -0.00060908       0.00021146      -0.00178000
C       -5.30242805       1.76471514      -0.21672414      -0.05061853       0.00060600      -0.00009954       0.00180249
C       -6.00815173       0.81526221       0.51161105      -0.05705619       0.00045255      -0.00033119      -0.00137378
C       -5.33352222      -0.29498628       1.00370296      -0.05105334      -0.00201014      -0.00214803       0.00036085
C       -3.97552840      -0.44849353       0.77772461      -0.04264932      -0.00118726       0.00022381       0.00194262
C       -1.22076109       0.66941577      -1.41624185      -0.04534112       0.00101051       0.00502446       0.00169997
C        0.12425572       0.47715393      -1.66472946      -0.05870547       0.00049747      -0.00116866      -0.00177190
H        5.10346424       0.12143947      -2.59359846       0.02422123      -0.00199559       0.00372784       0.00117855
H        4.28803191      -2.30557098      -0.88930970       0.02594003       0.00079499      -0.00093353      -0.00237775
H        5.92868081      -1.94274236      -1.65118548       0.02558205       0.00112185       0.00112205      -0.00289936
H        2.76372176      -0.91231280      -0.07264498       0.08254758       0.00109954      -0.00128215      -0.00181297
H        1.01243167      -0.79958839       1.34260061       0.02809654       0.00064490      -0.00137908       0.00348514
H       -1.37414848      -0.45289385       1.75488817       0.02902188       0.00052729      -0.00048925       0.00274302
H       -3.41299489       2.36100130      -1.01299595       0.02644033       0.00430590       0.00091098      -0.00088114
H       -5.81063481       2.64026753      -0.60199123       0.02427138       0.00014477      -0.00238647      -0.00124220
H       -7.06882540       0.93807976       0.69325124       0.02556157       0.00165602       0.00442097      -0.00279370
H       -5.86852393      -1.04954317       1.56707940       0.02433602      -0.00139641       0.00338172      -0.00046100
H       -3.47108579      -1.32781293       1.15645969       0.02646393      -0.00083406      -0.00010890       0.00130243
H       -1.83554237       1.07802873      -2.20910075       0.02915346       0.00024762      -0.00283172       0.00083389
H        0.54339102       0.75973606      -2.61491945       0.02810369      -0.00136165      -0.00502758       0.00109199
S        3.46802042      -1.86191693       1.66095220      -0.52118814      -0.00208048       0.00186679      -0.00090098
C        4.47745993      -0.37356949       1.99716248      -0.12245919      -0.00009827       0.00427855       0.00495807
H        5.20283120      -0.19858431       1.19944386       0.02724038      -0.00287473       0.00232307       0.00056450
H        5.03488227      -0.49023334       2.93020852       0.02242875      -0.00178168       0.00082969      -0.00443182
H        3.85973144       0.52424666       2.09753507       0.02661376       0.00577998      -0.00757607      -0.00244191
