35
Properties=species:S:1:pos:R:3:charge:R:1:forces:R:3 energy=-31215.645497230864 pbc="F F F"
O        2.45996864      -2.29448410      -1.94069198      -0.34493703      -0.00158161       0.00679436       0.00220228
C        2.93285401      -1.19859407      -1.61238401       0.16706093      -0.00262004      -0.00276171      -0.00588717
C        4.33804458      -0.89901315      -1.96710588      -0.04959803       0.00402583      -0.00563415      -0.00621678
C        4.92018400       0.29146821      -2.08513836      -0.07619377       0.00789583       0.00086851       0.00015376
N        2.24990033      -0.24000489      -0.92245373      -0.09611585       0.00193291      -0.00254890      -0.00026097
C        0.90120999      -0.27344040      -0.59495359       0.04049001       0.00127667      -0.00283472       0.00426114
C        0.44348031       0.58166615       0.41946272      -0.05822474      -0.00133721       0.00361075      -0.00337263
C       -0.88854156       0.61115157       0.76776985      -0.04807842       0.00135453      -0.00042022       0.00284659
C       -1.83970305      -0.18569927       0.12180120      -0.01900603       0.00114782      -0.00163597      -0.00192698
C       -3.25624152      -0.14889973       0.50171970      -0.00000033       0.00123961      -0.00798618       0.00055279
C       -4.27252829      -0.24509436      -0.45835928      -0.04293522      -0.00086537       0.00093359       0.00178118
C       -5.60981354      -0.21224066      -0.09812634      -0.05063482       0.00045361      -0.00510702      -0.00048894
C       -5.97662112      -0.09765143       1.23669099      -0.05695457       0.00010340       0.00228374       0.00630511
C       -4.98354439      -0.00713842       2.20386355      -0.05091944      -0.00142997       0.00048559       0.00363061
C       -3.64646808      -0.02454137       1.84164564      -0.04257928      -0.00185323      -0.00783968       0.00151499
C       -1.37579780      -1.02390745      -0.89288319      -0.04517892      -0.00064262      -0.00192527      -0.00416007
C       -0.04150269      -1.08791761      -1.24222840      -0.05872585       0.00279717      -0.00258185       0.00338232
H        4.88843515      -1.79894000      -2.21342289       0.02417178       0.00039182       0.00864040       0.00106799
H        4.41040672       1.22223418      -1.87931203       0.02651080       0.00194236      -0.00799179       0.00154423
H        5.96354273       0.35774245      -2.37477110       0.02557760      -0.00382454       0.00400229       0.00002134
H        2.81039781       0.55054729      -0.46950708       0.08262528      -0.00241000       0.00521235       0.00793888
H        1.15733872       1.22475726       0.92000954       0.02789689       0.00122591      -0.00530837       0.00136842
H       -1.20955218       1.29418656       1.54447410       0.02903108       0.00048613       0.00538656       0.00482224
H       -4.00603561      -0.32388836      -1.50425356       0.02652176      -0.00231317       0.00274739      -0.00499381
H       -6.37139084      -0.27738179      -0.86553619       0.02435744       0.00316733       0.00086147      -0.00323946
H       -7.02172982      -0.08007198       1.52010069       0.02560140      -0.00293939       0.00317224      -0.00277911
H       -5.25175501       0.07476069       3.24992139       0.02434115       0.00181491       0.00309279      -0.00029600
H       -2.88752490       0.02929109       2.61130834       0.02648899       0.00026264       0.00760407      -0.00320834
H       -2.07261059      -1.67456247      -1.40710225       0.02933296      -0.00149061      -0.00117370       0.00091016
H        0.28488600      -1.77325995      -2.00521698       0.02845080      -0.00299478      -0.00014273      -0.00007416
S        3.70229726       2.10018557       0.60817281      -0.51780945       0.00251224       0.00648482      -0.00424398
C        4.65066988       0.86834188       1.56948812      -0.12171747      -0.00384233      -0.00835939       0.00330850
H        4.08073637       0.49552470       2.42637484       0.02497124      -0.00011028       0.00065418      -0.00802856
H        4.92988043       0.00601289       0.95794261       0.02446658       0.00329630       0.00175849       0.00235488
H        5.57673002       1.30328493       1.95374108       0.02171256      -0.00707181      -0.00034218      -0.00079078
