30
Properties=species:S:1:pos:R:3:charge:R:1:forces:R:3 energy=-28061.96764957355 pbc="F F F"
C       -3.85627723       0.87237527      -0.86106083      -0.05255057       0.00046134      -0.00318121      -0.00233218
C       -3.74059537      -0.50562216      -0.85870936      -0.05349035       0.00171134      -0.00297218       0.00033771
C       -2.52884153      -1.11333693      -0.55637676      -0.04543193       0.00109922       0.00081984      -0.00353654
C       -1.41737679      -0.33681083      -0.24949341       0.03399872      -0.00064510       0.00112794      -0.00236985
N       -0.15371639      -0.84021391       0.06635643      -0.10367472      -0.00013464      -0.00228637      -0.00030169
C        0.26265830      -2.13723852       0.11921793       0.17032620      -0.00130212      -0.00311851       0.00464611
O       -0.41634490      -3.09887747      -0.21624003      -0.29357612       0.00060905       0.00151166       0.00199420
C        1.68805543      -2.29921884       0.63357700      -0.04315652       0.00548576       0.00019326       0.00027170
C        2.76585049      -1.69786922      -0.26509064      -0.02602780       0.00348606       0.00412900      -0.00284309
S        2.95805349       0.12181362      -0.21310283      -0.06209449      -0.00214339      -0.00742664      -0.00183014
C        3.62677923       0.32319815       1.46374768      -0.06393629       0.00042233      -0.00040721       0.00471488
C       -1.54470287       1.06705932      -0.24555619       0.06352786      -0.00035680       0.00372783      -0.00615350
O       -0.40580240       1.74558722       0.08606664      -0.12865825       0.00049094       0.00156967       0.00045893
C       -0.41563716       3.15732559      -0.00803772       0.02223580       0.00073492       0.00147126       0.00056877
C       -2.75422047       1.66452357      -0.55611772      -0.06306862      -0.00332005       0.00002338       0.00106454
H       -4.79887241       1.34450606      -1.09864571       0.04133784       0.00180485       0.00013489      -0.00057787
H       -4.59522153      -1.12438048      -1.09489300       0.04060309       0.00050874       0.00175560       0.00077916
H       -2.43056346      -2.18611868      -0.55949245       0.03709752      -0.00149991      -0.00006219      -0.00294646
H        0.56188223      -0.13544533       0.21089404       0.10246382       0.00181429      -0.00249415       0.00386241
H        1.76612486      -1.87693080       1.63589227       0.03745893      -0.00067554      -0.00088430      -0.00047468
H        1.85663862      -3.36931605       0.71910968       0.04159342      -0.00032017      -0.00059527       0.00112033
H        2.56037185      -1.93810269      -1.30561290       0.03866728       0.00070814      -0.00431246       0.00417281
H        3.73268583      -2.13175201      -0.01915130       0.03847333      -0.00136125      -0.00044156      -0.00148998
H        2.88153995       0.11406031       2.22651706       0.03678231       0.00325332      -0.00068256      -0.00065502
H        4.49659552      -0.31117616       1.61621722       0.03632753      -0.00251289       0.00432408      -0.00279711
H        3.93376700       1.36113455       1.55078516       0.04116741      -0.00328294      -0.00180495      -0.00231032
H       -1.12529025       3.59947208       0.69391095       0.03518460       0.00186043       0.00318955       0.00133041
H       -0.64964229       3.48514989      -1.02283652       0.03511887      -0.00420293       0.00321381       0.00119164
H        0.58905518       3.47528446       0.24920269       0.04245131       0.00211711       0.00015382      -0.00055399
H       -2.85223018       2.73880427      -0.56337624       0.04084987      -0.00481005       0.00332332       0.00465893
