41
18H_TS (SP=-1276.678743033517,U=-1276.31597438,H=-1276.31503017,G=-1276.38481393)
N   -3.14469834278856      1.20325710877386      2.33045507967783
C   -1.83813274590332      1.69153189959159      2.46967025366596
C   -1.02803165327592      0.93532172428030      3.38704587756255
C   0.31406400331826      1.23707526083888      3.53927439479436
O   -1.45832106260633      2.68452269652483      1.83004866477208
S   1.66337538226677      0.21419644058956      1.88264351405390
C   3.22286349671821      1.11619786403595      2.16161727674544
H   -1.44126750919520      0.03913415282666      3.84166103101005
H   0.64612245793557      2.21241991882045      3.19229743119155
C   1.09647608321184      0.69402428645319      4.71088598817403
H   3.00993627680308      2.10770655736863      2.57741937930168
H   3.87762180336007      0.58440316547615      2.85778912236445
H   3.76069923749587      1.25579278380734      1.22057284902593
C   -4.10317253605441      1.54123571952071      1.38310978012654
C   -5.22799316783250      0.65446725506134      1.29604112977698
C   -6.22332880288135      0.86301807621088      0.39051485222951
C   -6.15197694647041      1.97451955136896     -0.49474542747013
C   -5.05100133696206      2.85707227423175     -0.40685968864505
C   -4.03276986877283      2.64448825505239      0.55178497562449
N   -4.96489001547060      3.93337480871890     -1.25282579948879
C   -5.93346868321644      4.08484389093748     -2.12215822746686
N   -7.03079957143134      3.29757224794736     -2.28761941548460
C   -7.12155248635232      2.26265287545540     -1.47526184722194
H   -5.26963975765519     -0.19818475353601      1.96849874314342
H   -7.07052016601655      0.18583398723439      0.33039574250765
H   -3.20135349000690      3.33076072284072      0.60195305276956
H   -5.86291648404547      4.93698118395819     -2.79536217882330
H   -7.99006704658135      1.61353355332852     -1.58279145911578
H   -3.34534009546380      0.36578006600729      2.85827554932530
H   2.16749029797559      0.75385700781002      4.53528045582369
H   0.82341949774288     -0.33496180305292      4.95081626461746
N   0.84482414758450      1.51416157566045      5.96546645951755
C   1.95982284226110      1.32809141606061      6.94236138786288
C   -0.47021884108888      1.21916854338961      6.60821784425046
H   -1.26114262381662      1.39457012138671      5.88299985161405
H   -0.58296027861939      1.87604060957807      7.47049902017820
H   -0.46043666371092      0.17476636894998      6.92246119504569
H   2.00433952840812      0.27043567557981      7.20502704863698
H   1.75074213421088      1.93157972164047      7.82511259293115
H   2.89052063460763      1.64596801960221      6.47364652402840
H   0.84283235231834      2.49810916966927      5.68790071136658