13
Properties=species:S:1:pos:R:3:charge:R:1:forces:R:3 10_adduct=T (SP=-609.752393616221,U=-609.63926671,H=-609.6383225,G=-609.67793957) energy=-16592.77480711821 pbc="F F F"
C       -2.73166789       0.50153293      -0.00264708      -0.04931156      -0.00026700      -0.00128139       0.00140265
S       -1.44886237      -0.76327682      -0.00518993      -0.07516350       0.00548229       0.00496100       0.00140307
C       -0.00317141       0.31838431      -0.00366706      -0.01913920       0.00066612       0.00121836      -0.00207203
C        1.26691932      -0.53473127      -0.00702754      -0.00423749       0.00016880      -0.00135845      -0.00180757
C        2.47057029       0.29921314      -0.00687097       0.09106053       0.00020760       0.00979424      -0.00024341
N        3.39673614       0.97534300      -0.00660456      -0.27590939       0.00180385      -0.00289360      -0.00006587
H       -3.69010196      -0.00993180       0.00781073       0.04916469      -0.00271742       0.00461415      -0.00250926
H       -2.65584849       1.12629548       0.88241594       0.04767828       0.00351413      -0.00144065       0.00155850
H       -2.66997383       1.11869529      -0.89429354       0.04778662       0.00572310      -0.00574345       0.00127350
H       -0.02693982       0.95463652       0.87905923       0.04479785      -0.00364573      -0.00451085       0.00073359
H       -0.02820888       0.95756497      -0.88416250       0.04473523      -0.00577809       0.00135083      -0.00130688
H        1.29213093      -1.18263867       0.86834347       0.04929003      -0.00542181      -0.00132858       0.00264779
H        1.28855550      -1.17774455      -0.88613256       0.04924772       0.00026404      -0.00338155      -0.00101397
