30
Properties=species:S:1:pos:R:3:charge:R:1:forces:R:3 15_adduct=T (SP=-1103.321659869739,U=-1103.066829,H=-1103.06588479,G=-1103.12483496) energy=-30023.747708638657 pbc="F F F"
N       -2.96874298      -0.17744230       0.04169975      -0.09199265       0.00290936      -0.00244728      -0.00093017
C       -1.99472370       0.66052659       0.51548974       0.20072791       0.00203058      -0.00162091      -0.00461490
C       -1.00396629       0.01839456       1.46809107      -0.02975941      -0.00518942       0.00219764      -0.00028761
C        0.42033956       0.34606773       1.04627989      -0.02380599      -0.00197082       0.00423871       0.00220967
O       -1.90287858       1.83255504       0.22157479      -0.29158029      -0.00100174       0.00211148       0.00573798
S        0.84235275      -0.51706889      -0.49060553      -0.08999047      -0.00518887      -0.00176619      -0.00814101
C        2.50967645       0.13452988      -0.70128326      -0.05557978      -0.00419163      -0.00452888       0.00012563
H       -2.99581364      -1.10837879       0.41685354       0.15415359       0.00542347      -0.00375274      -0.00432555
H        0.51963427       1.41527284       0.89188797       0.03986049       0.00168050       0.00765253      -0.00246996
H        1.11713324       0.03448353       1.81804078       0.04659338       0.00522237      -0.00058901      -0.00048620
H        2.49141175       1.21791783      -0.76871002       0.04408783       0.00192209      -0.00604092      -0.00180853
H        3.15523010      -0.16844604       0.11766336       0.04533005      -0.00171805       0.00554122       0.00061820
H        2.90441656      -0.26709723      -1.63020357       0.04632658       0.00097100       0.00017576       0.00456653
C       -4.01099674       0.13008347      -0.85123753       0.05956981       0.00311687      -0.00424339       0.00042860
C       -5.10406227      -0.69467453      -0.88996568      -0.04044785       0.00140376      -0.00219316       0.00035134
C       -6.15295155      -0.42434675      -1.78737081      -0.01410619      -0.00354441       0.00057358       0.00325131
C       -6.09278405       0.67916956      -2.65343225       0.03679162       0.00233459      -0.00189664      -0.00541431
C       -4.95134852       1.50537695      -2.59852696      -0.04282076      -0.00210913       0.00193956       0.00541194
C       -3.94203450       1.24624603      -1.72152533      -0.03881246       0.00330406      -0.00324578      -0.00101460
H       -5.18785301      -1.55872624      -0.24068585       0.05713394      -0.00320663      -0.00145149       0.00168881
H       -3.07368843       1.88021389      -1.67766615       0.03560265      -0.00139175       0.00040531      -0.00169286
H       -1.19400466       0.45290164       2.45051754       0.05659908       0.00168131      -0.00130551       0.00202046
H       -1.13473436      -1.06195800       1.53468614       0.04686222      -0.00173855       0.00246726       0.00332330
N       -7.10722081       0.94817760      -3.52334743      -0.21676540      -0.00503787       0.00491720       0.00305578
C       -8.12312754       0.13572699      -3.50298067       0.09427968       0.00361528       0.00023706      -0.00346202
N       -8.29153264      -0.96474524      -2.71372412      -0.21721673      -0.00217900       0.00280987       0.00032072
H       -8.93603199       0.34589720      -4.18675885       0.04089848       0.00483490      -0.00339075      -0.00371443
C       -7.32089457      -1.22195977      -1.88465138       0.05319307      -0.00034140       0.00024107      -0.00088679
H       -7.42273146      -2.09085607      -1.24251837       0.05114048      -0.00104751       0.00024485       0.00233023
H       -4.89912794       2.35034578      -3.26855236       0.04372714      -0.00059264       0.00271950       0.00380824
