42
Properties=species:S:1:pos:R:3:charge:R:1:forces:R:3 18H_adduct_1=T (SP=-1277.212340218465,U=-1276.83360526,H=-1276.83266105,G=-1276.90251249) energy=-34756.55782827968 pbc="F F F"
N       -2.64951431      -0.36543524      -0.33852000      -0.09758297       0.00107904      -0.00143491       0.00384656
C       -1.91075400      -0.02895135       0.73789079       0.21462223       0.00700431      -0.00578259      -0.00020503
C       -1.00732185      -1.09929993       1.30641975      -0.03565624       0.00492145      -0.00312938       0.00318555
H       -1.44239483      -1.51739434       2.22191048       0.04441331      -0.00399625       0.00394513       0.00021284
C        0.42789716      -0.62465501       1.61752036      -0.00645955      -0.00053522       0.00109722       0.00037690
O       -1.93589366       1.10030653       1.29058392      -0.26496381       0.00041884      -0.00739607      -0.00154816
S        1.58506499      -2.02765137       1.71520526      -0.16117448      -0.00168288       0.00207464       0.00470814
C        1.75222679      -2.38185943      -0.05781620      -0.07436635       0.00012304      -0.00034314      -0.00545510
H       -0.93149764      -1.92241955       0.59822403       0.03872472       0.00006835      -0.00228705       0.00432486
H        0.75635108       0.02071507       0.80122667       0.03943204       0.00049796      -0.00224290      -0.00174771
C        0.58097850       0.14647215       2.93630488       0.03724189      -0.00442792      -0.00250601      -0.00286754
H        0.82256484      -2.73158021      -0.49447620       0.03588647      -0.00219599      -0.00173580       0.00065364
H        2.09506504      -1.49744191      -0.58716741       0.03577943      -0.00380642      -0.00273143      -0.00320981
H        2.49931009      -3.16387629      -0.16392524       0.03323863       0.00332857       0.00551227      -0.00281277
C       -3.72232064       0.32181468      -0.97282142       0.03413443       0.00133244      -0.00145671       0.00195766
C       -4.62128100      -0.46281349      -1.74345248      -0.06348453       0.00023598      -0.00045536      -0.00069366
C       -5.68897900       0.12212817      -2.36264972      -0.05479738      -0.00066396      -0.00064744      -0.00135454
C       -5.90601770       1.51808765      -2.24705591      -0.04947815      -0.00119875       0.00028062      -0.00082974
C       -4.99328021       2.30375992      -1.49928773       0.01252140       0.00041847       0.00218705      -0.00421734
C       -3.89782296       1.68487334      -0.86731189      -0.09493987      -0.00459843      -0.00242837       0.00359640
N       -5.17858410       3.65529130      -1.39084533      -0.25655943       0.00002963       0.00435172       0.00129868
C       -6.22998608       4.15184353      -1.99580519       0.06316614       0.00209285       0.00031059      -0.00652493
N       -7.16737680       3.50223912      -2.72105586      -0.25506723      -0.00018769      -0.00277260      -0.00200490
C       -6.98771550       2.20367603      -2.83254447       0.01347387       0.00221545      -0.00069091      -0.00481968
H       -4.45787752      -1.53059617      -1.82911080       0.04691801       0.00129276      -0.00049952       0.00354350
H       -6.38316256      -0.46882957      -2.94574034       0.04600298      -0.00600569       0.00162808      -0.00021275
H       -3.20903791       2.29050774      -0.30741230       0.02308716      -0.00562585      -0.00296774       0.00558800
H       -6.37288293       5.21955868      -1.90889747       0.02548219      -0.00315510      -0.00230308       0.00313081
H       -7.72047251       1.65346438      -3.40750676       0.03813326       0.00274101       0.00478061      -0.00290001
H       -2.51835346      -1.30130261      -0.68201681       0.14418115      -0.00185291       0.00938330       0.00251158
H        1.63160439       0.31820466       3.15644112       0.03499856       0.00006753       0.00068094      -0.00255921
H        0.14303983      -0.44132227       3.73680351       0.04011025       0.00432255      -0.00378931       0.00582380
N       -0.09104741       1.47247309       2.93028347       0.08582145      -0.00441177      -0.00168372      -0.00562533
C        0.75650718       2.54957305       2.38581903       0.00793256      -0.00059534       0.00210391      -0.00109059
C       -0.67087965       1.83852882       4.23392554       0.00840994      -0.00156002      -0.00248680      -0.00377499
H       -1.40956914       1.09071455       4.50077699       0.04367692       0.00104957       0.00028897      -0.00334729
H       -1.16534676       2.79855659       4.11993526       0.04575347       0.00373921       0.00120874       0.00111041
H        0.10997890       1.88716797       4.99333418       0.04420510       0.00029058      -0.00239980       0.00336315
H        1.17091386       2.21293465       1.44253979       0.04099970       0.00164097       0.00248931       0.00426106
H        1.56006000       2.77966981       3.08430359       0.04458521       0.00206597       0.00220848       0.00214491
H        0.13170533       3.42111875       2.21461459       0.04615209       0.00095867       0.00680057       0.00051161
H       -0.93060634       1.36595230       2.23205069       0.04544557       0.00456610       0.00283740       0.00165147
