24
Properties=species:S:1:pos:R:3:charge:R:1:forces:R:3 25=T (SP=-593.271824658462,U=-593.06498823,H=-593.06404402,G=-593.11472755) energy=-16143.851222624511 pbc="F F F"
N       -3.18808067       0.29042413       0.21163703      -0.10078539      -0.00037718       0.00173406       0.00376880
C       -1.85058025       0.36412420      -0.07113759       0.17593369       0.00233160      -0.00735118      -0.00182538
C       -0.97562693      -0.31084455       0.93721891      -0.04577237       0.00527558       0.00254904       0.00510378
C        0.33784483      -0.34139343       0.77166408      -0.06624946      -0.00161714       0.00073315       0.00145308
O       -1.39986419       0.92265370      -1.05045394      -0.30912435      -0.00267883       0.00015239      -0.00172433
H        0.78691758       0.12301634      -0.09428306       0.03715080      -0.00156344       0.00094582      -0.00023221
H        0.98541523      -0.82397438       1.48790119       0.04899573      -0.00126136       0.00035634       0.00119918
C       -4.25610418       0.79131928      -0.57311819       0.04576683      -0.00136097       0.00130348       0.00289690
C       -5.52823695       0.29395475      -0.33715041      -0.04517639      -0.00227433      -0.00099399      -0.00279365
C       -6.62851608       0.74868399      -1.05548803      -0.05293386      -0.00048822       0.00232714      -0.00078909
C       -6.45535101       1.72686566      -2.02401187       0.06675529       0.00030120      -0.00609023      -0.00569096
C       -5.18136416       2.23638491      -2.25195302      -0.06162085       0.00111426       0.00121605       0.00239949
C       -4.08955430       1.77536463      -1.54485660      -0.04794488       0.00125813      -0.00397199      -0.00414833
H       -5.68141795      -0.46792064       0.41666038       0.05034181       0.00425072       0.00045428      -0.00279257
H       -7.59878164       0.32992354      -0.84328236       0.04682133       0.00515378      -0.00274736      -0.00088773
H       -3.10907368       2.17231117      -1.74208231       0.03305047       0.00201815       0.00510165       0.00023282
H       -3.45649370      -0.25775868       1.00851097       0.15013784      -0.00401727      -0.00454525      -0.00327895
H       -5.05626118       3.00372100      -3.00180214       0.04267372       0.00059035       0.00002347      -0.00116124
H       -1.43479497      -0.77303419       1.80467748       0.05365586       0.00139917       0.00247641       0.00041695
O       -7.45691671       2.24744125      -2.79236272      -0.16845793      -0.00442203      -0.00516268       0.00413618
C       -8.74693093       1.68969853      -2.64726027       0.02277318      -0.00281797       0.00234369       0.00059154
H       -9.38674653       2.20534739      -3.35700016       0.04251262      -0.00080524       0.00151818       0.00087929
H       -8.74739358       0.62207233      -2.87486612       0.04033897      -0.00104093       0.00702895       0.00604780
H       -9.13691269       1.84239162      -1.63940894       0.04115737       0.00103151       0.00059883      -0.00380169
