25
Properties=species:S:1:pos:R:3:charge:R:1:forces:R:3 27H=T (SP=-460.699508185831,U=-460.4596365,H=-460.45869229,G=-460.50938583) energy=-12537.089936613012 pbc="F F F"
N       -3.83809421       0.46908575       0.37341498      -0.12669572       0.00465194       0.00530375      -0.00273463
C       -2.47438391       0.52891632       0.27763658       0.16164336      -0.00329674      -0.00534657      -0.00241425
C       -1.75456359      -0.18741618       1.30617439      -0.07270619       0.00245660       0.00278254      -0.00014919
C       -0.37710890      -0.20912534       1.34257865      -0.04420601       0.00388900       0.00200781      -0.00113542
O       -1.91471795       1.17270170      -0.61228479      -0.37060475      -0.00284069      -0.00269393       0.00644310
H       -2.30895213      -0.70692482       2.07714897       0.04537840       0.00721415       0.00400382       0.00067349
H        0.16450635       0.30054977       0.56105219       0.03244752       0.00157137      -0.00345904      -0.00152319
C        0.28489542      -0.79173876       2.40082277      -0.05633108       0.00195635      -0.00069273       0.00157377
C       -4.63851700       1.01251038      -0.70562980      -0.00822310      -0.00420803       0.00164800      -0.00348456
H       -4.24094899      -0.26999814       0.91870577       0.14021865       0.00174753       0.00007690      -0.00195821
H        1.35519887      -0.95303811       2.38970365       0.03582774       0.00325631      -0.00046105       0.00628164
H       -0.27242969      -1.36247113       3.12918183       0.03502202      -0.00406625       0.00089123      -0.00064628
N        0.70921901       0.63269201       4.27352014      -0.16344550       0.00265850       0.00384767      -0.00088050
C        1.31487291       1.79187758       3.64891913      -0.01140989       0.00329774       0.00582841       0.00111670
C        1.48040551       0.04377213       5.35410352      -0.01134977      -0.00138519      -0.00385631       0.00027199
H        0.97454313      -0.84009634       5.73931272       0.03506320      -0.00019766       0.00013468       0.00328985
H        1.67320104       0.73472742       6.18572403       0.03298007      -0.00025880      -0.00405774      -0.00500949
H        2.44283907      -0.27858588       4.95540939       0.03024596      -0.00362814       0.00180355      -0.00249535
H        0.74636755       2.09031741       2.76876010       0.02766695      -0.00058768      -0.00377791      -0.00497001
H        2.31545034       1.52043183       3.31096019       0.03054327      -0.00388762      -0.00024555      -0.00266830
H        1.41428692       2.65227025       4.32189924       0.03481419      -0.00384247      -0.00454048       0.00339485
H       -4.47671288       0.47430825      -1.64032883       0.03898825      -0.00224811       0.00045823       0.00342199
H       -5.68942951       0.96369956      -0.43673023       0.04636876      -0.00151154      -0.00346146      -0.00024565
H       -4.36068596       2.04832149      -0.87355459       0.03429231      -0.00146130       0.00224998       0.00058046
H       -0.25042352       0.79562794       4.53705631       0.10347117       0.00072100       0.00155676       0.00326746
