12
 energy: -17.691693325700 gnorm: 0.000128036230 xtb: 6.7.1 (edcfbbe)
C           -2.10450906909340        0.28872044037388       -0.53150145290084
S           -1.52937421119960       -0.17003989897103        1.12195867226492
C            0.07110761686419        0.78412565625377        1.19324116765757
C            1.02077807201479       -0.07947073854093        0.48942084292737
C            1.25085831251565        0.02638220390038       -0.85021603204934
N            1.46268234561981        0.13518441647826       -1.98977107390052
H           -2.98837533655931       -0.30851687144521       -0.72666051632651
H           -2.34925523995115        1.34622564526248       -0.54612367041170
H           -1.33232146339845        0.05881183124379       -1.26029800803626
H            0.29318656203815        0.88913605642151        2.25115115867327
H           -0.10000969070156        1.74744447436102        0.72074759369195
H            1.45327010185223       -0.91836521533826        1.01074831840970
