17
 energy: -25.692098229595 gnorm: 0.000118926811 xtb: 6.7.1 (edcfbbe)
C            2.04669768009933        0.47386582005789        0.00071332291885
C            1.06803869453306       -0.44769432711291       -0.00503070960576
C           -0.35658386419835       -0.19008860068577       -0.00089449176384
C           -1.23154265120590       -1.28190504241894       -0.00528004603190
C           -0.90047849524570        1.09825282346962        0.00755936137633
C           -2.59951101685369       -1.09320738564135       -0.00109565598504
H           -0.82643062551434       -2.28319085513342       -0.01191708116230
C           -2.26888518757950        1.28239471320494        0.01162213005093
H           -0.25249603963976        1.96043594816898        0.01087127754914
C           -3.12321768810055        0.19007047156404        0.00741256056911
H           -3.26000597016728       -1.94678790314296       -0.00447285517941
H           -2.67436970098983        2.28270903517518        0.01819635978520
H           -4.19193129149290        0.33915382224722        0.01074879192326
C            3.39784155150147        0.11163241904587       -0.00336140485356
N            4.51222000707653       -0.17684129671318       -0.00587115575489
H            1.35141644960199       -1.49326512718348       -0.01325232815236
H            1.85699814817538        1.53738548509822        0.00900192431619
