42
 energy: -61.822317452675 gnorm: 0.000073716992 xtb: 6.7.1 (edcfbbe)
N           -2.90767907760149       -0.42902803234054       -0.14874948029712
C           -1.96590829496897        0.02119481250805        0.69466802817021
C           -1.08776370922945       -1.07247223177533        1.28799606713662
H           -1.56585055909992       -1.45277764748843        2.19521351644426
C            0.33677701597044       -0.61557314449246        1.61779915368388
O           -1.80762644733351        1.22647581605056        0.99627507082481
S            1.45743942063887       -2.08744022662521        1.69939788745352
C            1.90330179863910       -2.23978881418877       -0.05050873850308
H           -1.03813968564958       -1.90163755523538        0.58079546894740
H            0.72400762408131        0.00426251433585        0.80658776606059
C            0.46861535515662        0.10469241910839        2.96084265795757
H            1.00813945922173       -2.36446293422302       -0.65226339093170
H            2.46125705505865       -1.36167025355407       -0.36036228568731
H            2.52725465025531       -3.12370904710408       -0.12973412538388
C           -3.90844505238574        0.25487518984931       -0.84355042959330
C           -4.76130937376291       -0.51126347164348       -1.64329100188187
C           -5.77599710158032        0.07315605220458       -2.36082958892276
C           -5.98005834925822        1.47193836062338       -2.30341941800139
C           -5.10592667485806        2.25524790275912       -1.48536908067929
C           -4.08656990421448        1.64576823518699       -0.77026813801719
N           -5.27478942782050        3.61748897316534       -1.40404666956962
C           -6.26626237025962        4.11799838332214       -2.11464622470960
N           -7.13127018724036        3.50248834050931       -2.89948908166766
C           -6.97716326628599        2.15905984492778       -2.98734440144943
H           -4.62198268105048       -1.58313176851223       -1.69809201851989
H           -6.43467500722684       -0.52161733951666       -2.97869948466826
H           -3.44176549278949        2.25680899338162       -0.16391225887934
H           -6.39166142972732        5.19784192949209       -2.04429823832770
H           -7.68604759301215        1.64745986217230       -3.63006697384243
H           -2.93746586176518       -1.42975632594827       -0.30060273717716
H            1.51461661081288        0.09009663113578        3.27449894427510
H           -0.11588655224401       -0.43748888974033        3.70517680368843
N           -0.00017226880178        1.50566153389917        2.89653907276757
C            1.05168547899062        2.40863157918149        2.41353638503205
C           -0.52165278548404        1.96516615754383        4.18884507998636
H           -1.37163683049912        1.35689568039831        4.48636323223413
H           -0.85186947887682        2.99699402762440        4.10278802184531
H            0.25641297381819        1.89890606547210        4.94711777256679
H            1.44381091832842        2.05621124644036        1.46388118322680
H            1.85947012446364        2.45805278608895        3.14152425726020
H            0.63953225976978        3.40290548254334        2.26316956402826
H           -0.78967928217946        1.51572486246666        2.17587683311207
