23
 energy: -30.757083786287 gnorm: 0.000143238477 xtb: 6.7.1 (edcfbbe)
C           -2.01757147659707        0.44466738626567       -0.48759288642080
C           -1.02459318518391       -0.36534206714199        0.27261624620613
C            0.12347107160410        0.14496229538861        0.68542060143510
O           -1.65381399023481        1.17755357617904       -1.41501323337339
H           -6.07992224376821        0.37596805291486       -2.04641697253046
H           -4.71067929554628       -0.73361824836279       -2.18017839521041
H           -1.25420627518409       -1.41273741980232        0.40502900348623
H            0.35048236231498        1.18676450336732        0.52962015620319
H            0.86425248126174       -0.44804181009936        1.19290976217870
H           -6.46851474606988       -1.76318119084290       -0.78081138978895
H           -5.10909887175926       -2.13020557888851        1.30532774758042
H           -4.39959780975830        0.22845477183136        1.61725913942294
N           -3.30458211850273        0.33330763703626       -0.13018825984965
C           -4.35051232387701        0.96235067961328       -0.91283056204537
C           -3.81177646176914       -0.44270175673320        0.98112396794108
C           -4.71270607806430       -1.56467033724190        0.46244756796111
C           -5.84997579225713       -0.96800101721405       -0.36358448268124
C           -5.27824161629918       -0.10761479457918       -1.48846322400598
H           -4.91526754230417        1.64265924688267       -0.26704815022931
H           -2.98568734251815       -0.83390983567352        1.57158345040798
H           -4.12406509473027       -2.24074244871872       -0.16049467352663
H           -6.48038700339094       -0.35079767333675        0.27958898619671
H           -3.87127664736585        1.53895602915517       -1.70611439935779
