29
 energy: -38.219216872803 gnorm: 0.000125560491 xtb: 6.7.1 (edcfbbe)
C           -1.80040224625931        0.61494272065512        0.34477148607954
C           -1.17300881805477        0.05655163633706        1.61558305590500
C            0.34861106861036        0.12311330477226        1.58321352027053
O           -1.12130810137471        1.20865347781686       -0.49789346928308
S            1.07678204663235       -1.23189751036682        0.58447228583840
C            1.58385231870095       -0.34734469699744       -0.91675782220748
H           -4.76920765249072       -0.06545965839148       -2.70094367604711
H            0.69411770544602        1.06031579953183        1.15135088685376
H            0.75421903244657        0.00180860956021        2.58600044038579
H            0.75216983551142        0.25986732622421       -1.26091436234452
H            2.44915783655293        0.26932243235156       -0.69131988282287
H            1.83888980437285       -1.10232080332976       -1.65217748814367
N           -3.12287861340443        0.46756151368134        0.19902245321593
C           -3.76814808473870        0.86387237395944       -1.04062191021054
C           -4.02421908549148       -0.23244533038727        1.09139512860831
C           -4.52270329458930       -1.51565364896854        0.42328662533006
C           -5.21437444199612       -1.17494432769560       -0.89446642301693
C           -4.26649958298617       -0.37466249871063       -1.78469813455815
H           -4.60721640045973        1.52407414990920       -0.80158937611395
H           -3.53990605421632       -0.45125773763009        2.03885335803559
H           -3.67325599752987       -2.17443677907964        0.23217669673438
H           -6.10863770260216       -0.58190690302433       -0.69262559856542
H           -3.03938767287658        1.41395741376863       -1.63803694240425
H           -4.87557639133094        0.42896482465297        1.28389009272297
H           -5.21131433568887       -2.02867203517366        1.09413803229133
H           -5.52215713079689       -2.08836414688968       -1.40415244552061
H           -3.40777957142927       -0.99161438334348       -2.05829958184223
H           -1.53600567620274        0.64321112841291        2.46285088489106
H           -1.47158279376384       -0.98381625164474        1.74805216591696
