28
 energy: -46.399218293100 gnorm: 0.000315535916 xtb: 6.7.1 (edcfbbe)
C           -1.47890865818774        3.05027041683879       -0.10694510039206
S           -0.28898853557248        2.13027038886982        0.92453866435527
C           -0.06562694139963        0.64525641841575       -0.17617292010316
C            1.08575341621564       -0.18945979411102        0.28194904789269
C            0.98281887901678       -1.00123777893452        1.38838105790403
N            0.89301825187323       -1.69056648168973        2.31783690079242
C            2.28634002775541       -0.10756608360511       -0.42371528877470
O            2.50730117063525        0.58332464208602       -1.43704725797457
O            3.29048003853809       -0.91233348641381        0.08970192128962
C            4.53193716682985       -0.86860847130843       -0.59686552443933
C           -1.34453798052046       -0.12902439454660       -0.26313207634960
H            0.21556773987127        1.06500527559183       -1.14960217342743
H           -1.72713247771330        3.95122075344844        0.44061629815800
H           -1.00645764899222        3.29429335993540       -1.05412273030319
H           -2.36117731876784        2.43605998222100       -0.25995308234051
H            5.18140777249597       -1.54971063042210       -0.05503565625618
H            4.40275763477125       -1.18787783609444       -1.63411823026186
H            4.93292293639548        0.14802950776626       -0.58953706355659
C           -1.80860332200576       -0.55483501259059       -1.50168088414864
C           -2.96862880016517       -1.30275056549807       -1.59639296119301
C           -3.67895953955636       -1.62869984152168       -0.45360321927862
C           -3.22336918805046       -1.20470735473801        0.78348353551000
C           -2.06349640723420       -0.45770626069041        0.87905317993191
H           -1.24473110808225       -0.30018299464404       -2.38917420459369
H           -3.31577379459653       -1.62780228172249       -2.56548534704337
H           -4.58451202147042       -2.21083507637953       -0.52654825265386
H           -3.76860653632442       -1.45445353140617        1.68068519407589
H           -1.70202075575880       -0.12103686885668        1.84041017317878
