22
 energy: -42.411698373749 gnorm: 0.000352818970 xtb: 6.7.1 (edcfbbe)
N           -2.86187354808321        0.13374841927281        0.12147874414908
C           -1.63125828875340        0.59096314609983        0.34440511847170
C           -0.94497632962218       -0.00616107738293        1.57515294350336
C            0.56702041739584        0.06460268096707        1.39093309991204
O           -1.07839311549163        1.43471399327003       -0.35480831350384
S            1.13740298537331       -1.15811475936281        0.13961802335850
C            1.74248138478087       -0.03383397459819       -1.15037960703184
H           -3.25368132728393       -0.56386211102123        0.73545414725689
H            0.85621136456355        1.05628637011162        1.03365741427949
H            0.95355348329039        0.67181605802987       -1.39319416370257
H            2.63705279929864        0.46938927338908       -0.79718148016761
H            1.97259582369892       -0.65829913769596       -2.00620265807431
C           -3.69352733919153        0.58707189576681       -0.97148143090702
H           -1.23615278043730        0.58626382989410        2.44718000894135
H           -1.25024402953495       -1.04102458881863        1.72783592875808
H           -3.96009978077757       -0.25209452059717       -1.61202428992118
H           -4.59978341090190        1.05364677845434       -0.58757206578896
H           -3.12726251352212        1.31685950333815       -1.54629530712154
C            1.30072905822966       -0.19975438932107        2.68773768770738
F            1.03695054802155       -1.40466178632477        3.21671724071307
F            0.97710655437741        0.69643852482086        3.64666031607570
F            2.63514804456933       -0.12399412829056        2.55830864309191
