29
 energy: -41.442450609130 gnorm: 0.000199068883 xtb: 6.7.1 (edcfbbe)
N           -2.72253455084341       -0.13838274327002       -0.01309190028279
C           -2.22491693619313        0.81370859564368        0.78134240587968
C           -1.13920367975669        0.34295251352296        1.73632989489142
C            0.22641245665675        0.46307589068676        1.06984967425678
O           -2.58139689632880        1.98865322717559        0.73376514767261
S            0.39411062411620       -0.72675574591521       -0.31273887566634
C            2.10251151407995       -0.35187870854190       -0.79126107787628
H           -2.37611903999961       -1.08243874441501        0.06781224461586
H            0.36689823208238        1.46635761914715        0.66407428542422
H            1.01978112676888        0.23735474600757        1.78283374738997
H            2.16648788617451        0.68726544809098       -1.10090246276496
H            2.76257344522953       -0.54933694665234        0.04808787907977
H            2.34290049256677       -1.00696538585336       -1.62112472956186
C           -3.72856370235770        0.10945159149069       -1.02821769705801
H           -1.15552696528057        0.99265792365499        2.61259690556718
H           -1.31546414109914       -0.68801413390668        2.04193745283680
H           -3.37671237882741       -0.29156790999514       -1.98144570567743
H           -3.83021798245279        1.19606366766285       -1.10588579998919
C           -5.04930007961366       -0.50865337565920       -0.64574476421412
C           -5.72675866845585       -0.03911200960838        0.47357222661226
C           -5.59419232341856       -1.55359611577755       -1.37806637982660
C           -6.93073858216727       -0.60392763707618        0.85264667741738
H           -5.30156866570810        0.77579974745924        1.04254770974362
C           -6.80251006649213       -2.11639082460153       -1.00215420993493
H           -5.07475329076883       -1.92535296960947       -2.24877063104055
C           -7.47156383797698       -1.64392927815640        0.11366606904245
H           -7.44989449532159       -0.23052633491030        1.72262490327447
H           -7.22089334279025       -2.92645914777826       -1.57992608260859
H           -8.41284615182097       -2.08305295880593        0.40764309279572
