26
 energy: -38.869551414421 gnorm: 0.000219043133 xtb: 6.7.1 (edcfbbe)
C           -1.28782547702956        0.76935869527367       -0.55124453952289
C           -0.71895875902454        1.23001101820810        0.63021339593728
C            0.61385111887548        1.76170625100138        0.65898248496907
O           -0.72985067142478        0.82070296114652       -1.69254229435174
S            1.98733591889865        0.47560239140150        1.24550749605607
C            1.45377099279691       -0.97108099216482        0.31417682802569
H           -1.21051151210822        1.04989854476273        1.57495484836721
H            0.96811114469335        2.04087463567419       -0.33187935179613
H            0.79665709532162        2.54397729100504        1.39147001370240
H            0.37611594134570       -0.87023738915744        0.16408239346455
H            1.96012249547949       -0.99717625477812       -0.64776924384276
H            1.68138038656210       -1.85563435724835        0.89848207650393
C           -3.51651884267307        0.59683443088044        0.55522295267987
C           -3.29616230064875       -0.05724841822047       -1.71549083967305
C           -4.91116031246981        0.59826806306133       -0.09319669726058
H           -3.26623269903151        1.58812533225109        0.94825828249598
H           -3.50015591222256       -0.12499111219911        1.37930870007025
C           -4.60570267119929        0.71685594188223       -1.59028382564242
H           -3.49033233870661       -1.13491454520198       -1.78706484912782
H           -2.67021031237612        0.24961676516695       -2.55679013124234
H           -5.50220686817249        1.45015773587467        0.27287323247008
H           -5.39189126896645        0.30008989002724       -2.21509176016535
H           -4.44757291662520        1.76406285018160       -1.84713373832024
N           -2.57668169550895        0.21039435569669       -0.48233336981053
O           -5.56409741990901       -0.60341955484131        0.24843281961282
H           -6.40927311589116       -0.65283452968091       -0.22214488359938
