26
 energy: -42.230404200514 gnorm: 0.000631259922 xtb: 6.7.1 (edcfbbe)
C            4.34433432837511       -0.35716171758697        0.08890902543909
C            3.54657814188241       -1.30940881970006       -0.52833336693753
C            2.17213100629394       -1.24544681026931       -0.41761877864235
C            1.56722300843490       -0.21946587136197        0.31668101344360
C            2.38591101634472        0.74402996978025        0.92212957320533
C            3.75932279195378        0.67039343895534        0.81401052837510
C            0.14229877358462       -0.08352653980867        0.46323334558455
C           -0.85668671715041       -0.96326273847695        0.18260162367148
C           -0.69436003022269       -2.25634599863135       -0.33042733491393
N           -0.66138286295791       -3.33953229946904       -0.72353563187549
C           -2.26396630354899       -0.51538943428235        0.43406394932691
O           -2.50862805258902        0.63756280750874        0.78302654008691
N           -3.22428319938844       -1.42758314736453        0.25228393945668
S           -0.21847120174990        1.39397066918128       -2.01909847754817
C           -1.23822894956515        2.71125123233070       -1.35896099142406
H           -0.19705467457124        0.84239059702847        0.91700914856860
H           -0.59298200312734        3.49231801393368       -0.96772643962197
H           -1.85641854565674        2.29563231312555       -0.56352908873659
H           -1.86680318184946        3.09565365372576       -2.15701469143527
H            1.92953457819830        1.54484445783851        1.48450758583441
H            4.37733576657153        1.41612778623103        1.28965782033038
H            5.41803938742305       -0.41259235995332       -0.00104410783068
H            3.99844985713441       -2.10376136416863       -1.10183428662269
H            1.55869675499816       -1.97829059443478       -0.91585494649827
H           -3.01605494985568       -2.36759465132554       -0.03948095422221
H           -4.18311473896075       -1.15665259281156        0.40429500298436
