13
 energy: -24.253097737495 gnorm: 0.000293753747 xtb: 6.7.1 (edcfbbe)
C            2.30471261397301       -0.17910736147348        0.00057547702964
C            0.98880554947245       -0.41241476679711        0.00025140806630
C            0.44457741943457       -1.71827418550358        0.00015091439471
N            0.01539962383560       -2.78173141651223       -0.00002284650675
C            0.01331296464886        0.72030967090552       -0.00033988876477
H            2.65735761290046        0.83940246726686       -0.00023085438583
H            3.02541203522206       -0.97799772957623       -0.00031644320053
O           -1.23802755638314        0.29223368750372       -0.00015687749730
O            0.34114429475554        1.88667014886982       -0.00002535470371
C           -2.27212503641058        1.28059930569396        0.00001302728441
H           -3.20421082977539        0.72486954047988        0.00003427449661
H           -2.18707861352138        1.90722496207373        0.88843334453393
H           -2.18717307815205        1.90729767706912       -0.88836618074671
