33
 energy: -51.599005936877 gnorm: 0.000081474180 xtb: 6.7.1 (edcfbbe)
N           -2.74299621971108        0.35633544975384        0.45198191887999
C           -1.85807535536877        1.15451934414920        1.09563168005859
C           -0.85552504658092        0.40250011652305        1.96195939181112
C            0.30687909901990       -0.10479858644553        1.09772192464105
O           -1.81721471231244        2.37347020923547        0.99091487506064
S           -0.20847298366176       -1.25603602137715       -0.22868189423351
C           -0.18279544946804       -0.14552401963416       -1.66381063638426
H            0.82951654342124        0.71982279841911        0.61667406976125
H            1.00452447151788       -0.66004966856538        1.72298516692063
H           -0.77709563474804        0.73954585702661       -1.45699687254023
H            0.84563535321278        0.12475251109931       -1.88511490610603
H           -0.60926276947537       -0.69792742459862       -2.49403148512171
H           -2.56939685559667       -0.64107964693167        0.52758661393366
C           -1.47333742526706       -0.73837734860763        2.76848217594305
H           -2.41146721297870       -0.42882274267414        3.22050965304700
H           -1.64315235717012       -1.61318416013103        2.14451953162594
H           -0.78931483030037       -1.02779664164732        3.56185507222398
C           -3.72466689166862        0.69906944039783       -0.47498642977598
C           -4.26331429260393       -0.30488709751097       -1.25032467637673
C           -4.18424103904439        2.02842941676837       -0.62312026133080
C           -5.26225769213068       -0.00616085736364       -2.18905586291231
C           -5.15668526178302        2.33957398201785       -1.52991036119476
H           -3.74621629397163        2.79757952488488       -0.00791436821985
C           -5.87302020594787       -0.95501525497181       -3.03731980009642
C           -5.72274057913098        1.33238374627314       -2.33764617535388
H           -5.51201367465989        3.35007958968621       -1.64547478369753
C           -7.16389422777093        0.65826030844889       -3.94974569432085
H           -7.93655292066687        0.90397352122538       -4.66633166525906
N           -6.80299024014049       -0.63489659706975       -3.90011272746618
N           -6.68609654342942        1.63656738189581       -3.23546997700401
H           -3.92320507219037       -1.32512164517569       -1.15177304034470
H           -5.58511462842123       -1.99835059323116       -3.00201479070150
H           -0.43943905097019        1.15216510812488        2.64401433452362
