11
 energy: -20.461483054704 gnorm: 0.000174123866 xtb: 6.7.1 (edcfbbe)
C            2.75251014733872       -0.69858257320576        0.07624702349540
O            2.81266032994051       -1.92087712710869        0.08443278638243
C            1.42148762955404        0.00823777050760        0.05385262022660
C            0.28820995999238       -0.69888730548389        0.03292590412236
H           -0.68217480500036       -0.23457886730106        0.01706470161563
N            3.83149387449224        0.08971738368577        0.08523273943354
H            4.74306341937916       -0.34070172765727        0.09959422394445
H            3.75988368107097        1.09355198374331        0.07775766655900
H            0.34768627772765       -1.77530817355121        0.03274742445117
C            1.40787895041252        1.41962644534909        0.05663812839018
N            1.40170453509217        2.56832919102211        0.05982478137926
