32
 energy: -48.298478917747 gnorm: 0.000246791532 xtb: 6.7.1 (edcfbbe)
C           -1.30878329068247        2.24078859804535       -0.34187605164213
H           -2.26463223884794        1.72651829975739       -0.30140068503478
H           -0.93695839185449        2.29569313326921       -1.36103290508744
S           -0.10929367656814        1.35375145290126        0.68550586687737
C            0.90583523197659       -1.18244858522920        0.46347212924896
H            0.72060297030740       -1.27942580370543        1.53888319138969
C           -0.19343215679475       -0.28973993421371       -0.15196075499865
H            0.03403753504706       -0.11018561087504       -1.20713364661491
C           -1.55493010752021       -0.89981969886744        0.00052988418092
C           -2.27049560251527       -1.30050184096116       -1.12034699878725
C           -2.11576077844033       -1.06736792392899        1.26152968302988
C           -3.52254202016769       -1.87364098640714       -0.98107054140758
H           -1.84422440727947       -1.16832917537016       -2.10449912563388
C           -3.36687312652810       -1.63877501395703        1.39900429061956
H           -1.57624164378892       -0.72866329880919        2.13424079860333
C           -4.07154319389261       -2.04603071161137        0.27789409534694
H           -4.06885883581250       -2.18352675958958       -1.85860223440086
H           -3.79330115606830       -1.76401703061023        2.38237421352732
H           -5.04807374990225       -2.49225893696177        0.38545815615519
C            0.83495051646804       -2.49734180522695       -0.12438073940681
N            0.79772391879716       -3.53977653475737       -0.59552365509600
C            2.27383446561249       -0.58286985002658        0.23185079181942
C            2.85389837360574       -0.59657494475382       -1.03106399648908
C            2.96701438203919        0.03273386823274        1.26518742892252
C            4.09261060976080        0.00221676827923       -1.19645889942312
H            2.35810564308784       -1.06942866745875       -1.86522281248378
C            4.19880602042494        0.60381230760152        0.98551989095588
H            2.55500117062085        0.07941747512142        2.26043318423753
N            4.75597823637419        0.59167996923568       -0.21472662979147
H            4.57958609334056        0.01267838423942       -2.16172197840914
H            4.77044814368261        1.09658080880931        1.75942809981263
H           -1.39606893448179        3.23601204782919        0.08006994997958
