29
 energy: -46.711383363983 gnorm: 0.000547673325 xtb: 6.7.1 (edcfbbe)
C           -1.21285539008265        2.23013706978809       -0.39157725817234
H           -2.13826695073403        1.67022691626146       -0.29784498501229
H           -0.90115801721790        2.30497179475357       -1.42907022267416
S            0.08422004210255        1.40363474655908        0.56855921143537
C            1.16716864786209       -1.10230941489818        0.30364080762595
H            1.02563365322832       -1.26315173206741        1.37936542644798
C            0.01346427752522       -0.24844322392314       -0.25793041091837
H            0.17573546628127       -0.06944623224386       -1.32497203463368
C           -1.30766786348753       -0.92532621767083       -0.03100351332206
C           -2.04845908009225       -1.38840838679900       -1.11060114031373
C           -1.80012604371799       -1.09195493412087        1.25822740045206
C           -3.26102833312279       -2.02231938264507       -0.90176530420673
H           -1.67450929011010       -1.25698686691751       -2.11538798616109
C           -3.01274806012228       -1.72332096096313        1.46398902296200
H           -1.24038173999009       -0.70511358372888        2.09732336107072
C           -3.74360067395345       -2.19261179185340        0.38454358083319
H           -3.82852385019700       -2.38089701307786       -1.74636359952490
H           -3.38803073677451       -1.84703435894615        2.46788151568292
H           -4.68950047885132       -2.68576608057201        0.54579582942176
C            1.18196948001388       -2.38563918771966       -0.37208607349150
N            1.20669542117082       -3.38295333180984       -0.92993504508362
N            2.44919738226883       -0.46025156669502        0.15149725808362
C            3.05123827547144       -0.00126857980480       -0.95823572224915
C            4.28611475026944        0.36328401815287        0.68514309117145
H            2.64093602269452       -0.06906352925067       -1.94371416743281
H            5.12116103318172        0.68839737101882        1.26888486400477
N            3.24012145680112       -0.23085926367074        1.20578446984548
N            4.21396491114356        0.52547737469931       -0.65239696340820
H           -1.32319731156080        3.21919334814471        0.03910758756774
