29
 energy: -46.705938067277 gnorm: 0.000273007766 xtb: 6.7.1 (edcfbbe)
C           -1.24860665528416        2.11688400399720       -0.36042783606778
H           -2.16319084785764        1.53254405997893       -0.33692695825550
H           -0.92239128408246        2.29788592087490       -1.38005455544020
S            0.05295078568456        1.22793593203677        0.54229918144118
C            1.23250992091094       -1.20765037310198       -0.02970269461930
C            0.04117431949685       -0.31988446182730       -0.46204454219555
H            0.21760603092811       -0.00903165801525       -1.49678895759153
C           -1.25797161121965       -1.07006545086679       -0.36055916145319
C           -1.81012015357600       -1.63222606437983       -1.50568852081854
C           -1.90959788997063       -1.22091714773643        0.85665393533356
C           -2.99462316023297       -2.34344273532481       -1.43153742454232
H           -1.31375259966396       -1.51129463074159       -2.45748260865593
C           -3.09408749008611       -1.93212969461153        0.92787226592549
H           -1.49031438319178       -0.77152561986949        1.74445623632285
C           -3.63736546704393       -2.49610229342571       -0.21452898240671
H           -3.41639329824720       -2.77568356578350       -2.32569254724547
H           -3.59199243827106       -2.04289696578956        1.87842373926312
H           -4.56182502371304       -3.04932868356963       -0.15705380583227
N            2.48975280374127       -0.52869171318841       -0.23924930382243
C            3.07828994407095       -0.21104813746491       -1.40448756159751
C            4.23293575189457        0.53722010167030        0.16562366799594
H            2.70094452623106       -0.48187670459542       -2.36804559786253
H            5.02040844466960        1.02746708471379        0.69770503024090
N            3.22699817658618       -0.04776066211791        0.76938563725777
N            4.18400134968069        0.46011627166355       -1.18023699631913
C            1.13028957802859       -1.59945142555936        1.36226435766603
N            1.04367244455702       -1.94569178332566        2.44738771397812
H            1.21558021847996       -2.12411097498071       -0.63827189090473
H           -1.38708199252030        3.05708737134079        0.16143818020693
