28
 energy: -46.159571714526 gnorm: 0.000111294847 xtb: 6.7.1 (edcfbbe)
C           -0.76254513013883        1.72036918864218        1.13351061694828
H           -1.01992625410600        2.76091096427144        1.30051900507050
H           -0.16312137556617        1.34596787478197        1.95813515642122
S            0.21187019984095        1.69618819014094       -0.38666031842305
C            1.77114439489867       -0.31500110778205        0.27915865312042
C            0.59384294277286       -0.13278290504677       -0.59399389247640
H            0.87912869129697       -0.19459558619630       -1.64538165834386
C           -0.61435458538189       -0.99093134061604       -0.35528948843634
C           -1.79899461477866       -0.66455682183284       -1.01007008720406
C           -0.57323216549173       -2.11917109581529        0.45164689889726
C           -2.92801417855519       -1.44423966410747       -0.84682745169276
H           -1.82928958098597        0.20952047775558       -1.64451027050236
C           -1.70729160888366       -2.89805440308606        0.61395037788113
H            0.34170272252274       -2.40105822995357        0.95007775159453
C           -2.88565004040131       -2.56221490510346       -0.02905915881613
H           -3.84032128008765       -1.17923374728621       -1.35800950250411
H           -1.66305646393169       -3.77123619257976        1.24611016022640
H           -3.76634832843192       -3.17102573481538        0.10284948503544
C            1.65400461016923       -0.44104056166424        1.65203052825981
N            1.53423518681904       -0.53228920487541        2.80001685763438
N            3.04419806481348       -0.19359462937995       -0.22109642617730
C            3.48189257695564        0.05500210509903       -1.48686076599427
C            5.13804310569694       -0.15051992567718       -0.22345985713315
H            2.85588826734563        0.21990699828738       -2.33643351204225
H            6.15263112448154       -0.19726222927011        0.11146674634958
N            4.11920460863547       -0.31908464216293        0.58252029653318
N            4.79120348016315        0.08532489659577       -1.50804696165513
H           -1.65652436967595        1.11930223167730        0.99956681742981
