6
 energy: -7.412970086136 gnorm: 0.000258456439 xtb: 6.7.1 (edcfbbe)
S            0.25820885492082        1.84429967781389       -0.14693014993542
C           -1.35630731118139        2.41556839303704       -0.77957469032079
H           -1.20855806775169        2.94910423852846       -1.71222761688946
H           -1.94821410370588        1.52200823853573       -0.94878054791426
H           -1.83200926227614        3.04452870782961       -0.03489082816281
H            0.80090988999428        3.04769074425527       -0.01899616677727
