63
Properties=species:S:1:pos:R:3:charge:R:1:forces:R:3 energy=-51720.42934673724 pbc="F F F"
C       -0.74986471      -5.39229387      -0.96817856       0.02093533      -0.00123562       0.00185229       0.00165617
O       -1.01446514      -4.01235892      -0.83870193      -0.14140950      -0.00413935       0.00471338      -0.00145901
C        0.00884105      -3.22413763      -0.35494504       0.05853160      -0.00864696       0.00252625      -0.00110755
C        1.24936328      -3.69847916       0.03164779      -0.06906482      -0.00426043      -0.00015964      -0.00625780
C        2.21728978      -2.83336640       0.51525146      -0.05880509      -0.00509199      -0.00070545       0.00202019
C        1.96166632      -1.46204028       0.60468926       0.03670587       0.00288070       0.00098622      -0.00226159
N        2.99974250      -0.64765719       1.05906738      -0.09945374       0.00237426      -0.00110481       0.00519853
C        2.91420092       0.66450047       1.40617659       0.16252823       0.00414087      -0.00307299       0.00219948
C        4.21067619       1.33413842       1.71954747      -0.05367713       0.00001517      -0.00129263      -0.00000160
C        5.37917210       1.25838394       1.08397761      -0.02564111      -0.00243146      -0.00028955      -0.00151095
C        5.67458027       0.58172234      -0.21939092      -0.00853651      -0.00104497       0.00144894       0.00152645
N        5.88500131       1.50254881      -1.33789386      -0.13965918      -0.00111795      -0.00027117      -0.00089872
C        4.70188571       2.29409394      -1.61531436      -0.04001554       0.00106415       0.00287800      -0.00202774
C        7.07783719       2.31393973      -1.22137316      -0.03651710      -0.00024137       0.00058301       0.00074300
O        1.86854336       1.30550420       1.54238654      -0.32215557      -0.00143849       0.00097569       0.00223939
C        0.70448927      -0.97392431       0.20616004      -0.05416162      -0.00021465       0.00140095       0.00021898
C       -0.27456673      -1.84694320      -0.25370556       0.03275147      -0.00018093       0.00051309       0.00618332
N       -1.56992943      -1.46561733      -0.62389336      -0.10176117       0.00685837      -0.00074060       0.00536278
C       -2.20843582      -0.26255382      -0.57751742       0.15164641       0.00263814      -0.00470639      -0.00139723
N       -1.52414726       0.85235122      -0.29426495      -0.18481460      -0.00495518      -0.00194965       0.00089986
C       -2.24976533       1.96565000      -0.26206181       0.02342359      -0.00391258       0.00051314       0.00135684
C       -3.61065154       1.99894202      -0.47931985      -0.06858700      -0.00262161      -0.00192258      -0.00098909
C       -4.24750369       0.77651168      -0.75241660       0.05835650       0.00040491      -0.00537985       0.00240852
C       -5.67491283       0.66341950      -0.95205952      -0.04598579       0.00208193      -0.00120147      -0.00342334
C       -6.70438570       1.55007298      -0.59391582       0.03768221       0.00545026       0.00102928      -0.00263719
C       -6.83828119       2.75851349       0.10190106      -0.04544592       0.00109663      -0.00447931       0.00145720
C       -8.08264287       3.32448403       0.25774777      -0.05226261       0.00203842       0.00039436      -0.00185499
C       -9.22696874       2.69563730      -0.26937139      -0.06119510       0.00236140       0.00111816      -0.00298245
C       -9.11561935       1.50650230      -0.92636789       0.02306661       0.00454616      -0.00157613       0.00117348
N       -7.88138649       0.94391169      -1.06703664       0.04519181       0.00424540       0.00215566      -0.00078844
N       -7.65214485      -0.24782075      -1.65845350      -0.18466958       0.00069571       0.00214440      -0.00030908
C       -6.33156135      -0.40706429      -1.57299323      -0.00080235      -0.00106534       0.00226013       0.00023308
N       -3.52616906      -0.34819045      -0.85001642      -0.21405922       0.00368603      -0.00554473      -0.00179713
H       -0.51418181      -5.85001419      -0.00391512       0.02920267      -0.00483936      -0.00023936       0.00384957
H       -1.65957221      -5.83619476      -1.36011303       0.03471628       0.00224531       0.00450290      -0.00240268
H        0.07186068      -5.58146699      -1.66406180       0.02911471      -0.00106224       0.00102720      -0.00278066
H        1.48718401      -4.74920149      -0.03168076       0.03562323       0.00075205      -0.00223430       0.00325814
H        3.17837457      -3.21524133       0.83452814       0.03086062       0.00620483       0.00202054       0.00160922
H        3.92304428      -1.15146169       1.29569328       0.08169317      -0.00058672      -0.00343672       0.00641675
H        4.10873220       2.01230654       2.56023048       0.02890667       0.00031874       0.00044488      -0.00266883
H        6.21409308       1.79412806       1.52589300       0.03030063       0.00499700      -0.00311364       0.00379547
H        6.56004244      -0.04185402      -0.10381590       0.02878412       0.00029843      -0.00043955      -0.00182596
H        4.85782932      -0.08238611      -0.49135939       0.02482352       0.00373891      -0.00109612       0.00144393
H        4.84333552       2.84750387      -2.54453286       0.02799436      -0.00380391       0.00612051      -0.00391958
H        4.46612224       3.01061040      -0.81702237       0.02210101      -0.00471835       0.00509013      -0.00210781
H        3.83537795       1.64614549      -1.74286283       0.03224880      -0.00001455       0.00176553      -0.00183164
H        7.04178291       3.05904527      -0.41097519       0.01919434      -0.00110063       0.00490499       0.00555445
H        7.23990284       2.85423360      -2.15461118       0.02865065      -0.00167034      -0.00084884      -0.00275652
H        7.94606029       1.67704279      -1.05101496       0.02691028      -0.00363595      -0.00809125      -0.00111613
H        0.48600599       0.07556636       0.27086295       0.03027391      -0.00552336      -0.00293326       0.00066005
H       -2.16363262      -2.23364209      -0.88935681       0.11226524       0.00120228       0.00583764       0.00316459
H       -1.70118559       2.87740721      -0.04503648       0.03055146       0.00416387       0.00025260      -0.00365297
H       -4.13815307       2.93798189      -0.49609529       0.03843120      -0.00172743       0.00035448      -0.00119361
H       -5.96321270       3.22052317       0.53448368       0.03560119      -0.00307075      -0.00178194       0.00114870
H       -8.18633684       4.25623306       0.79576746       0.03228033      -0.00405758      -0.00164496      -0.00126241
H      -10.20730804       3.13541740      -0.15705777       0.03636084      -0.00010422      -0.00198860      -0.00437831
H       -9.93349793       0.94930652      -1.35469596       0.04479312      -0.00093603       0.00210107       0.00387438
H       -5.87150120      -1.29978361      -1.95942010       0.03830897      -0.00142855       0.00328019       0.00171768
S        5.50245563      -2.28820350       1.89331557      -0.51518965       0.00629176      -0.00187897       0.00032316
C        5.12005037      -1.94536643       3.64637625      -0.12046190      -0.00269661      -0.00264119      -0.00728764
H        4.20432972      -2.44717269       3.97262575       0.02904116       0.00414945      -0.00211324      -0.00157784
H        5.93021103      -2.29422565       4.29048865       0.02550841       0.00105395       0.00247121      -0.00026721
H        4.99696549      -0.87401016       3.83255378       0.02897121       0.00158075       0.00121177       0.00104146
