37
Properties=species:S:1:pos:R:3:charge:R:1:forces:R:3 energy=-29659.61414540499 pbc="F F F"
C        5.13157185      -0.84089052      -0.85413078      -0.04185404       0.00033745       0.00035343      -0.00297911
C        3.78861133      -0.99989841      -0.55135016      -0.04576384       0.00268851      -0.00480480       0.00573413
C        3.05944467       0.09025807      -0.07584855       0.04326908       0.00090238       0.00146325      -0.00483176
N        1.69988818       0.03253474       0.25267552      -0.10219328       0.00141386      -0.00382155       0.00238365
C        0.85413097      -1.03986973       0.25300979       0.17505118      -0.00245766       0.00080241       0.00002862
O        1.17614124      -2.16199216      -0.10961937      -0.28993702       0.00440019       0.00674940       0.00041193
C       -0.55230705      -0.73179089       0.75927839      -0.04673103      -0.00745680       0.00272121       0.00340374
C       -1.31813265       0.35835769       0.00799055       0.00624206      -0.00062299       0.00612602      -0.00188167
S       -0.80750321       2.08260518       0.43846426      -0.05093909       0.00297410      -0.00725207      -0.00027031
C       -1.28015507       2.21234856       2.18692124      -0.05824260      -0.00019783      -0.00341189      -0.00325188
C       -2.82570637       0.19163395       0.15791135       0.00040093       0.00300862       0.00365197       0.00026301
N       -3.30139762      -1.04106527      -0.44745602      -0.13411440      -0.00098399       0.00445697       0.00149331
C       -4.60537186      -1.41362972       0.06419939      -0.02585280       0.00154430      -0.00140635       0.00046392
C       -3.30769611      -0.98542179      -1.89729643      -0.02563154      -0.00058317      -0.00197143       0.00015215
C        3.69897939       1.32357346       0.08418641      -0.05459922       0.00301022      -0.00065378       0.00586759
C        5.03985783       1.46540546      -0.22168406      -0.04089891       0.00143564       0.00009646      -0.00093721
H        5.51993838       2.42623725      -0.08857829       0.03949083      -0.00536040       0.00219156      -0.00446294
C        5.76694669       0.38202963      -0.69511514      -0.05094013       0.00091610      -0.00111111      -0.00070892
H        6.81511706       0.49086144      -0.93733975       0.03917450       0.00001855      -0.00040889       0.00534588
H        5.68803295      -1.69366810      -1.22093308       0.03811323      -0.00242922      -0.00025206      -0.00324085
H        3.30132674      -1.95126060      -0.67636228       0.03481484      -0.00541769      -0.00324037      -0.00133689
H        1.28148953       0.91665314       0.51783492       0.11102021       0.00107634      -0.00516505       0.00699635
H       -1.11220881      -1.65778830       0.67704685       0.03460183       0.00238364      -0.00397936      -0.00703668
H       -0.51045577      -0.48135168       1.81968881       0.03533987       0.00030945       0.00312378       0.00739428
H       -1.05614760       0.31566073      -1.04675595       0.03253135       0.00055595       0.00452900      -0.00243731
H       -0.98043587       3.20549208       2.50310936       0.04260182      -0.00727429      -0.00066015       0.00034555
H       -2.35405298       2.11663110       2.30989138       0.03680820       0.00023595       0.00335591      -0.00212239
H       -0.76676555       1.48127596       2.80551017       0.03584258      -0.00071393       0.00013826       0.00003545
H       -3.06700954       0.16661304       1.22271789       0.02873577       0.00425739      -0.00157354      -0.00162057
H       -3.34092211       1.06724197      -0.26094264       0.01916702       0.00354232      -0.00389461      -0.00068868
H       -5.39883203      -0.68895267      -0.18370049       0.02012762       0.00628844       0.00084480       0.00748301
H       -4.89265579      -2.37695764      -0.35078320       0.03352631      -0.00254625      -0.00191112      -0.00127954
H       -4.56575670      -1.51446128       1.14689797       0.03281085       0.00251861       0.00102196      -0.00241229
H       -3.95332621      -0.18489048      -2.29173131       0.02167936      -0.00253162       0.00200359       0.00275959
H       -2.30530925      -0.83145285      -2.28901968       0.03180618       0.00364580       0.00204260       0.00098841
H       -3.66290967      -1.93394383      -2.29260487       0.03416823      -0.00526179      -0.00411948      -0.00647554
H        3.13982274       2.17606457       0.45254854       0.04037411      -0.00362670       0.00396610      -0.00357587
