20
Properties=species:S:1:pos:R:3:charge:R:1:forces:R:3 energy=-15709.828253609232 pbc="F F F"
O        1.29765150       1.65685271      -1.46482329      -0.29797843      -0.00673000       0.00530102       0.00038066
C        1.68918911       0.88298717      -0.60118089       0.17515463      -0.00486932      -0.00385740      -0.00648362
C        3.14134593       0.76814489      -0.29941219      -0.02928765      -0.00039734       0.00127014       0.00398216
C        3.76398910      -0.29028884       0.20571652      -0.05816517       0.00133434      -0.00373327       0.00048953
N        0.86091033       0.08912030       0.15108784      -0.09989730      -0.00215136      -0.00268281       0.00254579
C       -0.53293542      -0.03879588       0.08167164       0.04371477      -0.00428418       0.00463535       0.00598766
C       -1.31505913       0.53069537      -0.92497535      -0.03666305       0.00155952      -0.00501873      -0.00467332
C       -2.68656340       0.33436060      -0.92748682      -0.05040615       0.00093846       0.00043903       0.00140485
C       -3.27335823      -0.42101802       0.06728033       0.09239815      -0.00079060      -0.00142842      -0.00289570
F       -4.61462233      -0.60610816       0.05766162      -0.10079349      -0.00041462      -0.00288465       0.00206412
C       -2.52212548      -0.99433968       1.07497907      -0.04790848      -0.00150201       0.00713283      -0.00056468
C       -1.15329608      -0.79863930       1.07472638      -0.04278186      -0.00304552       0.00022442       0.00102739
H        3.70092058       1.64498164      -0.59835886       0.04399300      -0.00169098       0.00486613      -0.00430954
H        3.25312121      -1.21601406       0.44045825       0.04170641      -0.00344710      -0.00796643      -0.00069559
H        4.83323349      -0.28921483       0.36555843       0.04678997       0.00456979       0.00136104       0.00569211
H        1.28512511      -0.37457389       0.93586734       0.13634342       0.00750149      -0.00097662      -0.00116111
H       -0.85223641       1.12501266      -1.69285188       0.03990428       0.00251753       0.00141691       0.00044190
H       -3.30053492       0.76990586      -1.70255725       0.04874605       0.00358517       0.00033312       0.00230486
H       -3.00383497      -1.58092636       1.84370659       0.04998377       0.00753515       0.00171716      -0.00333369
H       -0.55982083      -1.24528901       1.86218589       0.04514718      -0.00021909      -0.00014866      -0.00220355
