23
Properties=species:S:1:pos:R:3:charge:R:1:forces:R:3 energy=-14079.110428922686 pbc="F F F"
C       -3.74127076      -1.54299078       0.46104138      -0.05485497       0.00062752       0.00679217       0.00353236
C       -2.90718923      -0.58356419       0.07279228      -0.04303013      -0.00500237       0.00601562       0.00388317
C       -1.43805407      -0.73574529       0.25814982       0.17527016      -0.00380994      -0.00410323      -0.00290974
O       -0.95774836      -1.75143220       0.74774038      -0.30259666       0.00200792       0.00157236      -0.00269423
N       -0.64518796       0.31922173      -0.16008019      -0.06965833      -0.00245596      -0.00467285      -0.00618159
C       -1.18522029       1.53873089      -0.74551198      -0.01131820      -0.00069599      -0.00201862      -0.00588272
C        0.77539172       0.17443935      -0.16815919       0.04346577      -0.00112397      -0.00280713       0.00068418
C        1.48186723       0.43317618      -1.33957645      -0.04714299      -0.00123191       0.00006239      -0.00185074
C        2.86491282       0.33932521      -1.35747957      -0.03600696      -0.00050394       0.00453670      -0.00035511
C        3.55519562      -0.00499545      -0.20563416      -0.04024843       0.00150418      -0.00132841      -0.00257049
C        2.84931195      -0.26609086       0.96069942      -0.03826724       0.00321535       0.00382688       0.00204656
C        1.46651742      -0.18962283       0.98197954      -0.04032522       0.00276685      -0.00323661       0.00165079
H       -3.35645991      -2.44331316       0.91934379       0.04137576       0.00250906      -0.00747615       0.00329425
H       -4.81127116      -1.45450579       0.33019763       0.04341234       0.00500701       0.00494591       0.00013497
H       -3.30949749       0.30583269      -0.39099790       0.04034029       0.00118909      -0.00358013      -0.00246832
H       -2.00460143       1.93070934      -0.14738347       0.04381612       0.00118118       0.00020717       0.00670790
H       -0.39598436       2.28351524      -0.74315693       0.04440550      -0.00054201       0.00197678      -0.00154572
H       -1.53110118       1.41260614      -1.77513986       0.03703330      -0.00640846       0.00154742      -0.00732236
H        0.95120844       0.69519283      -2.24464149       0.04252837      -0.00016098       0.00386503      -0.00280581
H        3.40119112       0.53515767      -2.27596516       0.04320292      -0.00055733       0.00149639      -0.00199558
H        4.63473032      -0.07333272      -0.21798932       0.04288466       0.00081898      -0.00131039       0.00878895
H        3.37952136      -0.54049572       1.86278470       0.04253998       0.00035753      -0.00443015       0.00268923
H        0.91736351      -0.41865863       1.88102045       0.04317397       0.00130889      -0.00188132       0.00517006
