25
Properties=species:S:1:pos:R:3:charge:R:1:forces:R:3 energy=-24931.241875639967 pbc="F F F"
O       -0.50180110      -2.49690603      -0.99550799      -0.35302764      -0.00045978      -0.00202876       0.00193961
C        0.32338432      -1.57403015      -0.98682103       0.16606161      -0.00277409      -0.00259114       0.00167815
C        1.68225349      -1.83605096      -1.51152106      -0.05146011       0.00251794       0.00073461       0.00032011
C        2.57136743      -0.95738872      -1.96809254      -0.08040796       0.00107546       0.00252773      -0.00269696
N        0.06844978      -0.32209051      -0.50923217      -0.09489095      -0.00148734      -0.00331225       0.00531520
C       -1.16135628       0.14284731      -0.04609531       0.04593763      -0.00189515       0.00100414       0.00176201
C       -1.16173811       1.28139354       0.77223316      -0.05569307       0.00251957       0.00360916      -0.00500529
C       -2.34878468       1.82505883       1.22596237      -0.05586435       0.00119425      -0.00134020      -0.00138237
C       -3.56937840       1.25587252       0.88184176      -0.07309923       0.00493502       0.00312457      -0.00353676
C       -3.57452910       0.12595229       0.07547530      -0.05416284       0.00133652      -0.00206880       0.00643488
C       -2.39300769      -0.43660045      -0.38376171      -0.05557588       0.00020917       0.00480453       0.00020446
H        1.89249665      -2.89705940      -1.56407605       0.01924858       0.00082109      -0.00489450      -0.00281018
H        3.52520054      -1.30158250      -2.35566436       0.02101694      -0.00284631       0.00509941      -0.00463553
H        2.40832728       0.11089951      -1.95410045       0.02315549      -0.00079984      -0.00119303       0.00310994
H        0.89200492       0.32232654      -0.32351392       0.08065350      -0.00254244       0.00060900      -0.00113434
H       -0.21017836       1.72602788       1.03839209       0.02423828       0.00065678      -0.00091963      -0.00038069
H       -2.32119793       2.70638735       1.85711120       0.02014506       0.00294312      -0.00137214      -0.00406006
H       -4.49719756       1.68714803       1.23746749       0.02166689      -0.00152914      -0.00730492      -0.00409406
H       -4.51496291      -0.33638600      -0.20302459       0.01991973      -0.00086794       0.00583141       0.00096567
H       -2.40795118      -1.32573826      -0.99091438       0.02396383      -0.00695701      -0.00118937      -0.00061755
S        2.42336395       1.66455490       0.28668316      -0.52782679      -0.00066897      -0.00025494       0.00624084
C        3.10370380       0.36925902       1.38387917      -0.12068444       0.00152797      -0.00171978       0.00046433
H        2.95870177       0.61812215       2.44000759       0.01707685      -0.00451146      -0.00110014      -0.00103474
H        2.62364648      -0.59970587       1.20958702       0.02081250       0.00688605      -0.00274775       0.00015099
H        4.17600690       0.23011932       1.21968816       0.01879641       0.00071635       0.00669323       0.00280247
