25
Properties=species:S:1:pos:R:3:charge:R:1:forces:R:3 energy=-24930.94490351116 pbc="F F F"
O        0.81265287      -1.34233597      -0.38813037      -0.36087555       0.00148940       0.00270233      -0.00019688
C        0.77789993      -0.15227120      -0.78128069       0.09080772       0.00408543       0.00233176       0.00239893
C        1.75014520       0.52306717      -1.51478335      -0.21461569       0.00359494      -0.00197945      -0.00127565
C        3.01036765      -0.10070805      -1.84385520      -0.05199747      -0.00080022       0.00029861      -0.00026171
N       -0.37532007       0.65127433      -0.45117175      -0.12705876      -0.00034265       0.00182222       0.00586357
C       -1.55093201       0.30260896       0.14906745       0.04080990      -0.00151427      -0.00058608       0.00415081
C       -1.88513509      -1.01604849       0.52262113      -0.07251871       0.00032786      -0.00338596       0.00129922
C       -3.10638220      -1.28125892       1.11745322      -0.06832061       0.00051776       0.00076166      -0.00120730
C       -4.03652039      -0.27684828       1.36978243      -0.10517594       0.00179016       0.00015186       0.00115199
C       -3.71158338       1.02728461       1.00787857      -0.07141229      -0.00278602      -0.00131479      -0.00202340
C       -2.49942140       1.31353848       0.41041344      -0.09009650      -0.00528258       0.00113543      -0.00318188
H        1.63167410       1.58151739      -1.73145372       0.00961010       0.00134497      -0.00619676      -0.00306390
H        2.94496770      -1.18329872      -1.78761633       0.02017338      -0.00504693       0.00445713      -0.00575100
H        3.43462309       0.19716080      -2.80011569       0.01365523      -0.00179109       0.00224373       0.00409397
H       -0.31105586       1.61495354      -0.73299213       0.11165801      -0.00503447       0.00136651       0.00210546
H       -1.16060137      -1.78880302       0.33147730       0.01771769       0.00596912      -0.00384070       0.00318817
H       -3.33517541      -2.30568263       1.39168450       0.01212010       0.00383465       0.00232281      -0.00213706
H       -4.98723642      -0.50208432       1.83564624       0.01487450       0.00470894       0.00192648       0.00050008
H       -2.26436555       2.33642073       0.13609329       0.01682925      -0.00098564       0.00316417      -0.00067571
H       -4.41250436       1.83348736       1.19418768       0.01384368      -0.00012397      -0.00052543      -0.00387503
S        4.51741258       0.31097298      -0.67313592      -0.18596703      -0.00272390      -0.00548028       0.00772590
C        3.79562160      -0.34211066       0.86144952      -0.07987569      -0.00125091      -0.00401203       0.00154556
H        2.83284791       0.12724741       1.04881376       0.02654904       0.00632288       0.00317681      -0.00584903
H        3.63564738      -1.41581689       0.79132885       0.02158425      -0.00149975       0.00067127      -0.00293539
H        4.47918817      -0.12984588       1.68461617       0.01768143      -0.00480393      -0.00121071      -0.00158987
