24
Properties=species:S:1:pos:R:3:charge:R:1:forces:R:3 energy=-25367.515034953547 pbc="F F F"
O        0.23359029      -1.48144110      -0.22249027      -0.35714340       0.00279078       0.00005457       0.00613886
C        0.71574522      -0.39964680      -0.63699238       0.09394254      -0.00069736       0.00282147       0.00095566
C        1.98262631      -0.18706190      -1.16979001      -0.20942771       0.00187769       0.00208457       0.00193270
C        2.96050143      -1.24973612      -1.23015860      -0.04980028       0.00198060      -0.00270412       0.00123759
N       -0.09944218       0.79136505      -0.56224895      -0.12384439      -0.00275120       0.00710444       0.00348501
C       -1.39331830       0.94872245      -0.19430254       0.09593866      -0.00345604       0.00044834       0.00660401
N       -1.82606842       2.23352646      -0.21299003      -0.24250086      -0.00178671      -0.00178723       0.00142564
C       -3.08323621       2.47810618       0.13748121      -0.00722999      -0.00059642      -0.00033995      -0.00174538
C       -3.99587964       1.50827225       0.51824333      -0.10899198       0.00297534       0.00334453      -0.00022109
C       -3.54726774       0.18646718       0.52966698      -0.05518944      -0.00304242       0.00373901      -0.00034025
C       -2.25151048      -0.11225785       0.17756044      -0.07541148      -0.00326884      -0.00630677      -0.00021356
H        2.30646430       0.81676401      -1.42738306       0.01240938       0.00079117       0.00738310      -0.00385395
H        3.62583431      -1.21242740      -2.08987516       0.01560602      -0.00009925       0.00656073      -0.00217166
H        2.49277035      -2.22771257      -1.16603827       0.02172314      -0.00323192      -0.00530020      -0.00566818
H        0.33657078       1.66072955      -0.82736167       0.10928484       0.00232235       0.00289614      -0.00646206
H       -3.37826619       3.52549700       0.11065700       0.01005271       0.00632481      -0.00507584      -0.00481609
H       -5.00797632       1.77272914       0.79313626       0.02064501       0.00268740      -0.00441862      -0.00249771
H       -4.21813073      -0.61574080       0.81629669       0.01615172       0.00380775      -0.00004236       0.00244094
H       -1.85677335      -1.11302251       0.17304330       0.02168622       0.00366332      -0.00443305       0.00592876
S        4.27193297      -1.28340563       0.20213295      -0.17855133       0.00069128      -0.00379883       0.00768285
C        3.10602626      -1.48822845       1.58007109      -0.07883399      -0.00149264      -0.00289890      -0.00509160
H        2.37231740      -0.68616672       1.56932898       0.02728638       0.00227144       0.00165790      -0.00323014
H        3.66851420      -1.46607033       2.51416050       0.01932589      -0.00612991       0.00042733      -0.00293200
H        2.57215150      -2.43248969       1.50060706       0.02287232      -0.00563139      -0.00141565       0.00141177
