24
Properties=species:S:1:pos:R:3:charge:R:1:forces:R:3 energy=-25367.51656013909 pbc="F F F"
O        0.77331742       0.45328296      -1.28759582      -0.35526940      -0.00158364       0.00074856      -0.00352839
C        0.68590958      -0.59932352      -0.61014711       0.09457389       0.00247894      -0.00343761      -0.00719646
C        1.63057634      -1.61451513      -0.49790922      -0.21007405       0.00506332      -0.00391732      -0.00013615
C        2.91164242      -1.52303487      -1.15835352      -0.04965549       0.00428866       0.00211509      -0.00014392
N       -0.51094454      -0.82236325       0.16396710      -0.12323458      -0.00136261      -0.00133082       0.00500275
C       -1.66424449      -0.11471490       0.22300665       0.09612699      -0.00154940       0.00469561       0.00770810
N       -2.58808684      -0.62913970       1.07131179      -0.24210589      -0.00328764      -0.00092223       0.00477335
C       -3.74931777       0.00221262       1.19453724      -0.00694235      -0.00244569       0.00116243       0.00431059
C       -4.09279110       1.15604503       0.50959637      -0.10875030       0.00005465      -0.00049803       0.00244356
C       -3.13966438       1.67987883      -0.36517106      -0.05499914      -0.00174200       0.00441215       0.00386804
C       -1.92109384       1.06052027      -0.52078073      -0.07509719      -0.00003077       0.00255713      -0.00237644
H        1.46805771      -2.43626750       0.19284837       0.01231139      -0.00038160      -0.00072695       0.00158121
H        3.33344878      -2.47402094      -1.47448085       0.01546953      -0.00237785       0.00323815      -0.00175398
H        2.88224169      -0.82998357      -1.99365583       0.02128330      -0.00073729       0.00218267       0.00295892
H       -0.53333390      -1.64814430       0.74154233       0.10936501      -0.00216581      -0.00662100       0.00303067
H       -4.45127170      -0.44939149       1.89295818       0.01008656      -0.00236906      -0.00182371      -0.00809844
H       -5.05709729       1.62418657       0.65329119       0.02068247       0.00173115      -0.00229484      -0.00095201
H       -3.35285956       2.58140107      -0.92849928       0.01615045       0.00434048       0.00083788      -0.00240967
H       -1.15319159       1.42744202      -1.17875143       0.02161052       0.00761235      -0.00250008      -0.00411783
S        4.39504495      -0.84679379      -0.08603536      -0.18187682      -0.00637474       0.00595275      -0.00075498
C        3.64648568       0.75049835       0.34607223      -0.07921841       0.00018428      -0.00546049       0.00155751
H        2.73140455       0.58958806       0.90963371       0.02613028      -0.00022236      -0.00226485       0.00090125
H        4.35923666       1.31870539       0.94387362       0.01946288      -0.00290487       0.00233254      -0.00031978
H        3.38370089       1.31070389      -0.54748300       0.02397035       0.00378129       0.00156326      -0.00634744
