27
Properties=species:S:1:pos:R:3:charge:R:1:forces:R:3 energy=-27455.71566415901 pbc="F F F"
C       -2.98526264       0.79022441      -0.61242011      -0.01929430       0.00018749      -0.00307007      -0.00568352
C       -1.67426118       0.73643859      -0.19920186      -0.04219978      -0.00182250      -0.00194644       0.00082628
C       -1.10999174      -0.46364853       0.24582780       0.04472490       0.00069787      -0.00203093      -0.00589276
N        0.23384236      -0.42491685       0.61960785      -0.09529854       0.00191738      -0.00120867      -0.00115794
C        1.01503411      -1.42247738       1.14370339       0.17524992      -0.00013315      -0.00617645      -0.00258248
O        0.60459497      -2.53520799       1.43152421      -0.28270254       0.00083945       0.00326784       0.00042441
C        2.47500119      -1.04875648       1.36847455      -0.03963881       0.00047269       0.00412064       0.00067237
C        3.08331904      -0.01037283       0.43835652      -0.01682558       0.00054303       0.00256112       0.00033522
S        2.62175080       1.70498182       0.90857971      -0.05130124      -0.00004078      -0.00600300       0.00339240
C        3.06058702       2.58569623      -0.61940821      -0.06069681      -0.00019174       0.00014759       0.00103164
C       -1.89624707      -1.61804208       0.27568002      -0.03736657      -0.00123397       0.00413225       0.00130676
C       -3.20915937      -1.56230143      -0.14551410      -0.01994595      -0.00179646       0.00087103       0.00260243
C       -3.77290332      -0.36596943      -0.59613373       0.01220662      -0.00238164       0.00009005       0.00367969
C       -5.11954564      -0.32081009      -1.03420638       0.07408749       0.00062377      -0.00016607      -0.00096331
N       -6.22127276      -0.28199199      -1.39727458      -0.23245302       0.00122769      -0.00068004       0.00642944
H       -3.41074821       1.72281846      -0.95247839       0.04981722       0.00054004      -0.00187946      -0.00400357
H       -1.07028302       1.63536623      -0.22209322       0.04504721       0.00205310      -0.00114252       0.00318849
H        0.68139439       0.47886480       0.51622013       0.10739177       0.00066352       0.00366885       0.00051030
H        3.02367008      -1.98311268       1.27907389       0.04509361      -0.00480298       0.00340858      -0.00190874
H        2.58434927      -0.73507286       2.40737434       0.04420187      -0.00155401      -0.00568931       0.00280579
H        2.76918258      -0.18941991      -0.58961504       0.03618901       0.00346676      -0.00006989       0.00159707
H        4.16785833      -0.07764463       0.46243918       0.04453780      -0.00372128       0.00148976      -0.00093899
H        2.88164699       3.64124088      -0.43667250       0.04661937      -0.00432598       0.00159662      -0.00029247
H        4.11059012       2.44831219      -0.86271301       0.04137448       0.00358407       0.00260811       0.00335283
H        2.44141363       2.26003493      -1.45148365       0.04075105       0.00351247      -0.00299576      -0.00643330
H       -1.47477196      -2.54322952       0.62751147       0.04165884       0.00163803       0.00173561      -0.00426883
H       -3.81384001      -2.45760005      -0.12760029       0.04877201       0.00003674       0.00336085       0.00197083
