32
Properties=species:S:1:pos:R:3:charge:R:1:forces:R:3 energy=-27085.507267624744 pbc="F F F"
C        4.36977366      -0.10685912      -1.95901466      -0.04899514       0.00225898       0.00288891      -0.00120987
C        4.08131829      -1.19338000      -1.14636330      -0.04077586       0.00344133      -0.00043099      -0.00427173
C        2.93439729      -1.22711514      -0.36937045      -0.04554736       0.00275508      -0.00140415      -0.00158065
C        2.05306735      -0.14654923      -0.40151783       0.04259152      -0.00070055      -0.00209620       0.00108908
N        0.87821140      -0.08554933       0.35811029      -0.10040928      -0.00005009       0.00426811       0.00205775
C        0.27048013      -1.07137024       1.07995823       0.17727697      -0.00032273       0.00215245      -0.00366178
O        0.67312989      -2.22434461       1.14870052      -0.28612572       0.00031507       0.00154611       0.00508352
C       -1.00321602      -0.63225831       1.79327465      -0.04865844       0.00524928      -0.00401396      -0.00182929
C       -2.18130976      -0.21473494       0.89314543       0.04691882       0.00348825       0.00176883       0.00353846
S       -1.93687169       1.48649705       0.16963896      -0.06078469       0.00292222       0.00321801       0.00228479
C       -2.03329506       2.56627687       1.62668883      -0.06190201       0.00288012       0.00190134      -0.00241642
C       -3.46495451      -0.25161592       1.71010944      -0.07664896      -0.00247866       0.00021149       0.00477636
C       -2.30022655      -1.13976337      -0.31137709      -0.08389699       0.00004528       0.00245864      -0.00094486
C        2.34373209       0.94977151      -1.21995706      -0.05351167      -0.00449421      -0.00208888       0.00184298
C        3.49095990       0.96675554      -1.99120541      -0.04003949      -0.00298729       0.00009145       0.00465911
H        5.26737156      -0.09594185      -2.56135188       0.04075861       0.00447587      -0.00078100       0.00020744
H        4.75799552      -2.03727244      -1.11413241       0.03989983       0.00298989      -0.00170982       0.00249753
H        2.71296353      -2.07894218       0.25062670       0.03583033      -0.00549563       0.00047095      -0.00054342
H        0.33672450       0.76686410       0.25916151       0.11185724      -0.00668760       0.00148957      -0.00352297
H       -0.78326171       0.17049703       2.49541886       0.03480357       0.00222855      -0.00151785      -0.00534407
H       -1.31693774      -1.49227289       2.37859958       0.03739319       0.00005235      -0.00327747      -0.00263049
H       -1.86892386       3.57471391       1.26086595       0.04459985      -0.00181499       0.00378317      -0.00142105
H       -1.26256578       2.33588893       2.35755363       0.03545325       0.00120879      -0.00439947      -0.00192005
H       -3.01151942       2.52039911       2.09483294       0.03719212       0.00142613      -0.00340316      -0.00725761
H       -3.68482653      -1.28510955       1.97780541       0.03147594       0.00128340      -0.00467991      -0.00119944
H       -4.30701922       0.13777756       1.14325126       0.03080259      -0.00336751      -0.00145923      -0.00152281
H       -3.38253255       0.31313216       2.63625183       0.02893527       0.00059129       0.00179189       0.00622424
H       -3.18497443      -0.90056727      -0.89807472       0.03080301      -0.00590323      -0.00007118       0.00388753
H       -1.43527778      -1.06940121      -0.96387522       0.02755900       0.00220049       0.00358518      -0.00075284
H       -2.37950379      -2.17600197       0.02074768       0.03092252      -0.00155190       0.00203495       0.00032130
H        1.66168193       1.79138721      -1.25412417       0.04099077      -0.00353923      -0.00031373      -0.00009077
H        3.69782728       1.82273090      -2.62039793       0.04123126      -0.00041918      -0.00201369       0.00365055
