31
Properties=species:S:1:pos:R:3:charge:R:1:forces:R:3 energy=-27069.225066843643 pbc="F F F"
O        0.10099767      -1.26135391      -0.37781312      -0.35718930       0.00047676      -0.00160777       0.00231156
C        0.12822214      -0.06819015       0.02863115       0.08287153      -0.00494304      -0.00161710      -0.00019319
C       -0.87654581       0.87163876      -0.07158905      -0.21355848      -0.00204711       0.00200977      -0.00041678
C       -2.17945528       0.52204464      -0.72089965       0.03243810       0.00305465      -0.00565903      -0.00301444
C       -2.00643405       0.11881274      -2.18363921      -0.09643648      -0.00172245      -0.00001390      -0.00243716
C       -2.91860685      -0.58539153       0.02710152      -0.09621160       0.00025852      -0.00117830       0.00047620
N        1.32370493       0.41422118       0.68546972      -0.12586476      -0.00081188      -0.00078929       0.00027949
C        2.53093046      -0.18923933       0.87308164       0.03697330       0.00269197       0.00100104      -0.00331020
C        2.82995829      -1.50645080       0.46252608      -0.07252482       0.00073432      -0.00218948      -0.00089205
C        4.08628204      -2.03796243       0.69693285      -0.06707022       0.00246352      -0.00095314       0.00162453
C        5.08743583      -1.31150447       1.33525893      -0.10402247       0.00175411       0.00259895      -0.00077705
C        4.79966519      -0.01232559       1.74350194      -0.06999338       0.00002524       0.00034798      -0.00084446
C        3.55308663       0.53830599       1.51932399      -0.08962492       0.00124591       0.00025051       0.00227280
H       -0.74565101       1.87175895       0.31961660       0.00819303      -0.00339052       0.00506417      -0.00043107
H       -1.57228198       0.94238317      -2.74698581       0.01351628       0.00225875      -0.00219587      -0.00047904
H       -2.95294382      -0.16619443      -2.64665039       0.01612755      -0.00018549      -0.00119779      -0.00063889
H       -1.32571175      -0.72899486      -2.21597010       0.01903101      -0.00037057       0.00470865       0.00327545
H       -3.12975984      -0.26742253       1.04608182       0.01346795       0.00041605      -0.00071083       0.00187849
H       -2.26899803      -1.45742137       0.05648804       0.01919932       0.00403319       0.00266191      -0.00068350
H       -3.85705541      -0.85675459      -0.46010046       0.01623151       0.00174419      -0.00166149      -0.00150815
H        1.27281749       1.37084679       0.99194190       0.11290367       0.00019960       0.00049326       0.00068396
H        2.05310727      -2.06523851      -0.03030391       0.01870031      -0.00159249      -0.00375639      -0.00067287
H        4.28739276      -3.05273967       0.36906250       0.01312210      -0.00265260       0.00086337       0.00060106
H        6.06472272      -1.74291060       1.50967468       0.01585811      -0.00070895      -0.00250355       0.00020427
H        5.55763702       0.58118237       2.24345241       0.01489726      -0.00019737      -0.00282101       0.00033512
H        3.34803824       1.55266672       1.84631123       0.01774194       0.00146212       0.00421463       0.00110292
S       -3.18396268       2.11584985      -0.62805914      -0.14571977      -0.00172304       0.00266074       0.00179283
C       -4.75485942       1.65109038      -1.43047244      -0.07340184      -0.00073442       0.00140920      -0.00061434
H       -5.26586943       0.85684950      -0.88779921       0.02041121       0.00218624      -0.00100712       0.00056523
H       -4.60267146       1.34246709      -2.46375089       0.02042474      -0.00192245       0.00214063      -0.00131277
H       -5.38749574       2.53753969      -1.42402127       0.01950912      -0.00200226      -0.00056255       0.00082161
