28
Properties=species:S:1:pos:R:3:charge:R:1:forces:R:3 energy=-26000.59632712563 pbc="F F F"
O       -0.23659875       1.91069526      -1.76433601      -0.35659552       0.00276961       0.00049895       0.00108863
C       -0.66311478       0.92468457      -1.15251667       0.16022946      -0.00032946      -0.00323414      -0.00145169
C       -2.02350824       0.41295946      -1.46554887      -0.05511438      -0.00291378       0.00396058      -0.00078094
C       -2.40561253      -0.84566380      -1.69512162      -0.01847443      -0.00080374       0.00029494       0.00356416
C       -1.55636698      -2.06678211      -1.69858473      -0.08307073       0.00036284       0.00019394       0.00073323
N       -0.00443392       0.28303235      -0.14524062      -0.09636613       0.00047417      -0.00084213       0.00040486
C        1.29675624       0.51865040       0.29231054       0.04637373       0.00269559      -0.00016323      -0.00440542
C        2.25807954       1.22938584      -0.44118243      -0.05691213       0.00591721       0.00032582      -0.00140042
C        3.55263259       1.34442420       0.04233933      -0.05458163       0.00350826       0.00108872       0.00344664
C        3.92334950       0.77946370       1.25499345      -0.07491216       0.00014745      -0.00580570       0.00076681
C        2.96606111       0.09320190       1.99348538      -0.05705050      -0.00490007       0.00740934       0.00189991
C        1.67057432      -0.03168936       1.52811055      -0.05510978       0.00155443      -0.00762378      -0.00449098
H       -2.73604522       1.22034130      -1.59881586       0.02009878       0.00296482       0.00190311       0.00022007
H       -3.45962560      -1.00346561      -1.91425905       0.01874153       0.00364889       0.00105468       0.00160051
H       -0.49938404      -1.83308173      -1.80385832       0.02651717       0.00365507       0.00166108       0.00138426
H       -1.68135204      -2.60713765      -0.75691041       0.01665384      -0.00110809       0.00054775       0.00369705
H       -1.84162234      -2.72901533      -2.51716023       0.02395882       0.00286433       0.00165906      -0.00251982
H       -0.58253524      -0.38469698       0.46165448       0.07954219      -0.00426192       0.00065425       0.00161427
H        1.97820472       1.68828086      -1.37458375       0.02428307      -0.00343031      -0.00168907      -0.00546896
H        4.28319035       1.88995375      -0.54453258       0.01949777      -0.00551606      -0.00394940       0.00013593
H        4.93896277       0.87211681       1.61974631       0.02128380      -0.00433966       0.00451675       0.00170121
H        3.23255714      -0.35041843       2.94621701       0.01989502      -0.00052226       0.00392306      -0.00279328
H        0.91651980      -0.55482024       2.10539011       0.02352685       0.00056944      -0.00452232      -0.00350577
S       -1.65498002      -1.50260066       1.85345565      -0.52965939      -0.00040275       0.00155474      -0.00104633
C       -2.74171924      -0.05857554       2.14330106      -0.11894417       0.00495285      -0.00351318       0.00026561
H       -2.53811570       0.73982835       1.42168858       0.01976828      -0.00225420      -0.00012059      -0.00052735
H       -3.79695889      -0.32363669       2.03612244       0.01961145      -0.00304350       0.00142632       0.00178546
H       -2.59538515       0.36275078       3.14198465       0.01680926      -0.00225898      -0.00120959       0.00408248
