23
Properties=species:S:1:pos:R:3:charge:R:1:forces:R:3 energy=-14079.77253878075 pbc="F F F"
C        4.80219729       0.04340086      -0.11220612      -0.06830632      -0.00169065      -0.00169722      -0.00273861
C        3.42234256       0.51912923       0.14728684      -0.00782326       0.00439599      -0.00091384      -0.00073360
C        2.30763992      -0.15473058      -0.13169061      -0.05738348       0.00292700       0.00137728       0.00143917
C        0.97371441       0.41413906       0.16200566       0.16972491       0.00013582       0.00354903       0.00364661
O        0.80962555       1.51752424       0.66715551      -0.29599297       0.00066161       0.00381719       0.00209964
N       -0.06771413      -0.41739961      -0.18789018      -0.09996138      -0.00037006      -0.00180232       0.00220728
C       -1.44624171      -0.21533201      -0.06036415       0.04369937      -0.00178427      -0.00166140      -0.00202506
C       -2.28498808      -1.23872366      -0.50904982      -0.05162989      -0.00232158      -0.00138593      -0.00079992
C       -3.65870914      -1.11610896      -0.41652899      -0.03660061       0.00415625      -0.00437030      -0.00188128
C       -4.22191801       0.02998160       0.12578850      -0.04691997      -0.00180940      -0.00391385      -0.00403262
C       -3.39054730       1.04686924       0.56996520      -0.03880312      -0.00109228       0.00031726       0.00143308
C       -2.01178340       0.93908434       0.48397473      -0.04536337      -0.00061465       0.00056812       0.00049507
H        4.81338623      -0.94318818      -0.56970898       0.03737276       0.00572181       0.00119027       0.00080410
H        5.33128646       0.73526872      -0.77031884       0.03788267       0.00077969      -0.00664396       0.00176252
H        5.37838780       0.00100467       0.81404013       0.03786546      -0.00544691       0.00025650      -0.00371280
H        3.30916242       1.49932937       0.60127702       0.03820480      -0.00236088      -0.00342725      -0.00198619
H        2.36719308      -1.14089359      -0.58388175       0.04049709      -0.00128881       0.00339258      -0.00007876
H        0.18981360      -1.30179168      -0.59289287       0.13723001      -0.00069334       0.00083700      -0.00298285
H       -1.85522487      -2.13805458      -0.93453491       0.04204942       0.00233094       0.00270828       0.00170034
H       -4.29147913      -1.91937460      -0.77016543       0.04289647       0.00142967      -0.00239620       0.00163531
H       -5.29600777       0.12776638       0.20030924       0.04249806      -0.00061563      -0.00035725      -0.00268328
H       -3.81793793       1.94590900       0.99335473       0.04155270      -0.00413193       0.00603905       0.00491839
H       -1.36857339       1.72934928       0.82944477       0.03731066       0.00168166       0.00451644       0.00151340
