36
Properties=species:S:1:pos:R:3:charge:R:1:forces:R:3 energy=-29644.176477696135 pbc="F F F"
C        4.83678853       0.20703880      -1.09377042      -0.05505048      -0.00615224      -0.00016367       0.00134887
C        3.47424081       0.28779262      -0.87264942      -0.05544799      -0.00317566      -0.00272952      -0.00156637
C        2.89999577      -0.26952836       0.27839059       0.04516004       0.00003155       0.00144582      -0.00002961
N        1.51538506      -0.19741254       0.41964805      -0.10035557       0.00163954       0.00160111       0.00225349
C        0.83700296      -0.32369291       1.59587836       0.15983906       0.00242478      -0.00047322       0.00368721
C       -0.63795961      -0.42808601       1.54143165      -0.04982981      -0.00008826       0.00635398       0.00026312
C       -1.43396062      -0.73675963       0.51720423      -0.02493647       0.00205059      -0.00202050       0.00015516
C       -2.88492191      -1.02313770       0.71289846      -0.00268739       0.00094113      -0.00277182       0.00215595
N       -3.78976942      -0.02632391       0.13915956      -0.12624519      -0.00128387       0.00481503      -0.00327635
C       -5.15444050      -0.29026496       0.53248101      -0.02963382      -0.00131490       0.00095831      -0.00100537
C       -3.66030551       0.06672023      -1.30530242      -0.03454912      -0.00137148       0.00191481      -0.00603240
O        1.37679991      -0.35422126       2.71002504      -0.35649285      -0.00232739       0.00067189       0.00138433
C        3.74132163      -0.90757859       1.20092617      -0.05435207       0.00175218       0.00333980      -0.00039453
C        5.10505539      -0.98068651       0.96219677      -0.05339463      -0.00168891      -0.00473973      -0.00225940
C        5.66883527      -0.42839756      -0.17972753      -0.07143634      -0.00297635       0.00337565       0.00007373
H        2.82576440       0.78062664      -1.58730065       0.02547917       0.00206489      -0.00244210      -0.00043694
H        0.98593984       0.15061951      -0.43165191       0.08246306      -0.00319952       0.00035588       0.00013972
H       -1.07216714      -0.29325561       2.52760428       0.02370399       0.00269318      -0.00054557      -0.00073980
H       -1.04420388      -0.80403384      -0.49570229       0.02536661      -0.00471578       0.00090922      -0.00072471
H       -3.10335320      -2.02101347       0.28276163       0.00634731       0.00275808      -0.00078158      -0.00030245
H       -3.09165105      -1.08685723       1.78150430       0.01771461      -0.00104321      -0.00103141       0.00406340
H       -5.54139801      -1.25748474       0.15884994       0.00656391      -0.00138245       0.00262986       0.00078361
H       -5.80468691       0.49543895       0.14979790       0.02067332       0.00244450      -0.00537724      -0.00024752
H       -5.24188151      -0.29555841       1.61877731       0.02143605       0.00296132      -0.00452042      -0.00219836
H       -2.65626887       0.37233596      -1.59115714       0.02382238       0.00123782       0.00209623       0.00251602
H       -4.35833218       0.81388840      -1.68294674       0.02128812      -0.00276942      -0.00214954       0.00092256
H       -3.88425684      -0.89019278      -1.81098832       0.00872360       0.00520205       0.00314386      -0.00080678
H        3.32014955      -1.32678632       2.09884071       0.02528943       0.00295944       0.00624923       0.00049257
H        5.73568636      -1.47954198       1.68941994       0.02115796       0.00297312      -0.00320219      -0.00345167
H        6.73580267      -0.48946277      -0.35501010       0.02294072       0.00133311      -0.00319316       0.00124268
H        5.25454333       0.64637098      -1.99263092       0.02141568      -0.00102326      -0.00145351       0.00219871
S        0.14994336       1.03316375      -2.15343312      -0.51620823      -0.00019236       0.00369134      -0.00055005
C       -0.21580540       2.51700757      -1.14953941      -0.11782729       0.00643555       0.00358587       0.00460110
H       -0.61339975       2.24163129      -0.16792051       0.02473670      -0.00316528      -0.00142447      -0.00435809
H       -0.96061746       3.14697194      -1.64255460       0.02029321      -0.00020723       0.00072931      -0.00180433
H        0.67978139       3.12361070      -0.99030634       0.02403231      -0.00382548      -0.00884677       0.00190123
