52
Properties=species:S:1:pos:R:3:charge:R:1:forces:R:3 energy=-59513.07454888428 pbc="F F F"
Cl      -3.36354316       2.46733452       3.88299007      -0.07947167       0.00060321      -0.00060599      -0.00203262
C       -2.59460029       1.54576600       2.58878928       0.01344007       0.00090797       0.00191519      -0.00134421
C       -1.21450385       1.53396298       2.54827906       0.02042318       0.00044783       0.00374220       0.00066164
N       -0.51831243       0.93301360       1.59268734      -0.18170084      -0.00169012       0.00604998      -0.00199942
C       -1.24751068       0.34853447       0.63418604       0.15601331       0.00014434      -0.00080016       0.00062154
N       -0.64426322      -0.29986817      -0.39263773      -0.09936303      -0.00024553      -0.00534005       0.00553712
C        0.70643131      -0.53490927      -0.67870504       0.03125280      -0.00003092       0.00100431      -0.00283554
C        1.77305439      -0.01614191       0.04498788      -0.05570020      -0.00191377      -0.00024733      -0.00068897
C        3.09490236      -0.28399739      -0.34923135       0.03594312      -0.00155689      -0.00278867       0.00170448
N        4.20798395       0.26754926       0.28241383      -0.09879147      -0.00259248      -0.00215767       0.00316336
C        4.24821970       0.75100455       1.55329769       0.16992834      -0.00617941       0.00054070       0.00167447
C        5.49222425       1.45017629       1.96756793      -0.04711879       0.00135336      -0.00215336      -0.00185626
C        6.43224286       1.98342627       1.19734125      -0.07278387      -0.00108771      -0.00143850       0.00309732
O        3.33919808       0.63102172       2.37981676      -0.32194522       0.00053283      -0.00410724      -0.00383013
C        3.31912703      -1.10263842      -1.45716193      -0.05962722      -0.00123189       0.00041422       0.00006176
C        2.25431357      -1.63436982      -2.16733570      -0.06790284       0.00088250       0.00037190      -0.00107741
C        0.95146852      -1.35832612      -1.79400410       0.05897011      -0.00047414      -0.00157238      -0.00143444
O       -0.17011394      -1.82949534      -2.44541271      -0.14062035      -0.00139311      -0.00320819      -0.00182735
C        0.03514346      -2.80652995      -3.44356398       0.02182411       0.00180314       0.00126469      -0.00363743
N       -2.58912708       0.33044043       0.56352922      -0.20238534      -0.00031792      -0.00261100      -0.00235808
C       -3.29988452       0.87340815       1.56224305       0.05298962       0.00231649      -0.00241469      -0.00036755
C       -4.73292293       0.71784160       1.53309387       0.01122761       0.00170834      -0.00221743       0.00169327
C       -5.70031662       0.77797207       2.53570472      -0.01187970       0.00177531      -0.00315338       0.00088342
N       -6.94051231       0.51793509       2.08320848      -0.24052069       0.00056206       0.00151741       0.00312579
C       -6.80606176       0.28857131       0.77411930       0.08044102      -0.00003412      -0.00108761       0.00281240
C       -7.78009306      -0.00896979      -0.18104435      -0.05032242       0.00159372       0.00124224      -0.00011908
C       -7.40628207      -0.20364170      -1.48654665      -0.03989267       0.00301890       0.00087546       0.00055978
C       -6.04620535      -0.10401560      -1.84676469      -0.06639815       0.00147547       0.00255592      -0.00080442
C       -5.08834281       0.18266670      -0.92141116       0.02314241       0.00020704       0.00046316       0.00038458
N       -5.46142337       0.38456816       0.38463473      -0.00018484      -0.00019052       0.00306107       0.00128047
H       -0.64286679       2.02984840       3.32381212       0.03534454       0.00124344       0.00049731       0.00190153
H       -1.27723795      -0.72889461      -1.04789078       0.11299296      -0.00070969      -0.00301479       0.00560144
H        1.57936339       0.57393664       0.92154427       0.03124790      -0.00071556       0.00297540      -0.00237606
H        5.13183277       0.14304849      -0.23379391       0.08492538       0.00102088       0.00140460      -0.00080383
H        5.55145845       1.54896779       3.04458767       0.02959298       0.00268232       0.00280936       0.00371477
H        6.40918843       1.92895083       0.11767224       0.02897696      -0.00259348      -0.00016832       0.00164976
H        7.28575465       2.47987283       1.64669260       0.03185384      -0.00337653      -0.00104028      -0.00171539
H        4.33666747      -1.31100936      -1.76211120       0.03294349      -0.00202558      -0.00161718       0.00167658
H        2.46559325      -2.26148099      -3.02024273       0.03705271       0.00017694      -0.00086507       0.00057714
H       -0.95403142      -3.09817964      -3.78151968       0.03624178       0.00291730      -0.00335546      -0.00487634
H        0.59912635      -2.40690873      -4.28995765       0.03017204       0.00181300      -0.00012742      -0.00256234
H        0.55507103      -3.68268845      -3.04742954       0.03007243       0.00029925       0.00531406       0.00172058
H       -5.52349034       0.98383918       3.57562188       0.03591376      -0.00259375       0.00484153      -0.00291258
H       -8.80226927      -0.07118620       0.15909871       0.03753918       0.00024879      -0.00293793      -0.00324957
H       -8.14407790      -0.43269849      -2.24160258       0.03608395      -0.00100405       0.00067444       0.00407984
H       -5.73988932      -0.25731574      -2.87058777       0.03586744       0.00634455      -0.00013906       0.00030484
H       -4.02955266       0.25570663      -1.11365695       0.03806065       0.00021798       0.00074321       0.00037286
S        6.83400846      -0.34719287      -1.34555080      -0.51120549      -0.00266342      -0.00033923      -0.00273549
C        7.42221479      -1.40536144       0.02082371      -0.12129844      -0.00209418      -0.00210486      -0.00210633
H        7.67124429      -0.81259692       0.90338551       0.03058948       0.00166275       0.00220725      -0.00117875
H        8.32400372      -1.94641714      -0.27596435       0.02808465      -0.00079573       0.00213915       0.00387776
H        6.67924876      -2.15361097       0.31337697       0.02996153      -0.00044745       0.00298872      -0.00200990
