47
Properties=species:S:1:pos:R:3:charge:R:1:forces:R:3 energy=-47591.88282071489 pbc="F F F"
Cl       2.20226425       4.56881503       0.84015984      -0.05071771       0.00113288       0.00154629       0.00648333
C        1.47941250       3.05314821       0.33305776       0.01645369       0.00204391      -0.00218566      -0.00401470
C        0.15261861       2.82870167       0.63957515       0.03239168      -0.00100431      -0.00015702       0.00379951
N       -0.48081494       1.70018353       0.34497038      -0.17838146      -0.00221186      -0.00167629       0.00712465
C        0.25786629       0.76589445      -0.26139248       0.15781130      -0.00009860       0.00344254      -0.00486198
N       -0.29725890      -0.42393795      -0.63015463      -0.09466838       0.00324964      -0.00219385       0.00633812
C       -1.53507487      -0.98407984      -0.33423074       0.03120004      -0.00139125      -0.00055446      -0.00334884
C       -2.46311766      -0.42422135       0.53463110      -0.05285510      -0.00076542      -0.00187852      -0.00247253
C       -3.66877229      -1.08711353       0.78936023       0.03721853       0.00089763      -0.00239544      -0.00085233
N       -4.65028188      -0.58010666       1.65225371      -0.09625915       0.00135682       0.00351929       0.00054834
C       -4.58181708       0.46152620       2.54519281       0.17580162      -0.00150661      -0.00036188       0.00638955
C       -5.85069845       0.67226236       3.29605241      -0.04689315      -0.00305379       0.00055100       0.00457314
C       -5.95170462       1.60441312       4.23382038      -0.05540354      -0.00233920       0.00413146      -0.00231820
O       -3.58700856       1.14899072       2.72086729      -0.28908584      -0.00033758      -0.00109736      -0.00108590
C       -3.93649848      -2.29568941       0.15943761      -0.06086146       0.00579171      -0.00124536      -0.00528866
C       -3.01395667      -2.85974537      -0.71116668      -0.05908015       0.00506606      -0.00065172      -0.00538437
C       -1.81446102      -2.21846360      -0.96317100       0.05965508       0.00277985      -0.00157209      -0.00365558
O       -0.82714633      -2.68441458      -1.79061529      -0.13294777      -0.00252584      -0.00533537      -0.00151399
C       -1.06956066      -3.89395892      -2.48821327       0.02653473      -0.00204829      -0.00419890       0.00068055
N        1.55545183       0.87068596      -0.57613074      -0.19418103       0.00496458      -0.00222140       0.00470545
C        2.18965829       2.02320587      -0.32050674       0.05683680       0.00753275      -0.00126904      -0.00116441
C        3.56424921       2.13887972      -0.73776162       0.01225524       0.00422202       0.00241062       0.00232249
C        4.33975068       3.24266546      -1.09679450       0.00132710       0.00203367       0.00207470       0.00206338
N        5.58186310       2.90690071      -1.47368082      -0.22391769      -0.00054812      -0.00073319       0.00262656
C        5.64411074       1.57696083      -1.35805409       0.08042249      -0.00666754      -0.00166512      -0.00304224
C        6.71527976       0.71565452      -1.59719153      -0.03812607      -0.00713018      -0.00039663      -0.00234246
C        6.55379795      -0.62969454      -1.39621526      -0.02046213       0.00071353      -0.00069667       0.00071658
C        5.31332379      -1.12902748      -0.95198463      -0.04865913      -0.00079524       0.00051429       0.00194915
C        4.26082191      -0.29660026      -0.71967689       0.03359240      -0.00211681       0.00021947      -0.00123452
N        4.41978097       1.05054626      -0.92055739       0.00049096      -0.00245729       0.00074551      -0.00137354
H       -0.42461504       3.59200669       1.14586768       0.04779191      -0.00556338       0.00487124       0.00067252
H        0.29984245      -1.00991859      -1.19109346       0.11941956      -0.00088031      -0.00120120       0.00169231
H       -2.25182500       0.51526018       1.00957103       0.03319550      -0.00219998      -0.00063855      -0.00325478
H       -5.51494085      -1.09263984       1.63903913       0.13864703       0.00321601       0.00366092       0.00627827
H       -6.70113250       0.04158061       3.06113328       0.04305183       0.00117047      -0.00110495      -0.00212866
H       -6.86941637       1.76266200       4.78516408       0.04388106       0.00377467       0.00215482      -0.00208017
H       -5.10200917       2.23261843       4.46495146       0.04237722      -0.00281507      -0.00155820      -0.00346582
H       -4.86648732      -2.81530560       0.34809205       0.04704673       0.00520056       0.00443117      -0.00397596
H       -3.25028790      -3.80211745      -1.17916722       0.04719110       0.00082245       0.00128194      -0.00175250
H       -0.18883662      -4.06661025      -3.09638224       0.04560513       0.00145152       0.00298047       0.00370236
H       -1.20246502      -4.73139097      -1.80064026       0.03772209      -0.00639300      -0.00187529       0.00137557
H       -1.94469426      -3.81264685      -3.13574113       0.03778981      -0.00142889       0.00207104       0.00298221
H        4.01629290       4.26788023      -1.10363354       0.04583139      -0.00252392      -0.00013929      -0.00378286
H        7.64264725       1.15390958      -1.93282073       0.04975276      -0.00878528       0.00167802      -0.00221128
H        7.37069328      -1.31289571      -1.57364274       0.04792286       0.00553245       0.00032134      -0.00051062
H        5.17627112      -2.18709274      -0.78791372       0.04795256       0.00432104      -0.00208280      -0.00338966
H        3.28320304      -0.61024718      -0.39439033       0.04532945       0.00031420      -0.00152048       0.00348246
