40
Properties=species:S:1:pos:R:3:charge:R:1:forces:R:3 energy=-34695.345721044665 pbc="F F F"
C        3.58294630       2.47371876      -0.54992190       0.02615641       0.00366017       0.00300429      -0.00251291
N        4.77262866       2.75710142      -1.05080434      -0.23773308       0.00663990       0.00261856       0.00149432
C        5.53005774       1.69260394      -1.41431192       0.05270116      -0.00161465      -0.00308035      -0.00617639
N        5.21895896       0.41572951      -1.32471816      -0.22068986       0.00258766      -0.00201107       0.00329485
C        3.99513847       0.12300171      -0.80856589       0.04608709       0.00045345       0.00181253       0.00062157
C        3.10059882       1.15687896      -0.39212223      -0.02409518      -0.00057937       0.00286382      -0.00210614
C        1.84285050       0.84300951       0.12509983      -0.07622319      -0.00018798      -0.00130599       0.00003868
C        1.42795497      -0.47739706       0.25170468       0.02679740      -0.00297842      -0.00312991      -0.00331564
N        0.16434058      -0.73614804       0.71574822      -0.11264989      -0.00252549      -0.00033538       0.00045208
C       -0.41192822      -1.97174063       1.09029222       0.14169838       0.00311435      -0.00319861       0.00812333
C       -1.81974682      -1.96232546       1.34385390      -0.11357647       0.00052613      -0.00373463      -0.00839309
C       -2.83136233      -1.15068189       0.84065001       0.00450580      -0.00123376       0.00000036      -0.00349762
C       -2.55019443       0.12496836       0.09808461      -0.00000206       0.00050367      -0.00082672      -0.00113313
N       -1.87491793       1.18111455       0.89560732      -0.10308124      -0.00689794      -0.00017203       0.00050699
C       -1.75002222       2.39076157       0.10123059      -0.02305892      -0.00223364       0.00293753       0.00372335
C       -2.56257514       1.44128522       2.14681622      -0.02401214       0.00129775       0.00018923       0.00117163
O        0.29385619      -2.98211446       1.25296479      -0.35306084      -0.00118310      -0.00374740       0.00341451
C        2.33180329      -1.50664331      -0.14335385      -0.06420282       0.00005746       0.00015883      -0.00326511
C        3.56392593      -1.20862445      -0.66266137      -0.05665616      -0.00249824       0.00145577      -0.00271792
H        6.50557453       1.92870185      -1.82797453       0.02257055       0.00092222      -0.00194207       0.00343743
H        1.18905116       1.65284359       0.43203572       0.03636649      -0.00082448      -0.00603380       0.00691661
H       -0.44231258       0.07783245       0.87156655       0.09165746       0.00136445       0.00492283      -0.00014640
H       -2.15522531      -2.84567866       1.86919465       0.02147852       0.00398254       0.00443761       0.00434126
H       -3.73600866      -1.11495085       1.43822409       0.02224907       0.00272914       0.00624929       0.00339766
H       -1.90025512      -0.09228724      -0.74612483       0.01436674      -0.00404059       0.00337661      -0.00408293
H       -3.49499012       0.51136519      -0.29494624       0.01205188       0.00419978      -0.00428599       0.00165121
H       -1.20954658       2.17536892      -0.81857163       0.02551557      -0.00119884       0.00089539      -0.00005158
H       -2.72590729       2.82015741      -0.16597739       0.01466369      -0.00578440      -0.00099033      -0.00250320
H       -1.19034186       3.14246470       0.65569636       0.02542966       0.00185158       0.00563966       0.00331287
H       -2.03552137       2.21875962       2.69733735       0.02530513      -0.00240909      -0.00067304       0.00012573
H       -3.60517876       1.76475607       1.99693493       0.01165308       0.00657822      -0.00361314      -0.00001891
H       -2.56462796       0.53374129       2.74328473       0.02315393      -0.00068301       0.00225479      -0.00248742
H        4.23565547      -2.00017702      -0.97341338       0.02760428       0.00144148       0.00153628       0.00749839
H        2.95881931       3.31329302      -0.25139927       0.02608780       0.00215135       0.00408245      -0.00037883
H        2.01164797      -2.52577607      -0.01489069       0.02768697      -0.00463205       0.00012740      -0.00706345
S       -4.06574349      -2.26679046      -0.74464256      -0.28994760      -0.00384191      -0.00140315       0.00512794
C       -2.67014991      -2.87397082      -1.73638912      -0.10894050       0.00460687      -0.00282118      -0.00120023
H       -2.28442603      -2.11042965      -2.41382597       0.02589726      -0.00483799      -0.00093862      -0.00661278
H       -2.99707913      -3.73034004      -2.32361345       0.02695495      -0.00043743      -0.00184210      -0.00411241
H       -1.86539438      -3.19612351      -1.07703587       0.02929056       0.00195355      -0.00247742       0.00312494
