37
Properties=species:S:1:pos:R:3:charge:R:1:forces:R:3 energy=-29659.614694010266 pbc="F F F"
C        4.85236287       1.15230017       1.70372650      -0.04091846      -0.00081375       0.00321471      -0.00211964
C        3.59072008       0.61937362       1.51445327      -0.05459763      -0.00071704       0.00196946       0.00132556
C        2.99289028       0.63796455       0.25037536       0.04329316      -0.00015146      -0.00514566       0.00172611
N        1.71506826       0.07594226       0.14408417      -0.10226604       0.00119267      -0.00277160      -0.00862913
C        0.93276950      -0.08961270      -0.96291107       0.17518352       0.00130904       0.00315721      -0.00815865
O        1.23728256       0.30914944      -2.07772010      -0.28973606       0.00030253      -0.00324811       0.00410599
C       -0.37672156      -0.82907816      -0.70398501      -0.04664125       0.00011720       0.00042250       0.00045691
C       -1.32028558      -0.18674046       0.31384791       0.00585437      -0.00036862       0.00379089       0.00197022
S       -0.83347388      -0.45472405       2.07678414      -0.05121877      -0.00293120       0.00014727      -0.00652173
C       -1.03201646      -2.24904980       2.27025639      -0.05831288      -0.00224728       0.00508480      -0.00019239
C       -2.76585018      -0.61058914       0.08098477       0.00037577       0.00209048       0.00154845      -0.00075099
N       -3.27133608      -0.13898518      -1.19723742      -0.13394617      -0.00012813       0.00126020      -0.00207125
C       -3.55197370       1.28444469      -1.19586092      -0.02557283      -0.00058820      -0.00003049       0.00282766
C       -4.42918475      -0.89919636      -1.62402081      -0.02596282      -0.00132348       0.00089044       0.00427564
C        3.68098656       1.20676434      -0.82194196      -0.04575736      -0.00369136       0.00093652       0.00324223
C        4.94292486       1.74080234      -0.61454434      -0.04188608      -0.00228413      -0.00310799       0.00056797
H        5.46714930       2.18096388      -1.45303609       0.03809786      -0.00162452      -0.00250739       0.00218133
C        5.53825746       1.71903541       0.63839478      -0.05100547       0.00096230       0.00055132      -0.00215342
H        6.52397437       2.13863277       0.78420075       0.03913651       0.00321645      -0.00152232       0.00036594
H        5.30224182       1.12459723       2.68774700       0.03947471      -0.00524623       0.00525007       0.00010637
H        3.06034359       0.18503493       2.35420150       0.04039795      -0.00028020      -0.00410332       0.00152385
H        1.30562180      -0.23928657       1.01590284       0.11140858       0.00580360      -0.00453797      -0.00218046
H       -0.16578517      -1.85688231      -0.40643035       0.03534216       0.00433297       0.00117398       0.00456310
H       -0.88990086      -0.87534492      -1.65908691       0.03458935       0.00129134      -0.00134587      -0.00188713
H       -1.24616606       0.89522586       0.23405812       0.03252466       0.00121220       0.00625174       0.00408284
H       -0.39325363      -2.80727488       1.59122358       0.03591540      -0.00219717      -0.00243256       0.00154201
H       -2.06779252      -2.54245019       2.13512375       0.03681958      -0.00191765      -0.00422909      -0.00055151
H       -0.73804949      -2.47440681       3.28935261       0.04258024       0.00289494      -0.00148304       0.00087232
H       -3.39493510      -0.26431252       0.91273826       0.01918352       0.00190506      -0.00108519      -0.00289137
H       -2.81122265      -1.70173805       0.08695200       0.02877823       0.00003652       0.00108691      -0.00093662
H       -4.31137666       1.56933851      -0.45052466       0.02161897      -0.00147412      -0.00071442      -0.00144817
H       -3.91090793       1.58276696      -2.17809720       0.03417853      -0.00290065       0.00037725       0.00232101
H       -2.65250096       1.86137590      -0.99491208       0.03187631      -0.00181675       0.00006375      -0.00053836
H       -5.29619304      -0.79583311      -0.95054136       0.02013772       0.00272989      -0.00345298       0.00213360
H       -4.73460034      -0.56505786      -2.61293762       0.03352280       0.00264924      -0.00352298      -0.00023128
H       -4.17728380      -1.95582996      -1.69013980       0.03281013       0.00116554       0.00687048      -0.00031511
H        3.22444207       1.22487390      -1.79644332       0.03472179      -0.00050957       0.00119308       0.00138576
