75
Properties=species:S:1:pos:R:3:charge:R:1:forces:R:3 energy=-71542.08349264115 pbc="F F F"
C        4.50635228      -4.09569541      -0.76380729       0.02327739      -0.00056396      -0.00154207      -0.00120074
N        3.46807860      -4.31939067      -1.56821175      -0.21567099      -0.00087381      -0.00389553      -0.00273660
C        2.68017066      -3.25615683      -1.80291734       0.15551706      -0.00122402      -0.00291340       0.00136054
N        1.57262942      -3.53464469      -2.55906451      -0.09721071      -0.00018704       0.00090264      -0.00264691
C        0.39087433      -2.83075193      -2.74079258       0.02896848      -0.00201813      -0.00232237       0.00210217
C        0.09229842      -1.62674674      -2.11220205      -0.04682876       0.00109981      -0.00260985       0.00324970
C       -1.16638613      -1.04926046      -2.27797193       0.03470192       0.00390860       0.00052092      -0.00205898
N       -1.53654778       0.13734272      -1.61966913      -0.09044677      -0.00064287      -0.00267176      -0.00155522
C       -0.92300186       0.78150415      -0.57610932       0.18453141       0.00349374       0.00052251      -0.00767058
O        0.12215233       0.41695813      -0.06488044      -0.26529145      -0.00126886      -0.00335131      -0.00242364
C       -1.65535054       2.05571896      -0.14643887      -0.00699812      -0.00302955      -0.00340440      -0.00194971
C       -0.82968831       2.87736540       0.83559350      -0.02654276      -0.00415325      -0.00054298      -0.00524029
S       -0.46388270       2.16269908       2.48521175      -0.04643905       0.00408448      -0.00069000       0.00413509
C       -1.56475363       3.14130814       3.54465958      -0.06547597      -0.00173803      -0.00088939       0.00136193
C       -3.12358787       1.87846794       0.24826545       0.01061522      -0.00228019       0.00080491       0.00410689
N       -3.39476016       1.20507107       1.49956220      -0.12415287      -0.00204602      -0.00268477       0.00140780
C       -4.79671339       1.37180789       1.87268950       0.00278775      -0.00101434      -0.00120252      -0.00113807
C       -5.07204875       0.70430803       3.20297973       0.03079061      -0.00023413       0.00111299      -0.00058084
O       -4.74672314      -0.67354674       3.17022360      -0.19976899       0.00835071       0.00354124      -0.00240113
C       -3.37748084      -0.84478579       2.82170233       0.03198880       0.00592775      -0.00215672      -0.00190726
C       -3.06008741      -0.21661381       1.48246457      -0.00478872       0.00093011      -0.00070067       0.00167809
C       -2.09534917      -1.64011572      -3.12473248      -0.06183308      -0.00085046      -0.00122465       0.00504552
C       -1.78983354      -2.82307876      -3.78801332      -0.06244928      -0.00139071       0.00103164       0.00046683
C       -0.55990030      -3.42716981      -3.60070361       0.05994838      -0.00122915       0.00042578       0.00026230
O       -0.16481705      -4.60221473      -4.17867085      -0.13624819       0.00344089      -0.00049713       0.00507523
C       -1.03686241      -5.19145466      -5.12781104       0.02472513       0.00187301       0.00357425       0.00346815
N        2.89717190      -2.00813666      -1.39951501      -0.16934773       0.00255582      -0.00164276      -0.00194280
C        3.92813987      -1.78872918      -0.58255095       0.10760342      -0.00382072       0.00159077       0.00348918
N        4.14561007      -0.54639672      -0.08900514      -0.09006289      -0.00301328       0.00410596      -0.00175174
C        3.53038863       0.63929170      -0.47047405       0.04977463       0.00278686       0.00557279      -0.00296304
C        3.10492105       0.85426793      -1.78017432      -0.04587329      -0.00010502       0.00272713       0.00005081
C        2.57849393       2.07695173      -2.14604989      -0.03812756       0.00410296       0.00079969      -0.00053499
C        2.45270108       3.10178730      -1.21668298      -0.04526206      -0.00000610      -0.00400659      -0.00123441
C        2.84642977       2.88341457       0.09081117      -0.03215054       0.00042260      -0.00130853      -0.00278948
C        3.36935505       1.65756611       0.48900452      -0.02433260      -0.00696469      -0.00144458       0.00162593
C        3.73512547       1.40674480       1.90801592       0.16005032      -0.00127257       0.00032177       0.00169559
O        4.71113206       0.71157414       2.22460311      -0.30257118      -0.00003240      -0.00398192      -0.00534930
N        2.92313976       1.98560956       2.81719925      -0.11398250       0.00019171       0.00577312       0.00145949
C        3.15307046       1.86744232       4.23539806      -0.02032385      -0.00073221      -0.00089926       0.00168848
C        4.77265740      -2.85838858      -0.22036982      -0.00543405      -0.00254701       0.00081496      -0.00122396
Cl       6.12135089      -2.62406870       0.87071842      -0.06504237      -0.00210550       0.00146302       0.00016918
H        5.15493457      -4.93544731      -0.53734380       0.04545656       0.00282094      -0.00223676       0.00014663
H        1.56685371      -4.47223597      -2.92843322       0.12040321       0.00132961       0.00117206      -0.00159915
H        0.83326258      -1.14388600      -1.50356069       0.03105048       0.00178731       0.00249300      -0.00179314
H       -2.39618545       0.54133044      -1.95114082       0.13639306       0.00023924      -0.00250503      -0.00206087
H       -1.68567222       2.68090805      -1.05013408       0.03925665      -0.00191860      -0.00297266      -0.00013565
H        0.13820901       3.07644829       0.38816115       0.03076662      -0.00383435       0.00118311       0.00010492
H       -1.33671736       3.82906645       0.98290815       0.03428010       0.00137097       0.00240998      -0.00241561
H       -1.25630966       4.18454638       3.58363390       0.03744097       0.00440374      -0.00355060      -0.00210396
H       -2.58678882       3.05874085       3.18800065       0.02602008      -0.00087581      -0.00185371       0.00368575
H       -1.50399894       2.71750505       4.54347352       0.04017212      -0.00290803       0.00187497      -0.00037651
H       -3.54896357       2.88235440       0.31812846       0.02988218       0.00653320       0.00639096       0.00122269
H       -3.66800127       1.39151977      -0.58212163       0.02231575      -0.00515997       0.00332626       0.00541855
H       -5.02253434       2.43643858       1.94645520       0.03542226       0.00427784      -0.00116989       0.00048542
H       -5.46904384       0.94140418       1.11005132       0.02140776      -0.00066924      -0.00005542      -0.00323314
H       -4.50354952       1.20620954       3.99558230       0.02325342       0.00433739      -0.00081252      -0.00205686
H       -6.13156174       0.77153310       3.44313617       0.03549419      -0.00327769       0.00010813       0.00221524
H       -3.19403426      -1.91640175       2.78106681       0.03505247      -0.00425949      -0.00505594       0.00016475
H       -2.73424564      -0.41213330       3.59518815       0.02378483      -0.00077137       0.00354061      -0.00080646
H       -3.61824878      -0.74857142       0.69545925       0.02068193       0.00214639       0.00800998      -0.00186974
H       -1.99968876      -0.34026105       1.28402970       0.03228297      -0.00195359       0.00259547       0.00415266
H       -3.06878846      -1.19021870      -3.27286001       0.04211707       0.00030694       0.00017806      -0.00013716
H       -2.53183173      -3.25835319      -4.43837914       0.04333906       0.00166974      -0.00000277      -0.00169820
H       -1.23449771      -4.51454062      -5.96155955       0.03526067       0.00305427       0.00083663      -0.00275463
H       -1.98399179      -5.48826702      -4.67234362       0.03521964       0.00240619      -0.00031149       0.00400520
H       -0.52328493      -6.07284565      -5.49465608       0.04225243      -0.00306416       0.00064502       0.00564332
H        4.67977389      -0.46632561       0.77377290       0.10420813       0.00006233      -0.00100509      -0.00517505
H        3.18072400       0.05260426      -2.49377602       0.03479328      -0.00029829       0.00552149       0.00100689
H        2.26157373       2.23297686      -3.16824109       0.04316363       0.00121106       0.00416231       0.00421180
H        2.05680555       4.06290653      -1.51340742       0.04151120       0.00475158      -0.00240884       0.00584283
H        2.77229738       3.67989950       0.82079654       0.03906286      -0.00290861      -0.00459239      -0.00200024
H        1.99654011       2.25666205       2.50715126       0.10688175      -0.00280385      -0.00167819      -0.00064234
H        2.45686733       1.16819595       4.70167569       0.03341571      -0.00096113       0.00029765       0.00084340
H        4.16391107       1.50786806       4.38982296       0.03763713      -0.00121619      -0.00183382      -0.00055162
H        3.03733358       2.83982038       4.71145909       0.03769565      -0.00365303      -0.00172446      -0.00033792
