38
Properties=species:S:1:pos:R:3:charge:R:1:forces:R:3 energy=-30695.913136748026 pbc="F F F"
C        4.77661312       1.29338768      -0.38275684      -0.03995363      -0.00596235       0.00310456       0.00145747
C        3.39352697       1.20353788      -0.34881204      -0.04411574      -0.00599543      -0.00439087       0.00180113
C        2.78384079      -0.03456294      -0.54492886       0.04661186      -0.00165058      -0.00684226      -0.00173565
N        1.39584703      -0.23347748      -0.49823072      -0.08962357      -0.00218865      -0.00274092       0.00501207
C        0.38772689       0.69043678      -0.55248684       0.18022656       0.00160411       0.00333245      -0.00390033
O        0.57936276       1.89557235      -0.62805275      -0.27780280       0.00267212       0.00465479       0.00003164
C       -1.01630493       0.10381227      -0.57910112      -0.01867443       0.00024911       0.00064552      -0.00084709
C       -1.16996835      -1.28545050       0.04741896       0.00599824      -0.00277132      -0.00055595      -0.00228320
N       -2.52965753      -1.52514904       0.49855288      -0.13920584      -0.00072011      -0.00490456      -0.00317193
C       -2.76694264      -2.91133230       0.80936730      -0.02348134      -0.00242662      -0.00150647      -0.00173084
C       -3.52455846      -0.93012596      -0.37196792       0.00270180       0.00239311      -0.00135022       0.00168004
C       -3.44113623       0.59381303      -0.29983338      -0.04674114      -0.00268182      -0.00440542       0.00123516
C       -2.02478889       1.07401437       0.01886436       0.00649173      -0.00425465      -0.00496882      -0.00727025
S       -1.75658927       1.28097567       1.84679623      -0.08423657       0.00426319      -0.00377764       0.00367978
C       -1.29138988       3.03752732       1.94884930      -0.07545039       0.00209405       0.00281142       0.00201836
C        3.57853267      -1.15916843      -0.77806558      -0.05214208       0.00395432      -0.00365902       0.00225774
C        4.95665722      -1.05311607      -0.81539022      -0.03930346       0.00405731       0.00317235       0.00727362
H        5.55587006      -1.93452701      -1.00222084       0.03855802       0.00053813       0.00178137       0.00377450
C        5.56631271       0.17661805      -0.61411825      -0.05102883      -0.00035862       0.00751810      -0.00503591
H        6.64341085       0.26317144      -0.63929959       0.03818205       0.00122610       0.00066382      -0.00128147
H        5.24087791       2.25805595      -0.22550948       0.03709815      -0.00030345       0.00141230      -0.00098280
H        2.78507307       2.07399411      -0.17619359       0.03448234      -0.00413908      -0.00170426      -0.00612351
H        1.11627768      -1.19653057      -0.43796295       0.13057268      -0.00531573      -0.00416800      -0.00469037
H       -1.27034393       0.02768126      -1.64351397       0.03756167      -0.00045351       0.00181244       0.00270462
H       -0.51570638      -1.36060852       0.92201054       0.02243852      -0.00264407      -0.00010074      -0.00557886
H       -0.84827026      -2.05843449      -0.67543057       0.02183826       0.00041905      -0.00144022       0.00237951
H       -2.02953723      -3.26022858       1.53133917       0.03489565      -0.00286968       0.00350169      -0.00048105
H       -2.71565304      -3.57547888      -0.06990831       0.02173216       0.00540950       0.00572144      -0.00360617
H       -3.75240004      -3.02349593       1.25574211       0.03473287      -0.00145393       0.00085206       0.00220645
H       -4.51114806      -1.26476479      -0.05557457       0.02968273       0.00667494       0.00346194       0.00185553
H       -3.40574873      -1.27793043      -1.41551530       0.01593703      -0.00200322      -0.00077884       0.00393352
H       -4.12392852       0.98435906       0.44957339       0.02762786       0.00024233       0.00636700      -0.00263655
H       -3.74348656       1.01720813      -1.26056420       0.03192854       0.00496997       0.00333269       0.00591128
H       -1.85468582       2.04975219      -0.42574341       0.03360892       0.00252181      -0.00108590       0.00256633
H       -1.05153114       3.23305006       2.99186741       0.04029785      -0.00084179      -0.00135882       0.00476849
H       -2.11469465       3.68389620       1.65098061       0.03559393       0.00083101       0.00160469      -0.00502616
H       -0.41804109       3.24111729       1.33574176       0.03549878       0.00262760      -0.00283280      -0.00044977
H        3.11254711      -2.12480410      -0.93768249       0.03746166       0.00228604      -0.00317822       0.00028492
