61
Properties=species:S:1:pos:R:3:charge:R:1:forces:R:3 energy=-63946.832945558934 pbc="F F F"
F        3.55019591      -2.86062647      -3.69109943      -0.11424679      -0.00313678      -0.00173145      -0.00105279
C        3.57635171      -2.43017715      -2.40938484       0.08364953      -0.00214690       0.00033798      -0.00028399
C        3.53290493      -1.07535105      -2.11690673       0.02258752      -0.00423735       0.00155588      -0.00175363
Cl       3.41337765       0.10335752      -3.40992096      -0.10801089       0.00064664      -0.00286063       0.00261070
C        3.56411261      -0.64226666      -0.80845203      -0.04105304       0.00072829       0.00354810      -0.00152336
C        3.63562236      -1.56611360       0.22958453       0.04402064       0.00200159       0.00269119      -0.00118425
N        3.67722556      -1.15596622       1.57428944      -0.10999373       0.00057153      -0.00090383       0.00100631
C        3.25946793       0.07628619       2.02458501       0.06408314      -0.00038057      -0.00101773       0.00337175
C        4.02467069       0.79816897       2.95948228      -0.05394284       0.00137001       0.00253557      -0.00129548
C        5.18756791       0.23686513       3.51628863       0.05796791      -0.00366618       0.00149838       0.00728739
N        6.14554614      -0.25987486       3.95808307      -0.28958192      -0.00454640      -0.00385151       0.00185331
C        3.61142763       2.10660774       3.30978378       0.01487716       0.00152885       0.00359924      -0.00450983
N        2.55094503       2.70698864       2.82964316      -0.21224795      -0.00006642       0.00201796      -0.00492356
C        1.76674718       1.99621404       1.96337807       0.03739110      -0.00070001       0.00034703      -0.00179565
C        2.03745509       0.64384268       1.59664699      -0.02453153       0.00017274      -0.00071006      -0.00003974
C        1.07557944      -0.08433949       0.87986506      -0.04294984       0.00068657      -0.00211575       0.00067783
C       -0.02294293       0.53351333       0.31919564       0.01811329       0.00270028      -0.00082092      -0.00257009
N       -0.96735195      -0.12196303      -0.42588227      -0.10355886       0.00138061       0.00031413      -0.00017603
C       -0.76051567      -1.34997064      -1.09044162       0.13935383      -0.00107288       0.00205406       0.00175783
C       -1.90221087      -1.95185140      -1.69433412      -0.11554988      -0.00193762       0.00169560      -0.00167252
C       -3.24171344      -1.91622626      -1.31657454       0.00081644       0.00032782       0.00237966      -0.00122256
C       -3.74860107      -0.96861614      -0.26774205      -0.00176779      -0.00147291       0.00208068       0.00183910
N       -3.73391866       0.46011461      -0.65291159      -0.10129493       0.00567079       0.00313560       0.00262263
C       -4.38750204       0.70016770      -1.92486813      -0.02604453      -0.00120965       0.00225826      -0.00573470
C       -4.32481084       1.25476052       0.40869070      -0.02561281      -0.00096142       0.00211830       0.00127333
O        0.38261884      -1.83455359      -1.17679015      -0.30755186       0.00302530       0.00308681      -0.00424150
C       -0.19354955       1.93355293       0.54749768       0.06409443       0.00136802      -0.00086415       0.00069377
O       -1.24645071       2.48835308      -0.11031419      -0.13511725       0.00209140      -0.00054503       0.00192507
C       -1.25677771       3.90167547      -0.30199549       0.05342244       0.00163326       0.00057352       0.00017795
C       -0.17319826       4.38696752      -1.24051730      -0.08241046       0.00127916       0.00091650       0.00129046
C        0.64773751       2.61974225       1.39334761      -0.08006172      -0.00016176       0.00150586      -0.00129977
C        3.68892465      -2.92336610      -0.07121428      -0.06489071       0.00135628       0.00023527       0.00098290
C        3.65601768      -3.35146683      -1.38713489      -0.06385622       0.00076615      -0.00061286      -0.00043145
H        3.48884360       0.41165552      -0.58748187       0.03346893       0.00033272       0.00454899       0.00222521
H        4.42604172      -1.56028691       2.11544854       0.12471586       0.00135377      -0.00334618      -0.00223118
H        4.22180350       2.66147268       4.01431982       0.03443747      -0.00208492       0.00166319       0.00115209
H        1.17775122      -1.14215653       0.71717957       0.03036345      -0.00083268      -0.00275104       0.00464900
H       -1.87620185       0.32944700      -0.57822319       0.08986306      -0.00083837      -0.00120067      -0.00123230
H       -1.64901477      -2.70117907      -2.43149323       0.02785840      -0.00222679      -0.00022856      -0.00040116
H       -3.95053050      -2.13843927      -2.10528856       0.02728856       0.00103875      -0.00002738      -0.00108364
H       -3.12453901      -1.06515656       0.61867276       0.01776414       0.00111666      -0.00121643      -0.00102928
H       -4.76496168      -1.26670837       0.00474346       0.01447872       0.00237804      -0.00812931      -0.00025364
H       -5.44651625       0.39300897      -1.92654900       0.01483762      -0.00015485      -0.00245597       0.00699543
H       -3.86486121       0.14541911      -2.69887435       0.02584828      -0.00142586      -0.00748081      -0.00165402
H       -4.33558024       1.76021202      -2.16698608       0.02998656      -0.00252827       0.00026470       0.00347060
H       -5.37916095       0.99339982       0.59092769       0.01656170      -0.00174164       0.00272038      -0.00087021
H       -4.27451069       2.31119489       0.15542663       0.02968164       0.00061211      -0.00016762      -0.00340170
H       -3.76995901       1.10168226       1.33240778       0.02829021       0.00147448      -0.00483691      -0.00245970
H       -1.20504961       4.40651245       0.66507249       0.02812393       0.00053561      -0.00022927       0.00241066
H       -2.23875041       4.10028318      -0.72700280       0.02747822      -0.00131984      -0.00074818       0.00156807
H       -0.33646469       5.43915401      -1.47868691       0.02993262       0.00415225       0.00216608       0.00403684
H        0.81731629       4.28387645      -0.80321889       0.02763283       0.00017399       0.00112250       0.00035181
H       -0.19726166       3.81603446      -2.16760244       0.02806070      -0.00185167       0.00115354       0.00027217
H        0.47331954       3.65405059       1.64492906       0.03411894       0.00133155       0.00266408      -0.00715444
H        3.72618555      -3.64491623       0.73161587       0.03422254      -0.00461175      -0.00261122      -0.00116620
H        3.67428734      -4.40324258      -1.63188397       0.03682330       0.00119118      -0.00248003      -0.00192742
S       -3.81575212      -3.92742437      -0.39790794      -0.27398953       0.00719355      -0.00101897      -0.00306104
C       -2.41138636      -4.08682343       0.74744457      -0.10661828      -0.00282988       0.00422119       0.00376312
H       -2.53530993      -3.46764435       1.63668684       0.02967159       0.00001091      -0.00423220       0.00327790
H       -2.32359995      -5.12789834       1.05227068       0.03208994      -0.00073579       0.00112303      -0.00128598
H       -1.49556184      -3.79546823       0.23722971       0.03090664      -0.00332392      -0.00293817       0.00137848
