41
Properties=species:S:1:pos:R:3:charge:R:1:forces:R:3 energy=-34259.00679952401 pbc="F F F"
C        4.42064156      -1.14914456      -0.70087326      -0.04806801       0.00168834       0.00047913      -0.00333082
C        5.77281436      -1.33009762      -0.55721763      -0.08401428       0.00143238       0.00127005       0.00066694
C        6.43544567      -0.71919214       0.51883228      -0.00918604      -0.00042753       0.00098803       0.00125602
N        5.83159144       0.03357186       1.42010073      -0.21307336       0.00218092      -0.00380508       0.00607203
C        4.49495438       0.22231497       1.29457922       0.03597083       0.00335529      -0.00165712      -0.00143134
C        3.71694411      -0.35373143       0.23346392      -0.01321009       0.00163879      -0.00340396      -0.00007326
C        2.33835262      -0.12541118       0.14909808      -0.07997198       0.00148567       0.00225925      -0.00063248
C        1.69443065       0.66284370       1.09730055       0.02122860      -0.00271995       0.00089558      -0.00245481
N        0.35531310       0.93676006       1.09780398      -0.11484163      -0.00413893      -0.00232800      -0.00392478
C       -0.65315846       0.58976273       0.14226420       0.12115157      -0.00519513       0.00081178       0.00283662
C       -1.92348534       1.09108179       0.47327662      -0.18499824      -0.00412459       0.00011032       0.00102757
C       -3.08278832       1.05087055      -0.35557154       0.00180358      -0.00015846      -0.00318930       0.00298405
C       -3.33650714      -0.16946109      -1.23468682      -0.01145883       0.00262294       0.00387945       0.00260983
N       -3.85959290      -1.35653131      -0.55344280      -0.13909580       0.00428645       0.00790557       0.00333794
C       -5.15172358      -1.14502851       0.05372887      -0.03785742       0.00380420       0.00033890       0.00048914
C       -2.91828763      -1.96637577       0.36222324      -0.04066975       0.00132707       0.00027264      -0.00022005
O       -0.31635706      -0.08893268      -0.84933883      -0.32238403       0.00164089       0.00539779       0.00282604
C        2.47202698       1.22739981       2.14704613      -0.08290881       0.00010614       0.00194289      -0.00083657
C        3.81540833       1.02079014       2.24378116      -0.06577976       0.00220885      -0.00226460      -0.00014749
H        7.50649000      -0.85492536       0.64465947       0.01685611      -0.00400275       0.00373231       0.00010850
H        1.75462706      -0.55014958      -0.64920836       0.02571688       0.00354914       0.00005246       0.00059452
H        0.02191356       1.48921377       1.86905176       0.12033916       0.00246899      -0.00035363      -0.00625656
H       -1.99451013       1.76511675       1.32222574       0.01352367      -0.00327923      -0.00138100      -0.00234615
H       -3.97838245       1.32096521       0.19385020       0.01857661      -0.00023596       0.00493018      -0.00455992
H       -4.07788947       0.10107393      -1.98237173       0.01401297       0.00554340      -0.00058224      -0.00164535
H       -2.42163906      -0.44452501      -1.74479235       0.02407543      -0.00103819      -0.00221404       0.00257560
H       -5.12206959      -0.52635502       0.96564628       0.01421626      -0.00099050       0.00219361      -0.00047016
H       -5.59488086      -2.10624858       0.32113003       0.02201684       0.00078931       0.00260068       0.00193175
H       -5.82061376      -0.65159549      -0.65247053       0.02306410       0.00234589      -0.00537523       0.00041856
H       -3.32175232      -2.92156855       0.70709471       0.02206232      -0.00103392      -0.00215346       0.00024279
H       -2.69279421      -1.33958678       1.23429294       0.01639548       0.00376609       0.00248129       0.00067724
H       -1.98086882      -2.15704579      -0.15079787       0.02547854       0.00202770       0.00009422      -0.00441403
H        4.38564373       1.46552007       3.04856735       0.02453176       0.00059488      -0.00099684       0.00479235
H        6.33591705      -1.93350192      -1.25781895       0.02559085      -0.00638042      -0.00205400      -0.00282699
H        3.88464747      -1.60812355      -1.52302623       0.02591099      -0.00284595      -0.00092466      -0.00116704
H        1.97020596       1.84459024       2.88449052       0.02640421      -0.00335148      -0.00147318       0.00408601
S       -3.22730318       2.72542028      -1.59557293      -0.18927160      -0.00157760      -0.00478946       0.00172538
C       -1.67585870       2.56464241      -2.52566553      -0.08541815      -0.00355454      -0.00006327       0.00070668
H       -1.73196206       1.76814647      -3.26724454       0.02554666      -0.00277920       0.00000234      -0.00553433
H       -0.85675858       2.34730825      -1.84464764       0.03096030      -0.00097757      -0.00793025       0.00158808
H       -1.47792713       3.50839761      -3.03032518       0.02677402      -0.00005201       0.00430112      -0.00128227
