39
Properties=species:S:1:pos:R:3:charge:R:1:forces:R:3 energy=-26921.170651724457 pbc="F F F"
O        2.91245906       0.20366221      -2.20461011      -0.29110336      -0.00093308      -0.00100081       0.00563433
C        3.93458844       0.65038095      -1.69842963       0.18333806       0.00235116       0.00303625      -0.00097761
C        5.22083537       0.76266492      -2.42831797      -0.04137679       0.00198779      -0.00188379      -0.00224664
C        5.33255731       0.37525157      -3.69341681      -0.05121790      -0.00302359       0.00255062      -0.00168034
N        4.00102019       1.09755843      -0.39627473      -0.09432983       0.00297651      -0.00567884      -0.00165550
C        3.00635657       1.13184782       0.58623381       0.04205088      -0.00261239      -0.00076088      -0.00269852
C        1.72226476       0.66229158       0.38691071      -0.05284937       0.00028596      -0.00495843      -0.00255791
C        0.77063532       0.73286216       1.41406674      -0.01593844       0.00330736      -0.00397826      -0.00227917
C        1.13072593       1.26958575       2.67591785       0.05459613      -0.00310306      -0.00083344       0.00036349
C        2.44782392       1.73792637       2.85596360      -0.03381427      -0.00348382       0.00230731       0.00344391
C        3.35807336       1.67281506       1.84149973      -0.04719346      -0.00342334      -0.00138167       0.00113321
N        0.25826014       1.34718800       3.71640406      -0.20859092      -0.00393730       0.00021189       0.00279213
C       -0.94758376       0.88616109       3.48525503       0.08352500       0.00200254      -0.00329327      -0.00369199
N       -1.42007113       0.35284712       2.34524317      -0.20327868       0.00147632       0.00215598       0.00052401
C       -0.59761620       0.28442735       1.30986638       0.13511418       0.00346996      -0.00001414      -0.00119218
N       -1.04062003      -0.21173227       0.12243721      -0.07671809      -0.00287791       0.00607599       0.00593836
C       -2.27122479      -0.76641402      -0.25613178       0.04410395       0.00414177       0.00081768       0.00233852
C       -2.40682575      -1.10411132      -1.60682230      -0.05353937       0.00066950       0.00355427       0.00106079
C       -3.58190350      -1.66619592      -2.06535874      -0.03854355       0.00384253      -0.00254535      -0.00125333
C       -4.63511278      -1.89973282      -1.19448011      -0.04889066       0.00269426      -0.00039179      -0.00091854
C       -4.51552203      -1.56961122       0.15100755       0.00234204       0.00220114       0.00331437      -0.00241330
C       -5.66148458      -1.78404647       1.09041175      -0.07447533       0.00051988       0.00058630       0.00175279
C       -3.33027596      -1.00669666       0.61614937      -0.05588382       0.00551797      -0.00327599      -0.00000225
H        6.08130822       1.16936940      -1.90807389       0.04342883      -0.00355240       0.00168023       0.00212275
H        6.26706593       0.45432839      -4.23225404       0.04378308      -0.00501470      -0.00323026      -0.00117093
H        4.47687219      -0.03173099      -4.21441318       0.04225042       0.00047008       0.00031420       0.00031980
H        4.89408169       1.45236834      -0.09954257       0.13833039      -0.00241845       0.00006458       0.00061768
H        1.50234235       0.23570716      -0.57482406       0.03512432       0.00449570      -0.00458692      -0.00688884
H        2.70425390       2.14571411       3.82251979       0.04506211       0.00261803       0.00515146       0.00345908
H        4.36556607       2.03839295       2.00057577       0.04639119      -0.00150716       0.00173722      -0.00359511
H       -1.65678578       0.93674002       4.30342707       0.04479018      -0.00198590      -0.00266614      -0.00373309
H       -0.39251826      -0.14675399      -0.64194170       0.13114072      -0.00409544      -0.00151100       0.00653930
H       -1.58870827      -0.92484769      -2.29412425       0.04344942       0.00222345       0.00220416       0.00162023
H       -3.67623028      -1.92517096      -3.11134011       0.04474170       0.00468761       0.00334327      -0.00631936
H       -5.55124841      -2.34277842      -1.56246489       0.04063181       0.00197045       0.00202126      -0.00710951
H       -6.31057420      -2.58802482       0.74977887       0.03676920      -0.00298834      -0.00216518       0.00640829
H       -6.27033532      -0.88209950       1.16650182       0.03709911      -0.00642905      -0.00242450       0.00194974
H       -5.31633539      -2.02382939       2.09373065       0.03765582       0.00285347       0.00397020       0.00553504
H       -3.22207869      -0.75050152       1.65615198       0.03202521      -0.00537832       0.00148270      -0.00116977
