63
Properties=species:S:1:pos:R:3:charge:R:1:forces:R:3 energy=-63980.022322924524 pbc="F F F"
F        9.68894792       3.64192969       0.21353938      -0.11515669       0.00423027      -0.00102921       0.00022829
C        8.58514913       2.85907043       0.15202929       0.07690370       0.00106986       0.00053630      -0.00006724
C        7.32790786       3.41768832      -0.02461109       0.01808413       0.00012290      -0.00248809      -0.00321060
Cl       7.14698128       5.15461405      -0.17087025      -0.10954358      -0.00241205      -0.00334067      -0.00113653
C        6.21165354       2.60534911      -0.08616435      -0.05944578      -0.00009972      -0.00230377       0.00198305
C        6.32944350       1.21339252       0.03178046       0.04214432      -0.00091517      -0.00297445      -0.00366513
N        5.15219834       0.48325186      -0.03435817      -0.09294317      -0.00456908       0.00182938      -0.00010951
C        4.89690081      -0.86557398       0.05891333       0.11791390       0.00095870      -0.00045057      -0.00085564
N        5.90510593      -1.72647071       0.13970897      -0.22272231       0.00220118      -0.00115176       0.00351266
C        5.58891323      -3.03472661       0.14626431       0.05753146       0.00018860      -0.00000678      -0.00077884
N        4.39510508      -3.57753525       0.07833161      -0.23513591       0.00194645      -0.00225289       0.00096143
C        3.34758459      -2.70349403       0.01342407       0.04091201       0.00444359       0.00318582       0.00630295
C        3.53610556      -1.29644121       0.04786305      -0.03518135      -0.00082010       0.00520666      -0.00033274
C        2.42327359      -0.44152504       0.05949782      -0.06587996      -0.00514616       0.00105158      -0.00215176
C        1.13876047      -0.93132294      -0.08204083       0.01525602      -0.00491523      -0.00032674       0.00158470
N        0.00578058      -0.16632305      -0.13792600      -0.11930908      -0.00015020       0.00380807      -0.00422488
C       -0.10507755       1.25514732      -0.13841061       0.12155675      -0.00081091       0.00154730       0.00140691
C       -1.43529502       1.72661660      -0.16721558      -0.16330962       0.00066357       0.00283935      -0.00468149
C       -2.58298656       0.93393559       0.05766143       0.00811438       0.00093961       0.00297018       0.00440804
C       -3.86319372       1.69754113       0.27463941       0.00056161      -0.00271778       0.00285121       0.00192780
N       -5.06034137       0.90510601       0.41623696      -0.12934101      -0.00100891       0.00259949       0.00739304
C       -6.24296843       1.71012648       0.61575607       0.00270727      -0.00095501       0.00187993      -0.00004005
C       -7.50157163       0.88637561       0.31645314      -0.04786997       0.00220125       0.00475889       0.00064986
C       -7.27203780      -0.60012195       0.60349781      -0.04476103       0.00046471       0.00090212      -0.00561549
C       -6.30123833      -0.75718752       1.76250215      -0.04637788      -0.00036601      -0.00135791       0.00142942
C       -4.94080076      -0.13906120       1.41838912      -0.00272029       0.00011205      -0.00216838       0.00087285
O        0.91890693       1.97071796      -0.13858174      -0.35205042      -0.00063888       0.00152167      -0.00499740
C        0.96615250      -2.35120298      -0.16012272       0.05367494      -0.00121966      -0.00141459      -0.00228315
O       -0.32631138      -2.74869187      -0.30057267      -0.13158430      -0.00348566       0.00294897      -0.00258833
C       -0.58911251      -4.13229506      -0.38426516       0.01751570       0.00014417       0.00290987      -0.00060790
C        2.03833403      -3.20559785      -0.09151458      -0.08323248       0.00408406       0.00137507       0.00079157
C        7.60198863       0.65985568       0.20751116      -0.05584654      -0.00005143      -0.00148267       0.00518560
C        8.71032073       1.48841471       0.26543693      -0.05830026       0.00152704      -0.00071443      -0.00170401
H        5.24083760       3.06142021      -0.22277210       0.03495087      -0.00205074      -0.00632637       0.00154284
H        4.33842643       1.04229096      -0.21532428       0.12545329      -0.00228810       0.00610786      -0.00357941
H        6.43204369      -3.71646806       0.21101609       0.02605642       0.00037329       0.00539480      -0.00091465
H        2.49449883       0.62565660       0.19513175       0.03020041       0.00391068      -0.00073470       0.00118294
H       -0.84621469      -0.64857720      -0.42236950       0.09467272       0.00530631      -0.00447264      -0.00290706
H       -1.55102811       2.78164198      -0.37893180       0.02557653       0.00087247       0.00096179      -0.00426646
H       -2.42413488       0.12107582       0.76012365       0.02677461      -0.00051743      -0.00139498       0.00103078
H       -3.69505031       2.32609344       1.17193856       0.01069241       0.00275203      -0.00222149       0.00545836
H       -3.99775853       2.38259544      -0.56337127       0.02053862      -0.00086227       0.00142653      -0.00327399
H       -6.19480353       2.57605118      -0.04623671       0.02209342      -0.00404243      -0.00245508      -0.00248157
H       -6.28274469       2.12074009       1.64581155       0.00757655       0.00040851      -0.00140608      -0.00381893
H       -8.33160410       1.26604067       0.91724484       0.02048059      -0.00163085      -0.00365550      -0.00017130
H       -7.78351678       1.01701743      -0.72929239       0.01980100      -0.00159212      -0.00125950       0.00244213
H       -6.84174610      -1.08070397      -0.27509891       0.01843957       0.00282792      -0.00819936      -0.00300173
H       -8.21767139      -1.10163877       0.81436211       0.02236586      -0.00257272       0.00124242       0.00030494
H       -6.16266997      -1.80837806       2.01909230       0.02258367       0.00367392      -0.00074433       0.00710248
H       -6.72375070      -0.27771249       2.65033326       0.01922134      -0.00124038       0.00516725      -0.00141603
H       -4.46519466       0.24790994       2.33881068       0.01072718      -0.00052994       0.00029665      -0.00150131
H       -4.27886126      -0.90009747       1.00635150       0.01767986       0.00127302      -0.00395436       0.00167472
H       -1.66366109      -4.22200498      -0.50847414       0.03550738       0.00231346      -0.00050995      -0.00207036
H       -0.28295630      -4.65225712       0.52695065       0.02908164      -0.00136116      -0.00174420      -0.00377501
H       -0.08576339      -4.58250161      -1.24315181       0.02910514      -0.00306469       0.00166595       0.00021070
H        1.92759513      -4.27884487      -0.11928101       0.03352727      -0.00013863       0.00102457      -0.00312897
H        7.70214943      -0.40786623       0.29258272       0.02801877       0.00251440      -0.00203065       0.00441777
H        9.70077550       1.07567999       0.40022788       0.03322118       0.00366609      -0.00099098       0.00291686
S       -2.98471457      -0.45959654      -1.54732273      -0.15913096      -0.00145906       0.00448222      -0.00846519
C       -2.71336178       0.70217053      -2.91026636      -0.09989060       0.00088824      -0.00542108       0.00685436
H       -3.47821793       1.47769432      -2.93455968       0.03018698       0.00260148      -0.00585455       0.00342225
H       -2.74482278       0.14473216      -3.84285450       0.03234069      -0.00242658       0.00242549       0.00391552
H       -1.73561466       1.16786155      -2.80498994       0.02998297      -0.00262275       0.00192274       0.00270826
