47
Properties=species:S:1:pos:R:3:charge:R:1:forces:R:3 energy=-37870.716535131534 pbc="F F F"
C        6.22822081       1.98415401       0.84313675       0.03890548       0.00058350      -0.00096800      -0.00537308
N        7.45314837       2.04834213       0.35808836      -0.22591734       0.00101180      -0.00324807       0.00337250
C        7.72692758       1.21125490      -0.67290648       0.06532786       0.00075745      -0.00112325      -0.00383639
N        6.91346164       0.34922752      -1.24241211      -0.21005726      -0.00142653       0.00146388       0.00092616
C        5.65206350       0.28637293      -0.74303503       0.05605089      -0.00059634       0.00054389       0.00159656
C        5.23875783       1.11161306       0.34283474      -0.01509452       0.00078174      -0.00355321      -0.00284047
C        3.93609847       1.04138016       0.85994361      -0.05891233      -0.00084250       0.00019096      -0.00180030
C        3.02291592       0.16823802       0.29324411       0.03897240      -0.00066752      -0.00034211      -0.00298219
N        1.70043431       0.05382530       0.67962276      -0.09843375       0.00133777      -0.00027652       0.00120029
C        1.12782529       0.57204184       1.81563461       0.16708156       0.00182221       0.00004598       0.00302945
C       -0.32621368       0.37284714       1.94347129      -0.04409118      -0.00097315       0.00170676       0.00036403
C       -1.17609781       0.20219650       0.93103292      -0.01301496      -0.00216766       0.00212014      -0.00008984
C       -2.53072537      -0.38769990       1.05895686       0.00048650       0.00186297      -0.00210221      -0.00041072
N       -3.55304632       0.22696588       0.22111533      -0.13266194       0.00094179      -0.00010773      -0.00186249
C       -3.16380930       0.20760093      -1.19908261      -0.00422369       0.00490343       0.00169032      -0.00272290
C       -4.37254986       0.33584336      -2.12517565      -0.04291458      -0.00306022       0.00079705       0.00017533
C       -5.46998914       1.15399950      -1.46654907      -0.04113378       0.00046849      -0.00023832      -0.00155530
C       -5.95370339       0.44034077      -0.19852541      -0.04486112       0.00206225       0.00374556      -0.00164860
C       -4.84171436      -0.41005178       0.42092832       0.00150634       0.00109665      -0.00095213      -0.00055987
O        1.75947265       1.13881277       2.71284977      -0.33530411       0.00314802       0.00089956       0.00197527
C        3.44028013      -0.66148729      -0.78516726      -0.05449099       0.00053698       0.00080019       0.00257689
C        4.70648454      -0.60618741      -1.28840392      -0.05068996       0.00016674       0.00034972       0.00732790
H        8.73589900       1.26538228      -1.06760668       0.02684188       0.00288469       0.00152010      -0.00218140
H        3.65662947       1.66232675       1.69605829       0.03422754       0.00191455      -0.00018195       0.00093301
H        1.10432513      -0.59773173       0.09215235       0.08586492      -0.00082556       0.00257219      -0.00083899
H       -0.66233149       0.38452598       2.97380611       0.02999782      -0.00294023      -0.00157728       0.00148253
H       -0.85314036       0.43350049      -0.07560872       0.02670939      -0.00301915      -0.00261615      -0.00099355
H       -2.41840446      -1.45865292       0.80673939       0.01683035       0.00006976       0.00301208      -0.00010968
H       -2.86054243      -0.33140490       2.09725545       0.02413562       0.00127693      -0.00086059       0.00061855
H       -2.48569955       1.04574270      -1.38014738       0.01795336      -0.00615523      -0.00211504       0.00067572
H       -2.59510091      -0.70497570      -1.43211781       0.01487753      -0.00038715       0.00075341       0.00413324
H       -4.05907623       0.78693811      -3.06723893       0.02260907      -0.00148183      -0.00407742       0.00233529
H       -4.76974968      -0.65142787      -2.37729621       0.01781781       0.00471693       0.00405640      -0.00116578
H       -5.06286605       2.13316930      -1.20945685       0.01713579      -0.00094477      -0.00303192       0.00147576
H       -6.30129688       1.32476116      -2.15249825       0.02251523      -0.00423376      -0.00098408       0.00038666
H       -6.29576286       1.17723007       0.52972234       0.01899061      -0.00319288      -0.00144701      -0.00450374
H       -6.81052409      -0.19943502      -0.42389327       0.01996083      -0.00119543      -0.00139091      -0.00057843
H       -5.01366083      -0.52332525       1.49195698       0.02100501       0.00638393       0.00199564       0.00368329
H       -4.85824786      -1.43348031      -0.00058737       0.00786031      -0.00465109      -0.00095931      -0.00154435
H        5.01633206      -1.23944377      -2.11048942       0.03120474       0.00206474       0.00357092       0.00041218
H        5.99383282       2.64909091       1.67055429       0.03119424      -0.00048356      -0.00297691       0.00190174
H        2.71199092      -1.34962566      -1.19995156       0.03010217       0.00033584       0.00031933      -0.00223422
S        0.05740817      -2.03120310      -1.05124056      -0.47661072      -0.00244098       0.00165933      -0.00122059
C        0.05786028      -3.12971021       0.40399642      -0.11187043       0.00152945      -0.00436620       0.00124721
H       -0.71268919      -3.89984967       0.31717477       0.02443504      -0.00088621       0.00081048      -0.00292169
H        1.01931380      -3.63537155       0.52826470       0.02743707       0.00027782       0.00482143       0.00277809
H       -0.13852582      -2.56923314       1.32338471       0.02224519      -0.00036502       0.00005119      -0.00063313
