27
Properties=species:S:1:pos:R:3:charge:R:1:forces:R:3 11_carbanion=T (SP=-976.179310835303,U=-975.94843985,H=-975.94749564,G=-976.00458472) energy=-26561.701719780784 pbc="F F F"
C        1.53611582       2.78459888       0.18191572      -0.08750419      -0.00323257      -0.00584190      -0.00258275
S        0.12660895       2.20634944      -0.77524718      -0.18414000       0.00041005       0.00559033       0.00450862
C       -0.14693441       0.53867211       0.05992337      -0.01500647       0.00097635       0.00176574      -0.00017429
C       -1.25763590      -0.20706190      -0.55973191      -0.23957440       0.00115419      -0.00185280       0.00342945
C       -2.42250885      -0.39093597       0.15973436       0.11767609      -0.00444857       0.00316183       0.00010339
O       -2.69066345      -0.03600931       1.31978365      -0.42263961       0.00006524       0.00334125       0.00733815
O       -3.41148602      -1.09408849      -0.57200164      -0.20739120      -0.00445490      -0.00043650      -0.00101698
C       -4.61320696      -1.29972458       0.13009624      -0.00070975       0.00186943       0.00075438       0.00229321
C        1.15551428      -0.22646485       0.07470337       0.01479372      -0.00065981      -0.00076810       0.00142729
H       -0.42275486       0.80198065       1.07799300       0.01370023       0.00155410      -0.00018716      -0.00122091
H       -1.15197901      -0.57920192      -1.56529025       0.01202716       0.00184821      -0.00022922      -0.00238419
H        1.92078794       3.68853535      -0.28416838       0.01426861      -0.00233849       0.00041445       0.00163467
H        1.27865850       3.00446435       1.21611794       0.02135876      -0.00401771       0.00098511      -0.00443054
H        2.31064461       2.02229898       0.17076577       0.02382575       0.00125889      -0.00432941      -0.00174251
H       -5.29050394      -1.83144340      -0.53781751       0.01561636       0.00562563       0.00348318       0.00265369
H       -4.45679299      -1.89043612       1.03457432       0.01716923       0.00085703       0.00253227      -0.00357330
H       -5.06840432      -0.35595908       0.43478805       0.01737102       0.00396369      -0.00485015      -0.00468450
C        1.79215063      -0.52258317       1.27617130      -0.03614946       0.00157920       0.00075357       0.00030361
C        3.02097278      -1.17541888       1.29560130      -0.04988381       0.00013039      -0.00216405      -0.00154354
C        3.61932589      -1.56531625       0.10718856      -0.05611108      -0.00069478       0.00099234      -0.00228935
C        2.97918417      -1.29947783      -1.10010624      -0.04859330      -0.00215757      -0.00163644      -0.00092514
C        1.76038334      -0.64372716      -1.11240391      -0.03600623      -0.00178562       0.00175846       0.00169659
H        1.30209087      -0.24336619       2.20090582       0.03545368      -0.00011587      -0.00002132      -0.00181269
H        3.50774949      -1.38019254       2.24103310       0.01998306      -0.00436437      -0.00425337       0.00034919
H        4.57217261      -2.07616121       0.11454671       0.01848366       0.00158191       0.00431838      -0.00122766
H        3.43056653      -1.60545706      -2.03526563       0.02122198       0.00720061       0.00111225       0.00252721
H        1.25484674      -0.43420647      -2.04507411       0.02075150      -0.00180424      -0.00439291       0.00134299
