27
Properties=species:S:1:pos:R:3:charge:R:1:forces:R:3 11_TS=T (SP=-976.163685209415,U=-975.93375631,H=-975.9328121,G=-975.98893792) energy=-26561.78415651008 pbc="F F F"
C        3.31462146      -1.26500672      -1.09980117      -0.04935572      -0.00164258       0.00113878       0.00140832
C        2.02503523      -0.75921248      -1.13138454      -0.04323158      -0.00027624       0.00422068       0.00150306
C        1.47122689      -0.12249842      -0.01986920       0.00772101      -0.00197485       0.00291762       0.00434437
C        2.25513934      -0.01331058       1.12668376      -0.05092894       0.00372559      -0.00049121       0.00033649
C        3.54772427      -0.52338145       1.16814481      -0.05189064       0.00317331       0.00161330      -0.00298704
C        4.08423113      -1.14779755       0.05274644      -0.05419575       0.00123164      -0.00166502      -0.00186175
C        0.06862487       0.44084985      -0.04483753      -0.01301591      -0.00223785      -0.00190142       0.00049862
C       -0.95566060      -0.47018251      -0.59556271      -0.23880632      -0.00117398       0.00210062      -0.00164462
C       -2.14998223      -0.61786300       0.07968825       0.12429731       0.00169245       0.00047389       0.00304483
O       -2.52813583      -0.07907454       1.13767532      -0.40191358       0.00238658       0.00184621       0.00085434
O       -3.03882256      -1.50702915      -0.57075228      -0.20763218       0.00593083       0.00190062      -0.00312195
C       -4.27918008      -1.65095874       0.07603723       0.00187586      -0.00432695      -0.00004852      -0.00315956
S        0.13950743       2.12064131      -0.92105783      -0.19167337      -0.00002170       0.00551092      -0.00173192
C       -1.54205796       2.61385743      -0.54451877      -0.08679048      -0.00656559       0.00086839       0.00381648
H       -0.22588378       0.71367629       0.96432839       0.01689753      -0.00238097       0.00288340       0.00094799
H       -0.80637364      -0.92645509      -1.56038085       0.01421701       0.00176420      -0.00224149      -0.00358407
H       -1.75510971       3.56945019      -1.02114321       0.01339525      -0.00234819      -0.00533013       0.00278977
H       -2.22225371       1.84566194      -0.89812970       0.02855010      -0.00139248      -0.00342713       0.00115702
H       -1.67731814       2.69907092       0.52953290       0.02150738       0.00458069      -0.00266408      -0.00842768
H       -4.83976407      -2.40588607      -0.47362684       0.01586878      -0.00514222       0.00111418      -0.00372804
H       -4.15892611      -1.96867481       1.11184158       0.01790196       0.00408565      -0.00114368      -0.00038370
H       -4.84598893      -0.71743635       0.08462562       0.01718856      -0.00397851       0.00112411       0.00605768
H        1.83166207       0.47852828       1.99426558       0.02775524       0.00129902      -0.00341112      -0.00219566
H        4.13456432      -0.43123850       2.07332424       0.02024427       0.00312544       0.00111665      -0.00647780
H        5.09164290      -1.53904617       0.07580004       0.01869816      -0.00171644      -0.00585637       0.00673329
H        3.72139758      -1.74927099      -1.97820532       0.02120304       0.00025329      -0.00033237       0.00349420
H        1.42482987      -0.84320397      -2.02665384       0.02210414       0.00193030      -0.00031704       0.00231726
