24
Properties=species:S:1:pos:R:3:charge:R:1:forces:R:3 17=T (SP=-664.519148319434,U=-664.32124243,H=-664.32029822,G=-664.37098702) energy=-18082.80917160331 pbc="F F F"
N       -3.10291305       0.08696407      -0.14767358      -0.09150478      -0.00101867      -0.00036036      -0.00169209
C       -1.82765933       0.61317614      -0.19540109       0.18855885       0.00245645      -0.00000724      -0.00132303
C       -0.86954602      -0.02997195       0.75174406      -0.03195950      -0.00060151      -0.00018949       0.00125333
C        0.39058126       0.37238906       0.79640426      -0.04834381       0.00215846       0.00107993      -0.00268824
O       -1.50761894       1.51441939      -0.93826455      -0.28806701      -0.00453288      -0.00280275       0.00407007
H       -3.25038746      -0.67206808       0.49199835       0.15696700       0.00107234      -0.00263794      -0.00507189
H       -8.60514490       0.95662112      -2.96080470       0.05272511      -0.00305668       0.00083903       0.00223638
H       -1.22485837      -0.82579100       1.39648538       0.05808366       0.00576862       0.00097405       0.00049422
H        0.72990210       1.16749336       0.14855520       0.04127862       0.00749528       0.00020970       0.00334702
H        1.10305767      -0.07680006       1.47153958       0.05393119      -0.00583211       0.00060989      -0.00070588
H       -6.50796285       4.09696797      -4.56480334       0.04336156       0.00616839       0.00002381      -0.00477030
H       -3.32900303       2.15053224      -1.87913735       0.02905561      -0.00342450       0.00012722      -0.00024730
H       -7.42994349      -0.59572698      -1.31423978       0.05776081       0.00011045      -0.00141794       0.00166065
C       -4.22358694       0.47618962      -0.90554968       0.06581053      -0.00294767       0.00154182      -0.00309067
C       -5.40021262      -0.30881942      -0.75151865      -0.03127882      -0.00319211      -0.00220018       0.00133404
C       -6.53644609       0.00073228      -1.42996014      -0.02007392      -0.00177351      -0.00102893      -0.00439379
C       -6.55334425       1.11578817      -2.29842573      -0.01378872       0.00141403       0.00600832       0.00657682
C       -5.39417438       1.89282216      -2.45551747       0.04505442       0.00547219      -0.00155632      -0.00725309
C       -4.21824176       1.55621374      -1.74961908      -0.06265409      -0.00519915       0.00230235       0.00317911
N       -5.39156982       2.97221591      -3.28496549      -0.21055169      -0.00200904       0.00615073       0.00375578
C       -6.50692701       3.23558414      -3.90790427       0.10032435       0.00122041      -0.00027610      -0.00225145
N       -7.68033092       2.55749076      -3.83496802      -0.20973559      -0.00217017       0.00083418       0.00428300
C       -7.68187357       1.52104703      -3.04027569       0.05824883       0.00224627      -0.00795468      -0.00342164
H       -5.37964205      -1.16194769      -0.08595895       0.05679744       0.00017537      -0.00026889       0.00471872
