16
Properties=species:S:1:pos:R:3:charge:R:1:forces:R:3 21=T (SP=-623.994264445643,U=-623.87027489,H=-623.86933068,G=-623.91652) energy=-16981.6379490108 pbc="F F F"
N       -3.17365578      -0.13746184      -0.08884387      -0.08562540       0.00331670      -0.00455437       0.00057162
C       -1.97516152       0.46791133       0.08975400       0.18414973      -0.00038123       0.00213909       0.00113035
C       -1.06361541      -0.21742503       1.05800573      -0.03148863      -0.00649586       0.00184278       0.00245849
C        0.13605711       0.27528236       1.30738142      -0.05611610      -0.00634568      -0.00111057      -0.00429386
O       -1.66699051       1.49001780      -0.49187664      -0.32842574       0.00162945       0.00147946      -0.00480532
H       -1.41329528      -1.11701478       1.54557918       0.05507511      -0.00254887      -0.00257505       0.00194662
H        0.49989548       1.17195177       0.82295249       0.04809096      -0.00200596       0.00291104       0.00028165
C       -4.15793843       0.43531033      -0.98652770       0.00684961       0.00362691       0.00085377       0.00068310
H       -3.38542425      -0.97768323       0.41412552       0.15508690      -0.00196094      -0.00341069       0.00730063
H       -3.74142553       0.54665440      -1.98438263       0.04416242       0.00033740       0.00249365      -0.00369450
H       -4.46510938       1.42109644      -0.64411103       0.04552238      -0.00262700       0.00347997      -0.00223503
H       -5.02743871      -0.21319155      -1.03213715       0.05489402       0.00310081      -0.00038280       0.00042836
C        1.08121565      -0.36271574       2.27326848       0.27467364      -0.00008954       0.00077205      -0.00294930
F        1.43940970       0.50141027       3.24218043      -0.12638372       0.00188479      -0.00548724      -0.00052315
F        2.21746171      -0.74664993       1.65965308      -0.12667242       0.00383106       0.00175561       0.00423100
F        0.56231029      -1.44786387       2.87251200      -0.11379287       0.00472800      -0.00020631      -0.00053044
