27
Properties=species:S:1:pos:R:3:charge:R:1:forces:R:3 2_adduct_anti=T (SP=-1009.787755193776,U=-1009.55824709,H=-1009.55730288,G=-1009.61397432) energy=-27478.39821348521 pbc="F F F"
C        2.28981273      -1.00845674      -0.20555735      -0.05860197      -0.00981346      -0.00023834       0.00184828
H        2.59047279       0.02278459      -0.05417156       0.03239496      -0.00326508      -0.00383399       0.00125617
H        2.20995139      -1.21603561      -1.26807391       0.04430903      -0.00280392       0.00165597       0.00181750
S        0.75239519      -1.34807333       0.66401157      -0.06511815       0.00062403      -0.00292014       0.00024809
C       -2.29580621      -1.74793916      -0.07467111       0.18627647       0.00466723      -0.00134654      -0.00134646
O       -2.31177076      -2.07065162      -1.23842285      -0.32046375       0.00072825      -0.00291971      -0.00381737
C       -1.76160969      -0.36910131       0.35781012       0.00893313       0.00569868       0.00168990      -0.00329936
H       -1.75035375      -0.28865256       1.44631163       0.05444337       0.00587955       0.00414208      -0.00171472
C       -0.33224844      -0.16490190      -0.18706557      -0.00600728       0.00750048      -0.00484130      -0.00046760
H       -0.34927762      -0.43462558      -1.23900449       0.04051384       0.00136894      -0.00230925      -0.00143611
C        0.14678654       1.26009732      -0.03753790       0.00318419       0.00413227      -0.00687136      -0.00230577
C        0.40392179       2.01984725      -1.17190509      -0.03463910      -0.00398982       0.00221950       0.00297541
C        0.38472438       1.81550857       1.21724137      -0.03780724       0.00056443      -0.00126718       0.00000438
C        0.89200657       3.31652332      -1.05806149      -0.03073829       0.00264098      -0.00198450      -0.00407724
H        0.21446855       1.59520413      -2.14778845       0.04221445       0.00728026       0.00140125       0.00285347
C        0.86400439       3.11021089       1.33325715      -0.02900671      -0.00554024       0.00041727       0.00245661
H        0.20593321       1.22361760       2.10456917       0.03899629       0.00187973      -0.00045855      -0.00253228
C        1.12168105       3.86497114       0.19468096      -0.03510976      -0.00884841       0.00212332       0.00147747
H        1.08814041       3.89506305      -1.94931217       0.04939996      -0.00518618       0.00513291      -0.00407673
H        1.03488084       3.53103064       2.31327955       0.04960720       0.00491871       0.00191479       0.00573300
H        1.49430039       4.87352552       0.28739180       0.04786444       0.00321033      -0.00273428      -0.00239700
C       -2.67412143       0.65051819      -0.17032569       0.07369654      -0.00207554      -0.00007877       0.00495584
N       -3.40475040       1.42892704      -0.58812127      -0.25944489      -0.00050071       0.00723245      -0.00283548
N       -2.72816467      -2.53566509       0.93501606      -0.13804695      -0.00632902       0.00299989      -0.00026142
H       -3.12177376      -3.43062883       0.70718527       0.14542386       0.00421149      -0.00275145      -0.00071404
H       -2.74525452      -2.21781465       1.88376682       0.14922231      -0.00053099      -0.00114383       0.00639480
H        3.04060566      -1.66230064       0.22903286       0.04850403      -0.00642206       0.00477011      -0.00073971
