32
Properties=species:S:1:pos:R:3:charge:R:1:forces:R:3 30_carbanion=T (SP=-1142.151209205594,U=-1141.88137982,H=-1141.88043561,G=-1141.94280162) energy=-31078.542038732652 pbc="F F F"
N       -3.22045524       0.07050215      -0.15124606      -0.12703681       0.00621259      -0.00456565      -0.00389247
C       -1.88954804       0.62121670       0.05585219       0.09502929      -0.00060598      -0.00240177      -0.00222597
C       -1.02636784      -0.22394076       0.72949227      -0.15960437      -0.00049496      -0.00123298      -0.00238482
C        0.39104927       0.19788504       0.91289756      -0.05118711      -0.00213282       0.00448215      -0.00026418
O       -1.65951141       1.77951144      -0.37254736      -0.37506181       0.00579640      -0.00454057      -0.00015426
S        1.56642424      -0.80134932      -0.10581019      -0.13731447       0.00670962       0.00407916       0.00296983
C        3.11446362      -0.03620376       0.41591173      -0.06575231      -0.00493637      -0.00060366       0.00171100
H        0.51922204       1.23550883       0.62168012       0.01773310      -0.00282153       0.00137348      -0.00250783
H        0.73573014       0.07120047       1.94237852       0.01814763       0.00099342       0.00322293      -0.00198483
H        3.10282272       1.03236812       0.21897796       0.02647692      -0.00006070       0.00689064      -0.00377483
H        3.29225016      -0.19376678       1.47701875       0.02620258      -0.00229970      -0.00076003       0.00498136
H        3.93221141      -0.48378163      -0.14583745       0.02013118       0.00525147      -0.00770059       0.00219601
H       -3.34514676      -0.85656662       0.20967256       0.11199753       0.00293115      -0.00457808       0.00240380
C       -1.37851264      -1.59877013       1.22601983      -0.09030327      -0.00254772      -0.00058037       0.00049098
H       -2.19206665      -1.60165759       1.96123409       0.02701025       0.00230587      -0.00379610       0.00332782
H       -1.66237462      -2.30579228       0.43552492       0.02709008       0.00040070      -0.00132113      -0.00179252
H       -0.51276071      -2.04485292       1.72499808       0.01788770      -0.00539100       0.00166143      -0.00198738
C       -4.25691141       0.57824955      -0.88421883       0.03485217       0.00628152      -0.00215276      -0.00267818
C       -5.40878801      -0.16900081      -1.02416573      -0.08097228       0.00161940       0.00351486       0.00676266
C       -4.18849641       1.86080633      -1.50936850      -0.07582197      -0.00476481       0.00547482      -0.00211074
C       -6.48617149       0.32911013      -1.76828015      -0.01527913       0.00112668      -0.00048981       0.00202977
C       -5.23425207       2.34421101      -2.23519951      -0.04407932      -0.00409310      -0.00632223      -0.00305423
H       -3.26874738       2.40733000      -1.37133629       0.02458514       0.00162424      -0.00108207      -0.00229836
C       -7.69717776      -0.37880081      -1.95093169       0.05639195      -0.00271582       0.00263255       0.00081095
C       -6.42034267       1.59594360      -2.39052275       0.04407050      -0.00704863       0.00590957       0.00329349
H       -5.17869355       3.31320335      -2.71065874       0.02055822       0.00000668       0.00460901       0.00277450
C       -8.52354810       1.31564867      -3.19736714       0.07229703      -0.00034087       0.00149522      -0.00230475
H       -9.35903939       1.69732438      -3.77148065       0.01165270       0.00381309       0.00057251       0.00045993
N       -8.70594786       0.08433106      -2.64507585      -0.26032466      -0.00179225      -0.00153862      -0.00075217
N       -7.47026072       2.07773757      -3.11426820      -0.23146784      -0.00160794       0.00449272      -0.00181874
H       -5.48946545      -1.14522300      -0.55982507       0.03815592      -0.00438567      -0.00058478       0.00019974
H       -7.81016274      -1.35773083      -1.49670402       0.02392654       0.00296661      -0.00615970       0.00157417
