26
Properties=species:S:1:pos:R:3:charge:R:1:forces:R:3 5=T (SP=-649.439246115871,U=-649.22247365,H=-649.22152944,G=-649.27401524) energy=-17672.275635534003 pbc="F F F"
C        0.48999449       0.26867212      -0.05627562       0.02051212       0.00505265       0.00108602       0.00340308
C       -0.47796027      -0.65301429       0.04535590      -0.01187152       0.00042139       0.00240261      -0.00247760
C       -1.92825264      -0.44233775       0.04427662       0.00193081      -0.00057917       0.00117427      -0.00311059
C       -2.71561771      -1.40690211      -0.58461587      -0.02949768      -0.00513687      -0.00081666       0.00046012
C       -2.55105343       0.65094526       0.64987351      -0.03145198      -0.00641183       0.00316412      -0.00121350
C       -4.09333122      -1.28003000      -0.63179573      -0.03040930       0.00493627      -0.00121689       0.00788887
H       -2.23024634      -2.26225449      -1.03663405       0.04921421      -0.00127387      -0.00671250      -0.00387792
C       -3.93031651       0.76874099       0.61593481      -0.02762565      -0.00111711       0.00104599      -0.00578000
H       -1.96556855       1.40115089       1.15834479       0.03764730      -0.00296007       0.00022399      -0.00659176
C       -4.70319576      -0.18776054      -0.03081972      -0.03251896      -0.00732108      -0.00230249       0.00199752
H       -4.69006049      -2.02936344      -1.13384936       0.05102806       0.00367431      -0.00057811       0.00219357
H       -4.40358127       1.61402323       1.09596297       0.05120914      -0.00001593      -0.00513743      -0.00396830
H       -5.77715284      -0.08383328      -0.06587350       0.04927568      -0.00205192       0.00433253       0.00870123
C        1.93761233      -0.03549612       0.00724692       0.01093032       0.00689763      -0.00410960      -0.00277630
C        2.42032335      -1.18574368       0.63195482      -0.02957743       0.00307421      -0.00632864      -0.00326528
C        2.87281432       0.82414376      -0.56462407      -0.03295284       0.00313670      -0.00095061       0.00328423
C        3.78402302      -1.41676697       0.64450362       0.04216515       0.00508583       0.00795712       0.00022379
H        1.76618626      -1.88526975       1.12911427       0.05584466      -0.00456144       0.00404044      -0.00585686
C        4.21595092       0.49136675      -0.50057118       0.04333793       0.00312960       0.00339789       0.00577008
H        2.56520432       1.73637959      -1.05350982       0.04912510       0.00427344      -0.00662881       0.00275813
N        4.68130584      -0.60594624       0.08817260      -0.21564043       0.00140824       0.00342736       0.00029861
H        4.17697990      -2.30084247       1.13064613       0.04882808      -0.00689341       0.00256502      -0.00407972
H        4.95424633       1.14611192      -0.94682900       0.04951805       0.00200490      -0.00465533      -0.00048249
H       -0.18075965      -1.69198033       0.06118803       0.04636902      -0.00429143      -0.00155758       0.00085928
C        0.15453106       1.64323097      -0.31620165       0.08835501      -0.00773982       0.00429052       0.00048249
N       -0.06218161       2.75136548      -0.52792278      -0.25374490       0.00725848       0.00188623       0.00515937
