31
Properties=species:S:1:pos:R:3:charge:R:1:forces:R:3 5_TS=T (SP=-1087.720804629751,U=-1087.46277782,H=-1087.46183361,G=-1087.52221219) energy=-29598.120266034843 pbc="F F F"
C       -0.23014803       1.45679385      -1.81896394      -0.07898736      -0.00303532      -0.00549840      -0.00455426
H       -1.30610657       1.36696256      -1.71468704       0.03081222       0.00417581       0.00454032       0.00124015
H        0.12999298       0.60986673      -2.39421939       0.03141095       0.00226800      -0.00180099       0.00017116
S        0.52393721       1.51116893      -0.19123488      -0.16138217       0.00325394       0.00163037      -0.00315068
C       -1.32022837      -0.65018712      -0.05216500      -0.10796378      -0.00270579       0.00567627      -0.00490961
C       -0.04076469      -0.13491646       0.53509176       0.00150321       0.00065583      -0.00674811       0.00228411
H       -0.19541156       0.11384568       1.58358925       0.02733883      -0.00192749       0.00236719      -0.00395585
C        1.13288893      -1.09886518       0.51074429       0.00766180      -0.00387399      -0.00629392       0.00305560
C        1.69994561      -1.50153250       1.71520622      -0.04709531       0.00254671      -0.00076367      -0.00232951
C        1.69817565      -1.57493619      -0.67424671      -0.04088935       0.00112036       0.00459615       0.00460097
C        2.80432861      -2.34653955       1.74686478      -0.05742006       0.00102387      -0.00036819      -0.00365588
H        1.26328696      -1.14136131       2.64027355       0.02661728      -0.00470124      -0.00170931      -0.00784596
C        2.80478349      -2.40740714      -0.64539530      -0.04556969      -0.00132251       0.00389191       0.00119494
H        1.25016068      -1.30634481      -1.61814676       0.02048717      -0.00220416       0.00124281       0.00459525
C        3.36464285      -2.79851822       0.56482106      -0.05877573       0.00283095      -0.00029844       0.00027954
H        3.22409794      -2.64937297       2.69720563       0.02232408       0.00094443       0.00323918      -0.00378396
H        3.23239898      -2.75396995      -1.57672983       0.02654444      -0.00146922      -0.00021279       0.00524140
H        4.22680235      -3.44882778       0.58048942       0.02139417       0.00030662      -0.00542212       0.00302262
C       -1.26743877      -1.65626311      -1.02958350       0.04443139      -0.00123707      -0.00183682      -0.00552187
N       -1.25419258      -2.47621904      -1.85110678      -0.34743136       0.00314696      -0.00059099       0.00200970
C       -2.59539556      -0.08186295       0.21552644      -0.00486261      -0.00097131       0.00661942      -0.00495111
C       -3.78075004      -0.57553324      -0.39072141      -0.04635508       0.00042899      -0.00382122       0.00260017
C       -2.80263951       1.02154688       1.08078686      -0.06960460      -0.00208436      -0.00049698       0.00618429
C       -4.99487173       0.00078337      -0.10320513      -0.00673207       0.00415756      -0.00068277      -0.00035753
H       -3.72275914      -1.40460564      -1.08033969       0.02477989      -0.00024100      -0.00365400      -0.00197047
C       -4.07399956       1.51009915       1.28797095      -0.00338239      -0.00012942       0.00016371       0.00478165
H       -1.97880710       1.50916089       1.58083489       0.02733064      -0.00121095       0.00213396       0.00255509
N       -5.18958881       1.03698290       0.72648081      -0.27658159      -0.00079238      -0.00162333       0.00495308
H       -5.89340563      -0.39042922      -0.56866555       0.01001136       0.00405701      -0.00006304      -0.00203171
H       -4.20626673       2.35298772       1.95961142       0.00988505      -0.00405156       0.00364668       0.00273905
H        0.01807909       2.37487235      -2.34760871       0.02049288       0.00104101       0.00213711      -0.00249062
