23
Properties=species:S:1:pos:R:3:forces:R:3 charge=0 spin=1 energy=-144.92526245117188 free_energy=-144.92526245117188 stress="0.0 0.0 0.0 0.0 0.0 0.0 0.0 0.0 0.0" pbc="F F F"
C        4.25214700       0.01240183       0.91485581       0.00133017      -0.00095700      -0.00410424
C        3.31440918       0.47313468       0.08837651      -0.00096755      -0.00238679       0.00625312
C        2.13399729      -0.37739702      -0.26791401       0.00595206       0.00077170       0.00404289
O        1.96461750      -1.52106515       0.17609767      -0.00651985      -0.00180946       0.00233285
N        1.24962932       0.20910508      -1.13644835      -0.00509223      -0.00422761      -0.00276722
C        0.04075643      -0.46915943      -1.58501401      -0.00253454       0.00503910      -0.00448644
C       -1.17469176      -0.19380262      -0.71607501       0.00343736      -0.00286753       0.00408042
C       -1.23545827      -0.73315879       0.57622492       0.00430325       0.00311330      -0.00606611
C       -2.34314626      -0.48172939       1.39238196      -0.00171546       0.00684594      -0.00320071
C       -3.39693075       0.31309200       0.92888699       0.00496638      -0.00248377       0.00307111
C       -3.33630154       0.85304196      -0.35628461       0.00093994       0.00352795      -0.00009117
C       -2.22897130       0.60004510      -1.17509854       0.00013132      -0.00281326      -0.00336459
H        4.16686275      -0.98879469       1.34017693      -0.00114264       0.00202152      -0.00053392
H        5.12588456       0.60730940       1.18844912      -0.00549671      -0.00013329       0.00166298
H        3.36056310       1.46636856      -0.36563591      -0.00111308       0.00297904      -0.00115517
H        1.39982354       1.16984550      -1.42798979      -0.00158577       0.00055349      -0.00188801
H       -0.17222928      -0.16926401      -2.61906834      -0.00033031      -0.00058840      -0.00189680
H        0.26282157      -1.54695600      -1.55675266       0.00711983      -0.00149924       0.00074704
H       -0.40647817      -1.35082913       0.93141710      -0.00201333      -0.00763685      -0.00284317
H       -2.37953943      -0.91305377       2.39584176       0.00328272       0.00412597       0.00152478
H       -4.26198726       0.50901472       1.56801013      -0.00217012       0.00263110       0.00325164
H       -4.15199540       1.47496034      -0.73385621      -0.00250316      -0.00035012       0.00269657
H       -2.19015729       1.02004849      -2.18291581       0.00172175      -0.00385606       0.00273395
