28
Properties=species:S:1:pos:R:3:forces:R:3 charge=-1 spin=1 energy=-168.0642852783203 free_energy=-168.0642852783203 stress="0.0 0.0 0.0 0.0 0.0 0.0 0.0 0.0 0.0" pbc="F F F"
C       -3.78222345      -0.01359578       0.06316659       0.00659947      -0.00560233      -0.00116436
C       -4.20186394       1.05809449      -0.73152473      -0.00333837       0.00012422       0.00513917
C       -3.34609161       2.14239223      -0.92837660      -0.00307824       0.00223732      -0.00087290
C       -2.07887567       2.15538248      -0.33322124      -0.00275880      -0.00262621       0.00539081
C       -1.65724507       1.08862523       0.46475619      -0.00372441       0.00211567      -0.00315002
C       -2.51636081      -0.00043697       0.65992480      -0.00586809      -0.00532496      -0.00211537
C       -0.27074530       1.07441996       1.09023142       0.00237830       0.00260712       0.00066909
N        0.64992851       0.17054718       0.39997324      -0.00067209      -0.00258408      -0.00166856
C        0.72188828      -1.15942715       0.73803047       0.00167945      -0.00081521       0.00231379
O        0.01568047      -1.65891910       1.64244593      -0.00594992       0.00172461       0.00447776
C        1.63111863      -1.96835053      -0.03528521       0.00084603      -0.00053417      -0.00506216
C        2.24397709      -1.54640577      -1.30540155      -0.00200283       0.00752324       0.00168151
H       -5.19143207       1.04629013      -1.19657195      -0.00140354       0.00060501      -0.00285979
H       -3.65821591       2.98570683      -1.54965102       0.00337809       0.00062853       0.00329533
H       -1.40970085       3.00410261      -0.49020575       0.00022054       0.00760502      -0.00191091
H       -2.17137712      -0.83795214       1.27311858       0.00086048      -0.00024435       0.00174636
H        0.14470519       2.08988247       1.07388963       0.00306541       0.00378442      -0.00040303
H       -0.36314387       0.73310882       2.13393434       0.00045152       0.00334550      -0.00309789
H        1.41259736       0.56682791      -0.15801893       0.00059432       0.00055316      -0.00061424
H        1.77838647      -2.98387224       0.32963379       0.00013888      -0.00260252       0.00104623
H        1.50901411      -1.07335008      -1.97792758       0.00280806      -0.00153338       0.00078496
H        2.70844517      -2.39408196      -1.82700910       0.00153032      -0.00475803      -0.00669214
H       -4.44057069      -0.87166347       0.22060769      -0.00272363       0.00001660       0.00129122
S        3.51949221      -0.19279870      -1.17764016      -0.00139727      -0.00317986      -0.00163818
C        4.52297944      -0.80864398       0.18251428      -0.00105677      -0.00385017       0.00305052
H        5.33266781      -0.08280608       0.32375249       0.00296058       0.00107313       0.00065649
H        3.93248589      -0.88746286       1.10434598       0.00456992      -0.00023265      -0.00331745
H        4.96399693      -1.78492537      -0.05530560       0.00189249      -0.00005537       0.00302383
