23
Properties=species:S:1:pos:R:3:forces:R:3 charge=0 spin=1 energy=-134.38621520996094 free_energy=-134.38621520996094 stress="0.0 0.0 0.0 0.0 0.0 0.0 0.0 0.0 0.0" pbc="F F F"
C        3.95008722      -0.15419906       0.40985432      -0.00018230       0.00126093       0.00376002
C        2.72136893       0.04255145      -0.06301940       0.00199308      -0.00181543       0.00045950
C        1.54619697      -0.53253283       0.68519072      -0.00003935      -0.00423443       0.00680858
O        1.72571381      -1.30267047       1.64034613       0.00190770       0.00720231      -0.00469555
N        0.28331613      -0.19113907       0.26887586      -0.00608891      -0.00100552      -0.00210077
C       -0.06128747       0.76222934      -0.79374332       0.00342219       0.00131705       0.00110311
C       -1.43373936       1.37371615      -0.51464511      -0.00016334      -0.00043617      -0.00131338
C       -2.54292304       0.30696438      -0.56231635      -0.00524524       0.00175093       0.00016771
C       -1.99447856      -1.04379457      -0.05968754       0.00245114      -0.00077324       0.00138834
C       -0.85862962      -0.83120817       0.94128990       0.00106493      -0.00192544       0.00080024
H        4.10237255      -0.71780204       1.33225741      -0.00084010      -0.00177765      -0.00365144
H        4.83487235       0.23329971      -0.10039704       0.00090036      -0.00235692      -0.00393503
H        2.53490926       0.59112786      -0.98624989      -0.00022738       0.00110409       0.00001392
H        0.69943181       1.55024192      -0.83137600       0.00141285      -0.00076495       0.00362456
H       -0.06116919       0.27707482      -1.78748454       0.00106276       0.00003171      -0.00301056
H       -1.62671787       2.16924958      -1.24629975      -0.00157059       0.00068074       0.00198795
H       -1.40637673       1.85943254       0.47414458      -0.00471237       0.00308946      -0.00496821
H       -3.39069674       0.63109038       0.05718089       0.00064176      -0.00137872       0.00275299
H       -2.92794948       0.19971173      -1.58619008       0.00631231       0.00231325      -0.00260153
H       -1.61547453      -1.64695458      -0.90047550      -0.00304620       0.00114337       0.00169559
H       -2.79107736      -1.63302773       0.41475504       0.00142369      -0.00481488      -0.00508596
H       -0.48603145      -1.76700218       1.37344740      -0.00157072       0.00037223       0.00246590
H       -1.20809268      -0.21320096       1.78991082       0.00109400       0.00101729       0.00433427
