28
Properties=species:S:1:pos:R:3:forces:R:3 charge=-1 spin=1 energy=-168.58526611328125 free_energy=-168.58526611328125 stress="0.0 0.0 0.0 0.0 0.0 0.0 0.0 0.0 0.0" pbc="F F F"
C        2.76248048      -1.13828011      -1.88095104       0.00217050      -0.00399328      -0.00153559
C        1.79917848      -0.96449024      -0.76014967      -0.00442371       0.00195105       0.00163805
C        2.23139501      -1.24550436       0.62823029       0.00270122      -0.00060746      -0.00205313
C        0.48650625      -0.54075504      -1.09036460      -0.00453400       0.00196727       0.00268856
O        0.07311623      -0.39045271      -2.26875462      -0.00025690       0.00140595       0.00544564
N       -0.35772336      -0.27256872       0.01743348       0.00681466       0.00166244      -0.00274995
C       -1.69983887       0.07057171      -0.04622739      -0.00014188       0.00496598       0.00470472
C       -2.28140522       0.72961471       1.05986668       0.00117208      -0.00213534      -0.00376663
C       -3.63419114       1.05120904       1.05965686      -0.00310142       0.00178710       0.00042421
C       -4.43338017       0.72796004      -0.04081613       0.00129130       0.00203056      -0.00629526
C       -3.86315648       0.07426669      -1.13931465      -0.00455797       0.00570941       0.00011855
C       -2.51142909      -0.25824762      -1.15157884       0.00337999      -0.00736798       0.00171840
H        3.17700969      -2.16090320      -1.92040625       0.00121646      -0.00203192      -0.00069353
H        3.65409353      -0.49555908      -1.76009552       0.00135945       0.00078937       0.00091070
H        2.27109620      -0.90488568      -2.83341613       0.00118912       0.00069506      -0.00135562
H        3.22268722      -1.71442098       0.62727622       0.00099468       0.00186816      -0.00178879
H        1.53281011      -1.89995506       1.17287305       0.00172894      -0.00101915      -0.00093970
H        0.14165766      -0.05987436       0.89149219      -0.00012408       0.00393910       0.00210075
H       -1.64750915       0.98902891       1.91041866       0.00201413      -0.00054902      -0.00263506
H       -4.06784765       1.56358893       1.92153306      -0.00113471      -0.00297028      -0.00210252
H       -5.49672687       0.98702587      -0.04424936      -0.00207001      -0.00202785       0.00126195
H       -4.48323342      -0.17733645      -2.00270053       0.00098434      -0.00066105       0.00003052
H       -2.03701674      -0.75179579      -2.00265143      -0.00123097      -0.00078040       0.00347307
S        2.29859930       0.21070296       1.79863447      -0.00213558      -0.00018258       0.00120661
C        3.09146243       1.43745094       0.74559343      -0.00005517      -0.00439100      -0.00005493
H        4.08855060       1.10557724       0.42963805      -0.00100479       0.00169299      -0.00167415
H        3.20359966       2.34749806       1.34685160       0.00113914       0.00177334       0.00293990
H        2.47873593       1.65872714      -0.13710583      -0.00338472      -0.00352050      -0.00101638
