28
Properties=species:S:1:pos:R:3:forces:R:3 charge=-1 spin=1 energy=-168.56065368652344 free_energy=-168.56065368652344 stress="0.0 0.0 0.0 0.0 0.0 0.0 0.0 0.0 0.0" pbc="F F F"
C       -3.92606820       0.59014301       1.68528539      -0.00137112      -0.00161181      -0.00929260
C       -2.95072928      -0.06554614       0.71193337      -0.00455117       0.00404260       0.00225601
C       -1.69516398       0.67624600       0.50539822       0.00336692      -0.00432068       0.00610824
C       -0.45978922      -0.03388786       0.35321993       0.00188208      -0.00144607       0.00074637
O       -0.37730705      -1.28176514       0.36406617      -0.00104741       0.00572856       0.00640428
N        0.65981849       0.78687664       0.14800428      -0.00045825       0.00006773       0.00222547
C        1.99949594       0.40978551       0.00673073       0.00572735       0.00174574       0.00542273
C        2.91302739       1.38716160      -0.43691378      -0.00478837      -0.00451449       0.00121908
C        4.26315125       1.08261830      -0.57181993       0.00043607       0.00042501      -0.00727543
C        4.72647570      -0.20134307      -0.26990492      -0.00557689      -0.00041763       0.00253584
C        3.82229663      -1.17272429       0.17340531       0.00606200       0.00243556      -0.00473671
C        2.46678607      -0.88064114       0.31734021      -0.00013097       0.00494838      -0.00321992
H       -3.48414002       0.60124005       2.69137430      -0.00222869      -0.00578792       0.00055388
H       -4.13722756       1.63044032       1.40173468       0.00148811      -0.00303568      -0.00069074
H       -4.87759481       0.04465494       1.72525541      -0.00041255      -0.00096279       0.00030785
H       -2.74660541      -1.11688968       0.96410315      -0.00321936       0.00748485       0.00281861
H       -1.71058949       1.76864365       0.47555145       0.00065957       0.00377397       0.00234341
H        0.47015425       1.78252222       0.07044000      -0.00020331       0.00104321      -0.00148516
H        2.54510093       2.38607053      -0.68516172       0.00521696       0.00007316      -0.00215201
H        4.95628594       1.85161199      -0.92081408      -0.00252488      -0.00361395      -0.00028734
H        5.78777959      -0.44382920      -0.38001086       0.00373888      -0.00055999      -0.00001252
H        4.17831776      -2.17768544       0.41231294       0.00006333      -0.00260991      -0.00198546
H        1.74401737      -1.62513075       0.65802635      -0.00100778       0.00136837       0.00057757
S       -3.66559667      -0.01325323      -0.98767661      -0.00622576       0.00280222       0.00353990
C       -2.75107737      -1.30382743      -1.84257942       0.00586645      -0.00134708       0.00041881
H       -1.69379149      -1.04487060      -1.97310222      -0.00181091      -0.00118303      -0.00000640
H       -3.23083989      -1.39734903      -2.82568666      -0.00064558       0.00041147      -0.00606704
H       -2.82666426      -2.26107864      -1.31250924       0.00169547      -0.00493981      -0.00026638
