31
Properties=species:S:1:pos:R:3:forces:R:3 charge=0 spin=1 energy=-173.92160034179688 free_energy=-173.92160034179688 stress="0.0 0.0 0.0 0.0 0.0 0.0 0.0 0.0 0.0" pbc="F F F"
N       -2.86044151      -0.61046836       0.62176779      -0.00520561      -0.00055763      -0.00141838
C       -1.78474164      -1.16187120      -0.00571227       0.00148013       0.00457829       0.00563821
O       -1.44994914      -2.34553143       0.12095040      -0.00178587      -0.00085717      -0.00141359
C       -0.97868607      -0.15781337      -0.82396274      -0.00573242       0.00158069      -0.00449841
C       -0.19199917       0.77309607       0.11885689       0.00245680      -0.00020510       0.00465918
S       -1.07657307       2.31031134       0.55044938       0.00081561      -0.00055822      -0.00283177
C       -1.13570418       3.19064962      -1.02116616      -0.00349732       0.00310890      -0.00659318
C        1.25224347       1.01111558      -0.34507710      -0.00201461      -0.00443706      -0.00689155
N        1.92516834      -0.26519856      -0.53793346       0.00247381      -0.00052647       0.00435670
C        1.99649929      -1.26374896       0.56333152       0.00746768      -0.00185619      -0.00086626
C        3.38224334      -1.68739903       0.03075859      -0.00257811       0.00384185       0.00649766
C        3.39343374      -0.33252049      -0.71482087      -0.00478407      -0.00531380      -0.00628347
C       -3.67971084      -1.38760377       1.52987241       0.00125656      -0.00010210      -0.00055717
H       -2.95335336       0.40579794       0.60604025       0.00291472      -0.00052818      -0.00684504
H       -0.27547652      -0.72139006      -1.44958009       0.00379074       0.00056439       0.00085835
H       -1.66405606       0.41122261      -1.46684869       0.00285415      -0.00264879      -0.00013700
H       -0.12453423       0.28563291       1.10777162      -0.00435445      -0.00260724      -0.00052767
H       -0.14104149       3.51135814      -1.35471697      -0.00464603      -0.00173682       0.00394630
H       -1.61739678       2.60089858      -1.81063014       0.00123893       0.00149447       0.00092607
H       -1.74272524       4.08711208      -0.84504713       0.00052267      -0.00508420       0.00233480
H        1.27457204       1.54873575      -1.30660175      -0.00094023      -0.00046487       0.00536910
H        1.75352022       1.65747887       0.40070774       0.00378148       0.00063343       0.00561280
H        1.19325574      -2.01278735       0.54918369       0.00020033       0.00336117      -0.00371187
H        2.05338199      -0.79043208       1.55960799      -0.00000512       0.00265771      -0.00019614
H        4.17682616      -1.87698727       0.75986937       0.00144506      -0.00234354      -0.00096494
H        3.29735297      -2.52637448      -0.67161569      -0.00340057      -0.00765747      -0.00474341
H        3.92575870       0.45786726      -0.15844308       0.00397410       0.00729124       0.00514485
H        3.72544368      -0.33452083      -1.76013792      -0.00048155       0.00545861       0.00013582
H       -3.23238726      -1.46536243       2.53152543       0.00268768       0.00483798       0.00292563
H       -4.67123888      -0.93088168       1.61949858      -0.00015053       0.00524794       0.00243312
H       -3.77398514      -2.40282405       1.12858798       0.00021602      -0.00717190      -0.00235880
