29
Properties=species:S:1:pos:R:3:forces:R:3 charge=-1 spin=1 energy=-160.17355346679688 free_energy=-160.17355346679688 stress="0.0 0.0 0.0 0.0 0.0 0.0 0.0 0.0 0.0" pbc="F F F"
C        2.50721926       0.43783086       1.75394506       0.00538294      -0.00484915      -0.00606371
N        1.52176927       0.58859542       0.69210805      -0.00127113       0.00614140      -0.00210859
C        1.36066167       1.80319369       0.08008240      -0.00099364      -0.00611433       0.00452502
O        2.08784973       2.78237453       0.35401368      -0.00008343      -0.00133979      -0.00227757
C        0.32588008       1.97314084      -0.92203521       0.00384313       0.00196333      -0.00080240
C       -0.66068750       1.02926512      -1.47503247      -0.00325488      -0.00364836       0.00060374
C       -0.34875961      -0.47162967      -1.59486751       0.00162169       0.00373156      -0.00152172
N       -0.41464264      -1.31067981      -0.38995126       0.00000500      -0.00304975       0.00139505
C        0.57904316      -2.38654532      -0.42875342       0.00111434      -0.00377779       0.00207905
C       -1.75437343      -1.86215516      -0.16196881       0.00183338      -0.00019641      -0.00553990
H        2.58412127      -0.61995046       2.03571085      -0.00256057       0.00456171       0.00296218
H        2.25783261       1.02449628       2.65291175       0.00038231       0.00052536       0.00444913
H        3.48308458       0.79481461       1.39955395       0.00003521       0.00326660       0.00371145
H        0.76467244      -0.10227352       0.62114535      -0.00328380      -0.00071123      -0.00067328
H        0.26362336       3.00282394      -1.28418134      -0.00105114      -0.00121772      -0.00129615
H       -0.92017653       1.36566963      -2.49678090       0.00097018       0.00124314       0.00276667
H       -1.01045517      -0.87512118      -2.38407904       0.00189906       0.00329562       0.00124017
H        0.67965182      -0.51270739      -1.99109232      -0.00057344      -0.00128362      -0.00091828
H        0.54776768      -2.95309192       0.51130600      -0.00158930       0.00022560      -0.00477801
H        1.58621926      -1.96510209      -0.53922957       0.00037616       0.00176790       0.00173954
H        0.41101956      -3.09784214      -1.25735797      -0.00018738      -0.00077502      -0.00057942
H       -2.01700879      -2.63994390      -0.90209867       0.00250989       0.00163483       0.00103303
H       -2.49834870      -1.05676310      -0.23194274      -0.00291958       0.00139618      -0.00046995
H       -1.81029979      -2.31600934       0.83698902      -0.00164650      -0.00302314       0.00512214
S       -2.25126864       1.50150904      -0.61387636      -0.00121406      -0.00097602      -0.00169937
C       -1.85856270       1.46505090       1.14479788      -0.00133847      -0.00029921      -0.00171486
H       -1.39423201       0.51618929       1.43701201       0.00078002      -0.00124751      -0.00096327
H       -2.82275646       1.56061539       1.66181147      -0.00149498       0.00011347      -0.00054026
H       -1.20741013       2.29742311       1.43520355       0.00270843       0.00264221       0.00032009
