16
Properties=species:S:1:pos:R:3:forces:R:3 charge=0 spin=1 energy=-92.9505615234375 free_energy=-92.9505615234375 stress="0.0 0.0 0.0 0.0 0.0 0.0 0.0 0.0 0.0" pbc="F F F"
C       -3.15522641      -0.02513077      -0.17138352       0.00280795      -0.00019573       0.00206519
C       -1.76089498       0.39587768      -0.52049229       0.00027873       0.00181125      -0.00097254
C       -0.64546207      -0.21254986      -0.09666172      -0.00868572       0.00282718      -0.00032078
C        0.70000905       0.29711804      -0.50939130       0.00038172      -0.00304157       0.00349841
O        0.84839871       1.28611908      -1.23650774       0.00167702       0.00361514      -0.00613117
N        1.75937092      -0.42162058      -0.01380212      -0.00230093      -0.00469032      -0.00213984
C        3.13058013      -0.06305778      -0.32060471      -0.00095206       0.00049235       0.00286952
H       -3.72256510      -0.26992886      -1.08187799       0.00051303      -0.00095260       0.00160615
H       -3.17890652      -0.89620191       0.49278236      -0.00163130       0.00073057      -0.00347853
H       -3.69539295       0.79833861       0.31904904       0.00295563      -0.00059876      -0.00025141
H       -1.64651869       1.26571139      -1.17601591       0.00036241      -0.00309414       0.00227079
H       -0.65657390      -1.09012093       0.55465993      -0.00070831      -0.00269514       0.00301713
H        1.58718629      -1.23314718       0.56823941      -0.00083503       0.00552346      -0.00261060
H        3.09361605       0.82966327      -0.95930286       0.00047895      -0.00073248       0.00269836
H        3.69945826       0.16672624       0.59008492       0.00353058       0.00216639       0.00030465
H        3.64721626      -0.86916758      -0.85838472       0.00212739      -0.00116576      -0.00242532
