20
Properties=species:S:1:pos:R:3:forces:R:3 charge=0 spin=1 energy=-128.56781005859375 free_energy=-128.56781005859375 stress="0.0 0.0 0.0 0.0 0.0 0.0 0.0 0.0 0.0" pbc="F F F"
C        4.16904209      -0.75654541      -0.75514698      -0.00249872       0.00008143       0.00153919
C        3.11380376      -0.24519165      -0.11935696       0.00504164      -0.00055656      -0.00186347
C        1.74046326      -0.42559182      -0.67728839       0.00256363      -0.00135136       0.00033319
O        1.49867849      -1.02745876      -1.72363726      -0.00711147      -0.00235139       0.00044817
N        0.75259417       0.16119070       0.11306752       0.00666503       0.00159965       0.00280233
C       -0.63551821       0.19729589      -0.09806655      -0.00370328       0.00208489      -0.00190657
C       -1.26311180      -0.40505018      -1.20141063       0.00212404       0.00360098       0.00634494
C       -2.65094206      -0.31466351      -1.33011025       0.00424021      -0.00091967      -0.00335789
C       -3.42094697       0.36440523      -0.38106656      -0.00368559      -0.00277484      -0.00426776
C       -2.79391949       0.96129117       0.71636367      -0.00177813       0.00018094       0.00345024
H       -3.38252636       1.49477339       1.46631150       0.00100905       0.00117335      -0.00131914
C       -1.41255400       0.87954749       0.85774245      -0.00061473       0.00348306      -0.00057164
H        5.18303968      -0.64084728      -0.36723554      -0.00605655      -0.00126174      -0.00355932
H        4.03635935      -1.30900237      -1.68617430       0.00109325      -0.00065963      -0.00026560
H        3.20753732       0.31405236       0.81514471      -0.00195897       0.00084649       0.00233006
H        1.07925538       0.63544500       0.95165372       0.00000821      -0.00346710      -0.00290598
H       -0.64919235      -0.93064187      -1.93424503       0.00257507       0.00096393       0.00262904
H       -3.13579451      -0.78240217      -2.19007490       0.00507608      -0.00110239       0.00085551
H       -4.50745576       0.42991814      -0.49654424       0.00073072      -0.00014916       0.00039652
H       -0.91771347       1.34633021       1.71352003      -0.00371967       0.00057899      -0.00111170
