26
Properties=species:S:1:pos:R:3:forces:R:3 charge=0 spin=1 energy=-155.58473205566406 free_energy=-155.58473205566406 stress="0.0 0.0 0.0 0.0 0.0 0.0 0.0 0.0 0.0" pbc="F F F"
C       -2.56806932       0.13473560       2.55858896       0.00049323       0.00080366      -0.00359231
C       -3.74212392       0.57735728       1.94561289       0.00169237      -0.00111007      -0.00009227
C       -3.73073057       0.80202222       0.56530832       0.00222287      -0.00010785      -0.00839699
Cl      -5.18067166       1.35244338      -0.20521087       0.00101188      -0.00475936       0.00563561
C       -2.58693455       0.59809695      -0.21039362       0.00153118       0.00388408       0.00360695
C       -1.41414508       0.15718157       0.42630816      -0.00593467       0.00247335      -0.00309659
N       -0.21539447      -0.08512096      -0.26589248       0.00373955      -0.00213736       0.00697376
C        0.06495757       0.16457718      -1.59295512      -0.00032574       0.00341278      -0.00409931
O       -0.73132425       0.63659125      -2.40233773      -0.00348708      -0.00361945      -0.00226111
C        1.49757628      -0.21226413      -1.97771991       0.00022744      -0.00232166       0.00416070
C        2.58545022       0.48277421      -1.15314586      -0.00208358       0.00104026      -0.00176632
S        2.91199461      -0.20725097       0.50182812      -0.00350819       0.00110372       0.00074962
C        3.67261288      -1.78698223       0.07599529       0.00171201       0.00676576      -0.00353633
C       -1.41087612      -0.07507108       1.81445119       0.00444935      -0.00314308       0.00513592
H       -2.55346368      -0.04864694       3.63596190      -0.00338527       0.00155793       0.00292778
H       -4.65856995       0.74948784       2.51382437       0.00178513       0.00298385      -0.00324172
H       -2.59074249       0.77882744      -1.28478408      -0.00028904       0.00075151      -0.00131336
H        0.59193497      -0.40791144       0.29194092       0.00148852      -0.00200143       0.00000437
H        1.59624564       0.05990083      -3.03632201      -0.00093504       0.00114866       0.00398827
H        1.59258197      -1.30843216      -1.90653815       0.00160653      -0.00008883      -0.00752404
H        2.31574768       1.53409567      -0.97477862       0.00097868       0.00231674       0.00073750
H        3.53011780       0.49120636      -1.71552237      -0.00328669      -0.00120762       0.00031946
H        4.58362442      -1.64198984      -0.51855384      -0.00112523      -0.00341036       0.00096229
H        2.98020875      -2.44662566      -0.46225350       0.00284299      -0.00540594       0.00094168
H        3.94923686      -2.26955982       1.02073676      -0.00327270      -0.00208530       0.00067393
H       -0.49420885      -0.42048017       2.29741418       0.00185123       0.00315593       0.00210273
