20
Properties=species:S:1:pos:R:3:forces:R:3 charge=0 spin=1 energy=-127.1121826171875 free_energy=-127.1121826171875 stress="0.0 0.0 0.0 0.0 0.0 0.0 0.0 0.0 0.0" pbc="F F F"
C        4.27323948      -0.00394773       0.41559098      -0.00128448       0.00411783       0.00148886
C        3.10321865       0.50332823       0.02436392      -0.00600275      -0.00228174      -0.00334585
C        1.82951291      -0.18968134       0.37916802      -0.00743901       0.00310004       0.00109550
O        1.77138080      -1.23509747       1.02662415      -0.00544180       0.00220257      -0.00050635
N        0.70021529       0.47398266      -0.10197740       0.00932474      -0.00159150      -0.00182672
C       -0.65087687       0.11935234       0.03723948      -0.00354027       0.00556140      -0.00611421
C       -1.07984441      -1.02485386       0.72924126       0.00387316       0.00618631      -0.00188300
C       -2.44848394      -1.29248908       0.81446288       0.00556456       0.00231802      -0.00116336
C       -3.39878653      -0.45329773       0.22779141      -0.00645705      -0.00031233       0.00008884
C       -2.95361003       0.68054001      -0.45649099       0.00875923      -0.00185710      -0.00016257
C       -1.59755684       0.97713553      -0.55800113       0.00690337      -0.00010601      -0.00163935
Cl      -4.10410008       1.74332324      -1.19935863      -0.00222169      -0.00414382       0.00192297
H        4.30672634      -0.92656575       0.99587329       0.00229436      -0.00246543       0.00069639
H        5.21892270       0.48281788       0.16959046      -0.00041825      -0.00442791       0.00271599
H        3.02875662       1.42391017      -0.56028285       0.00027650      -0.00257114       0.00069551
H        0.87733296       1.32437843      -0.63050344      -0.00190595      -0.00163092       0.00280177
H       -0.33466363      -1.67910338       1.18343774       0.00496145       0.00208308       0.00065525
H       -2.77977767      -2.18435763       1.35187502       0.00084922       0.00077096       0.00146306
H       -4.46876787      -0.66235067       0.28913049      -0.00625396      -0.00146373       0.00288961
H       -1.28173946       1.86983069      -1.09981696      -0.00184140      -0.00348845       0.00012760
