23
Properties=species:S:1:pos:R:3:forces:R:3 charge=0 spin=1 energy=-129.4055938720703 free_energy=-129.4055938720703 stress="0.0 0.0 0.0 0.0 0.0 0.0 0.0 0.0 0.0" pbc="F F F"
N        1.61417555      -0.13917494      -0.71505639      -0.00380751       0.00128480      -0.00252283
C        1.65487202       0.60362143       0.42753325       0.00349507      -0.00222969      -0.00123793
O        2.71060712       0.97649871       0.95009083       0.00115016       0.00214887      -0.00279514
C        0.33993740       0.82106594       1.17349895      -0.00104575      -0.00238223      -0.00240603
C        0.01649192      -0.48067774       1.98321584       0.00192549      -0.00422940       0.00286493
C       -1.11905275      -0.80821147       0.98332994      -0.00008757       0.00294413      -0.00063066
C       -1.05165563       0.66056497       0.49767223       0.00272912      -0.00400605      -0.00157267
S       -1.25815202       1.05071952      -1.26707714      -0.00212631       0.00104912      -0.00382069
C       -2.82188015       0.20816367      -1.57209995       0.00282128      -0.00031542       0.00606775
C        2.83621153      -0.39406544      -1.45868146      -0.00230406       0.00381306       0.00414453
H        0.72783015      -0.17366226      -1.22847727      -0.00018716      -0.00071880       0.00349631
H        0.47576246       1.72665324       1.77446269       0.00053235       0.00103913      -0.00494853
H        0.84244836      -1.19747687       2.04784011      -0.00283448      -0.00451189       0.00155192
H       -0.34817812      -0.25531687       2.99234258      -0.00281718      -0.00167359      -0.00229833
H       -2.07270249      -1.13272428       1.41313309       0.00260793       0.00358668       0.00132170
H       -0.80988447      -1.51847040       0.20476248      -0.00169321       0.00053573       0.00095194
H       -1.77054571       1.27736960       1.06057901       0.00393517       0.00409342       0.00239506
H       -3.61688030       0.59818505      -0.92341259       0.00178633       0.00056850      -0.00059737
H       -3.09529322       0.40991517      -2.61404301      -0.00642136      -0.00565499      -0.00416610
H       -2.73679085      -0.87719384      -1.43722240       0.00257127       0.00335154      -0.00192596
H        3.62930296      -0.64650526      -0.74608013       0.00257859      -0.00368631       0.00527273
H        2.67677235      -1.22947047      -2.14915749       0.00046276       0.00018498       0.00037788
H        3.17023090       0.48335247      -2.03244521      -0.00327077       0.00480830       0.00047696
