26
Properties=species:S:1:pos:R:3:forces:R:3 charge=0 spin=1 energy=-146.45721435546875 free_energy=-146.45721435546875 stress="0.0 0.0 0.0 0.0 0.0 0.0 0.0 0.0 0.0" pbc="F F F"
N       -1.98811461       0.54526750       0.88709812      -0.00031177       0.00426364      -0.00486302
C       -1.42711722       0.81087765      -0.33520585      -0.00381267      -0.00453755       0.00391012
O       -1.89213389       1.65018123      -1.11152146       0.00244129       0.00187299      -0.00371267
C       -0.18926137      -0.00742117      -0.67965455       0.00312961       0.00019611      -0.00193852
C       -0.42982609      -1.54939015      -0.67645644       0.00250106      -0.00058514      -0.00339848
C        0.53076688      -2.12564332       0.38369036      -0.00170501      -0.00638718       0.00571115
C        1.71167535      -1.14308842       0.36080037      -0.00113390       0.00150096      -0.00456024
C        1.01511635       0.22710067       0.28322882      -0.00266749      -0.00237358       0.00019360
S        2.05046676       1.67213617      -0.03397363       0.00373469       0.00003234       0.00192095
C        2.70073500       1.36796890      -1.68667770      -0.00132333       0.00274337       0.00143178
C       -3.18511402       1.22507204       1.33752472      -0.00533634       0.00076689       0.00315614
H       -1.59218661      -0.17381795       1.47813320       0.00174219       0.00333697      -0.00175874
H        0.06167125       0.34502670      -1.68731921      -0.00035746      -0.00175915      -0.00158972
H       -0.17641365      -1.94783518      -1.66893682      -0.00106945      -0.00031108       0.00221041
H       -1.48150282      -1.80679729      -0.49862398      -0.00255357      -0.00245406       0.00139515
H        0.05877098      -2.11895344       1.37963611       0.00377474       0.00173193      -0.00338098
H        0.82187784      -3.16123627       0.17621827       0.00137329       0.00010404       0.00101608
H        2.31959361      -1.31003516      -0.54204987      -0.00281022      -0.00123630       0.00204739
H        2.38072548      -1.21223477       1.22530881       0.00060570       0.00229122       0.00104013
H        0.61857638       0.45942793       1.28742781      -0.00159338      -0.00126275       0.00042726
H        3.34529836       2.22525374      -1.91702915       0.00388341       0.00248148       0.00071827
H        1.91082386       1.32512486      -2.44783612      -0.00222674       0.00098573       0.00033028
H        3.31280928       0.45805702      -1.73968638       0.00062818      -0.00036835      -0.00306187
H       -3.02394480       1.70973428       2.30817014      -0.00294614      -0.00225957       0.00511888
H       -4.03243786       0.53267720       1.43026614       0.00178833       0.00143503       0.00000496
H       -3.42581988       1.98583675       0.58530820       0.00424488      -0.00020772      -0.00236829
