26
Properties=species:S:1:pos:R:3:forces:R:3 charge=0 spin=1 energy=-146.63800048828125 free_energy=-146.63800048828125 stress="0.0 0.0 0.0 0.0 0.0 0.0 0.0 0.0 0.0" pbc="F F F"
N        2.60147696       0.89373280       0.36995947       0.00683573       0.00108439       0.00424185
C        1.27082638       0.76634194       0.65675450       0.00142229       0.00017989      -0.00643170
O        0.76990880       1.17285877       1.71182864      -0.00070325      -0.00162850       0.00516482
C        0.48123675      -0.00599326      -0.39758980      -0.00316525      -0.00023725       0.00082082
C        0.68107250      -1.53353336      -0.15121111       0.00712562      -0.00399816      -0.00094505
C       -0.73460870      -2.11905963       0.03565153      -0.00165075      -0.00464967      -0.00330184
C       -1.54798900      -0.93137802       0.57165125      -0.00011387       0.00541181      -0.00068746
C       -1.03539952       0.25370548      -0.26472894      -0.00084730      -0.00066396      -0.00066856
S       -1.72446253       0.31547924      -1.95759922      -0.00417935      -0.00014292      -0.00188319
C       -3.43540157       0.76476140      -1.62941777       0.00320922      -0.00130396       0.00591042
C        3.52316790       1.53895855       1.27821476      -0.00102457       0.00314604       0.00116238
H        2.94934350       0.55030980      -0.51644490      -0.00287794       0.00064348       0.00044444
H        0.85635992       0.29939304      -1.38545668       0.00033616      -0.00003739       0.00310476
H        1.23869369      -2.00291847      -0.96958703      -0.00228792      -0.00037955      -0.00154342
H        1.27606839      -1.67460264       0.76344732      -0.00070031      -0.00221622       0.00012594
H       -1.14316349      -2.42802068      -0.93855368      -0.00071528       0.00052312       0.00505643
H       -0.74083337      -2.98951729       0.70106186       0.00000222       0.00014749      -0.00080770
H       -1.29781173      -0.73181516       1.62575903      -0.00307630      -0.00201711      -0.00374863
H       -2.63107820      -1.07526452       0.49703592       0.00446439      -0.00135657       0.00370985
H       -1.22056145       1.21974249       0.22098887      -0.00016577       0.00208347       0.00102263
H       -3.96532680      -0.01230715      -1.06403528      -0.00369092       0.00113122       0.00265028
H       -3.92363539       0.87615157      -2.60555025       0.00247177       0.00264066      -0.00559029
H       -3.50664885       1.72040300      -1.09322969       0.00235386       0.00080524      -0.00333312
H        3.86716748       2.50532942       0.88835903      -0.00264087       0.00070959       0.00006485
H        4.39793121       0.90433338       1.46228038       0.00003396      -0.00040601      -0.00185953
H        2.98870246       1.70619731       2.22065997      -0.00041596       0.00053090      -0.00267923
