29
Properties=species:S:1:pos:R:3:forces:R:3 charge=-1 spin=1 energy=-174.69337463378906 free_energy=-174.69337463378906 stress="0.0 0.0 0.0 0.0 0.0 0.0 0.0 0.0 0.0" pbc="F F F"
C       -4.21730147      -2.52555714       0.39711166       0.00740230      -0.00090225       0.00179568
O       -2.93221357      -2.02591507       0.01790610       0.00197847       0.00065139      -0.00000502
C       -2.55251855      -0.76522945       0.38939327      -0.00501649       0.00530009       0.00198185
C       -3.34615373       0.11024174       1.14558342       0.00087440       0.00307242       0.00123420
C       -2.83520204       1.37506226       1.45625636      -0.00283384       0.00053433       0.00609171
C       -1.57194812       1.76371901       1.03190477       0.00390980      -0.00662386      -0.00427406
C       -0.78138136       0.87753352       0.26978493      -0.00447467      -0.00606085       0.00098968
C       -1.27543993      -0.39117834      -0.05256982      -0.00262892      -0.00880742      -0.00113057
N        0.47350280       1.33199688      -0.14654866       0.00030952       0.00592253      -0.00392034
C        1.47552267       0.62849846      -0.83239318      -0.00185658       0.00527018      -0.00448811
O        1.38531599      -0.59344628      -1.07659159      -0.00011157       0.00028001      -0.00564878
C        2.61347121       1.42492728      -1.17792130       0.00678730      -0.00190544       0.00308870
C        3.77083411       0.79417964      -1.82519417       0.00202876      -0.00256100      -0.00299627
H       -4.33431129      -2.57181611       1.49314056      -0.00101320       0.00382623      -0.00245854
H       -4.26798353      -3.54047746      -0.01615330       0.00280355      -0.00207028      -0.00177531
H       -5.03645488      -1.91842572      -0.02470919       0.00140002       0.00334512       0.00638983
H       -4.33938406      -0.18464931       1.48476627       0.00013754       0.00177494      -0.00244671
H       -3.44310004       2.06713715       2.04282334      -0.00409245      -0.00396931       0.00131270
H       -1.18209194       2.75294242       1.28444334      -0.00604880       0.00356117       0.00401231
H       -0.67314780      -1.08612978      -0.63726335       0.00229242       0.00045116      -0.00147428
H        0.68222217       2.30374263       0.06523541      -0.00430909       0.00228391      -0.00392951
H        2.63304025       2.48843480      -0.92681365       0.00135202      -0.00149961       0.00243910
H        4.28501721       1.44563746      -2.54143695       0.00096665       0.00186177      -0.00505254
H        3.54579088      -0.18599066      -2.26533663      -0.00017861      -0.00038671       0.00579387
S        4.93845973       0.62816278      -0.42142646       0.00377804      -0.00498927       0.00262652
C        4.32128289      -0.83233709       0.42220354      -0.00631164       0.00169566      -0.00318788
H        5.01994404      -1.00428432       1.25071774       0.00595486      -0.00299935       0.00287840
H        4.32491784      -1.70980150      -0.23640009      -0.00145634      -0.00008881       0.00100352
H        3.31074852      -0.68380210       0.82176949      -0.00164351       0.00303320       0.00114967
