21
Properties=species:S:1:pos:R:3:forces:R:3 charge=-1 spin=1 energy=-116.84555053710938 free_energy=-116.84555053710938 stress="0.0 0.0 0.0 0.0 0.0 0.0 0.0 0.0 0.0" pbc="F F F"
C       -3.04549223       1.40232800       0.41949180       0.00371158      -0.00689626      -0.00227045
N       -2.06940397       0.61067438      -0.30423383      -0.00330903       0.00075322       0.00190005
C       -1.02710284       0.02477870       0.36530511      -0.00169706       0.00321077      -0.00656962
O       -0.98858823      -0.07121755       1.59480979       0.00299288      -0.00834126       0.00327294
C        0.01182018      -0.58885410      -0.54980889      -0.00374022       0.00182730       0.00082296
C        0.76419909      -1.60290963      -0.05887529       0.00320071      -0.00464337      -0.00058934
C        1.73409821      -2.36644785      -0.89265638      -0.00020794       0.00388503       0.00473223
F        1.66049763      -2.05359526      -2.21837780      -0.00145093       0.00583005      -0.00459111
F        1.55916400      -3.71545469      -0.76842237      -0.00052749       0.00187533       0.00443645
F        3.02257523      -2.10144405      -0.47852727      -0.00386767       0.00078781       0.00069092
H       -2.65537713       2.39952983       0.67294014       0.00218153       0.00320035       0.00254838
H       -3.27945818       0.88312746       1.35640049       0.00251077       0.00034671       0.00500385
H       -3.95452890       1.51455809      -0.18206197       0.00057688       0.00046539      -0.00701557
H       -1.93665529       0.80835001      -1.28886107      -0.00110777       0.00384476      -0.00239417
H       -0.06935676      -0.41482812      -1.62389129       0.00033467      -0.00335265       0.00894618
H        0.72958032      -1.86254259       1.00134260      -0.00122898      -0.00061339      -0.00202961
S        1.04900404       1.65353483      -0.48304125      -0.00117039      -0.00258017      -0.00448865
C        1.97833220       1.38190343       1.02234724       0.00024399      -0.00386155       0.00311539
H        1.31759752       1.05201214       1.83521508       0.00132794      -0.00066683       0.00233775
H        2.77728898       0.64384062       0.87435281      -0.00438920       0.00254413      -0.00499018
H        2.42811282       2.34765461       1.29054820       0.00561604       0.00238453      -0.00286850
