25
Properties=species:S:1:pos:R:3:charge:R:1:forces:R:3 energy=-24950.591773371787 pbc="F F F"
O        0.27999289       1.19593389      -1.29020621      -0.50784665       0.00413373       0.00484142       0.00322888
C        0.74028752       0.05075576      -1.08092645       0.31464732      -0.00504161      -0.00292353      -0.00264327
C        1.97515763      -0.45345116      -1.44969308      -0.47552037      -0.00259992      -0.00102257       0.00244769
C        2.98000615       0.40477718      -2.10176900      -0.11216425      -0.00058839      -0.00322567       0.00073167
N       -0.08601991      -0.88684846      -0.34723109      -0.38442466       0.00203722      -0.00148212       0.00134493
C       -1.35098208      -0.75401156       0.16701414       0.21120253       0.00156748       0.00180528      -0.00187844
C       -1.90639920      -1.83233293       0.88244289      -0.18874201       0.00215780       0.00206503      -0.00337574
C       -3.17931224      -1.76272501       1.41524199      -0.17677650       0.00317765      -0.00310381      -0.00026407
C       -3.95158005      -0.62004950       1.25771203      -0.22166863       0.00051388      -0.00216922       0.00148649
C       -3.40905482       0.44924979       0.55343162      -0.16164498      -0.00051843       0.00167815       0.00257127
C       -2.13523222       0.40321668       0.01326035      -0.13765846      -0.00121847       0.00095679      -0.00091118
H        2.29634041      -1.43387906      -1.11811520       0.10624638       0.00086441      -0.00130235      -0.00167463
H        3.52913708      -0.09803467      -2.89879774       0.07167996       0.00866623       0.00248662      -0.00017671
H        2.51261769       1.29934338      -2.52025643       0.08570486      -0.00223609      -0.00146109       0.00221021
H        0.37015036      -1.76003213      -0.16845519       0.23739958       0.00158731      -0.00265429       0.00047173
H       -1.31812069      -2.73370317       1.01380761       0.10711882      -0.00078114       0.00243460       0.00128308
H       -3.57196587      -2.61244326       1.96023576       0.11173502      -0.00220310      -0.00321675       0.00044068
H       -4.94787078      -0.56471140       1.67279221       0.11805847      -0.00141384       0.00315128       0.00037165
H       -3.99427093       1.35036293       0.41881225       0.11054751      -0.00129392       0.00407798       0.00236815
H       -1.70849676       1.22814765      -0.52940402       0.12455858       0.00027231      -0.00030218      -0.00088768
S        4.34087787       1.02255749      -0.99288340      -0.30716139       0.00695742      -0.00096739      -0.00559656
C        3.28941462       1.89221966       0.18123309      -0.19614281       0.00115127       0.00037529       0.00045471
H        2.67392133       2.62727355      -0.33036344       0.08531414      -0.00349838       0.00361227      -0.00502739
H        2.63320671       1.18063780       0.67344634       0.09224436      -0.00348032      -0.00426388      -0.00026717
H        3.92501125       2.39016416       0.91291858       0.09329321      -0.00821260       0.00061009       0.00329198
