25
Properties=species:S:1:pos:R:3:charge:R:1:forces:R:3 energy=-24950.591754410612 pbc="F F F"
O        0.12292380      -1.54313936       0.62342186      -0.50797361       0.00384752      -0.00422390       0.00509737
C        0.64908551      -0.95181348      -0.34636846       0.31473824      -0.00665795      -0.00130719      -0.00110214
C        1.86688738      -1.21524463      -0.94887099      -0.47584525      -0.00224087       0.00492972       0.00023558
C        2.77096435      -2.24694562      -0.41082795      -0.11244827       0.00059471      -0.00027965       0.00086512
N       -0.06772488       0.16601966      -0.92632405      -0.38455772       0.00270969       0.00420154       0.00076340
C       -1.28382502       0.71422461      -0.60538856       0.21129462       0.00472027       0.00141069      -0.00295891
C       -2.12977695       0.20087389       0.39400031      -0.13768931       0.00532378      -0.00034923      -0.00382596
C       -3.34891062       0.80782417       0.64354928      -0.16161649       0.00448367      -0.00471699       0.00303610
C       -3.77532373       1.92671654      -0.06349632      -0.22154112       0.00021629      -0.00503969      -0.00289550
C       -2.94136297       2.43893197      -1.04783193      -0.17671321      -0.00088468       0.00071086      -0.00421844
C       -1.72177257       1.84799399      -1.31653338      -0.18862797      -0.00170149       0.00167444       0.00077715
H        2.25967855      -0.55929647      -1.71671833       0.10627639       0.00070048      -0.00132971      -0.00729479
H        2.22883587      -2.93127160       0.24597439       0.08575823      -0.00101337      -0.00139241       0.00382483
H        3.26701927      -2.83642875      -1.18284321       0.07175487       0.00872237       0.00032388       0.00014832
H        0.44289815       0.62796555      -1.65321265       0.23737541      -0.00086821       0.00221067      -0.00487493
H       -1.79139578      -0.66234143       0.93952077       0.12452418      -0.00569720       0.00028428       0.00201567
H       -3.98419581       0.39136294       1.41520033       0.11054998      -0.00145350       0.00026451       0.00739226
H       -4.73114212       2.38586855       0.14519501       0.11809762       0.00077383       0.00126755       0.00566368
H       -3.24390880       3.31018025      -1.61558147       0.11172322      -0.00083194       0.00625628      -0.00570645
H       -1.08461626       2.26102391      -2.09065450       0.10714035       0.00063562      -0.00146767       0.00330823
S        4.19876848      -1.60876212       0.59856718      -0.30708292       0.00296602       0.00194162      -0.00527496
C        3.21937895      -0.76371337       1.85058945      -0.19608063      -0.00378697      -0.00193363      -0.00030792
H        2.64164046       0.02804115       1.38272132       0.09226532      -0.00189196      -0.00464587      -0.00231957
H        2.52902711      -1.45769647       2.32274891       0.08527837      -0.00433433       0.00531847       0.00723404
H        3.89365871      -0.34795518       2.59881761       0.09339996      -0.00433232      -0.00410817       0.00041861
