20
Properties=species:S:1:pos:R:3:charge:R:1:forces:R:3 energy=-13025.509271741916 pbc="F F F"
C        4.15371368       0.84749264       0.07668545      -0.27688262       0.00071129      -0.00252023       0.00384679
C        3.10576151       0.11514556      -0.26838282      -0.15204766      -0.00075127       0.00143179       0.00180427
C        1.73207766       0.49829893       0.18427051       0.44832864      -0.00486071       0.00480968      -0.00130557
O        1.53118969       1.47865072       0.87200901      -0.43431336      -0.00473022       0.00203811       0.00480577
N        0.74593493      -0.34915594      -0.24696931      -0.36168349      -0.00009498      -0.00654518       0.00212218
C       -0.64206733      -0.27701156      -0.00390067       0.12608275       0.00083676       0.00342075      -0.00139304
C       -1.23597238       0.72376709       0.75862710      -0.12447412      -0.00108039       0.00253673      -0.00246635
C       -2.61159756       0.71140133       0.94091654      -0.13594387       0.00140975      -0.00348544       0.00333611
C       -3.40468791      -0.27738367       0.38009247      -0.15795551       0.00191360      -0.00217991       0.00289833
H       -4.47414854      -0.27377716       0.53275678       0.13750015       0.00145440      -0.00035511      -0.00395443
C       -2.80767353      -1.27358362      -0.37883149      -0.13870135       0.00234780       0.00238990       0.00074253
C       -1.43717127      -1.27279711      -0.56916494      -0.16811681       0.00192072      -0.00041776       0.00523547
H        5.15501410       0.59065556      -0.23962437       0.14658090       0.00267526      -0.00149508      -0.00096086
H        4.02195615       1.72693348       0.69072583       0.15897168       0.00007380       0.00410123      -0.00170589
H        3.22054457      -0.77083573      -0.88175321       0.12175665      -0.00046468      -0.00043953      -0.00165008
H        1.03084773      -1.12895880      -0.81002659       0.26806331      -0.00470306      -0.00605813      -0.00631228
H       -0.62349639       1.49107269       1.19484332       0.14079709       0.00360350      -0.00151051      -0.00231695
H       -3.06491753       1.49229359       1.53482989       0.13517816       0.00068999      -0.00069621      -0.00240432
H       -3.41022991      -2.05314920      -0.82335853       0.13604383       0.00444391       0.00249996       0.00012956
H       -0.97397947      -2.05220460      -1.16146209       0.13081565      -0.00539511       0.00247595      -0.00045123
