28
Properties=species:S:1:pos:R:3:charge:R:1:forces:R:3 energy=-30535.09437697537 pbc="F F F"
C        2.00668512       0.11125852       0.95704910      -0.09952857      -0.00026745      -0.00124606      -0.00083057
C        3.36999049      -0.06916198       1.11345333      -0.12199018      -0.00321540      -0.00864778       0.00051216
C        4.15276380      -0.39369185       0.02027680       0.10506595      -0.00146098       0.00235742       0.00077295
N        5.59980178      -0.58622556       0.20184071       0.48349714      -0.00217705       0.00630118      -0.00100206
O        6.05239520      -0.45203436       1.32128471      -0.34857449       0.00229837      -0.00152648      -0.00234177
O        6.25773739      -0.86869101      -0.78102881      -0.35003260      -0.00078826      -0.00072328       0.00168638
C        3.60658220      -0.54232554      -1.24315941      -0.13442272       0.00021039       0.00337798       0.00184281
C        2.24798952      -0.36396802      -1.39884103      -0.14440463       0.00218692      -0.00214951      -0.00293820
C        1.43847341      -0.03891109      -0.30752837       0.11524546       0.00508598       0.00102058      -0.00330085
N        0.07337239       0.11293075      -0.56926701      -0.36243954       0.00366421      -0.00142468       0.00064890
C       -0.93692447       0.50325197       0.27817854       0.40768558       0.00333923       0.00411543      -0.00041223
O       -0.76200500       0.76647977       1.44509906      -0.41092134      -0.00121836       0.00161306       0.00417756
C       -2.29381094       0.58747951      -0.39794608      -0.13254189       0.00052845      -0.00006419      -0.00126511
C       -3.36479710       1.04865070       0.57208160      -0.11247136       0.00043009      -0.00215832      -0.00168587
S       -5.00247432       1.16030692      -0.17731984      -0.20117852       0.00341809       0.00142223       0.00521970
C       -5.46934613      -0.58438778      -0.16604397      -0.20450531       0.00178951       0.00197803      -0.00098067
H        1.38455593       0.36392378       1.79611863       0.13833988       0.00128496      -0.00022718       0.00168719
H        3.83215000       0.03909745       2.08089639       0.14645147      -0.00191451       0.00167873      -0.00365111
H        4.24611213      -0.79040086      -2.07447912       0.14641678      -0.00362466      -0.00388996       0.00619619
H        1.79888808      -0.47267770      -2.37718671       0.13128987       0.00300751      -0.00423388      -0.00304883
H       -0.19901561      -0.06290014      -1.51980463       0.26718393      -0.00673529       0.00423271       0.00261729
H       -2.53572305      -0.39019205      -0.82082274       0.07138699      -0.00611824      -0.00064348       0.00027814
H       -2.22051869       1.27621210      -1.24138734       0.08118729      -0.00432370       0.00028599      -0.00160120
H       -3.39541603       0.39016194       1.43582734       0.10274532       0.00063634       0.00284615       0.00018650
H       -3.12234623       2.04024456       0.94123122       0.11731566      -0.00437742      -0.00336238       0.00048425
H       -4.85714717      -1.17800155      -0.84026571       0.09139988       0.00626014       0.00278380      -0.00113389
H       -5.40649955      -0.99579033       0.83844560       0.09728919       0.00206778       0.00003880       0.00019970
H       -6.50195019      -0.63244577      -0.50138011       0.12051080       0.00001249      -0.00375485      -0.00231726
