26
Properties=species:S:1:pos:R:3:charge:R:1:forces:R:3 energy=-24966.462446666716 pbc="F F F"
C       -4.68956566      -0.09850325      -0.18005433      -0.16134207      -0.00043811      -0.00361479       0.00025974
C       -3.82576370      -0.98595171      -0.80264482      -0.13401081       0.00199749       0.00176494      -0.00341409
C       -2.45245512      -0.90702271      -0.62084543      -0.11636565       0.00201312      -0.00207309       0.00185961
C       -1.93268920       0.08775615       0.20291989       0.14372163       0.00136769       0.00612847      -0.00676053
N       -0.55624761       0.26152766       0.44331531      -0.36198536       0.00057667      -0.00274737       0.00219384
C        0.49906688      -0.50395910       0.02254237       0.41704085       0.00023454      -0.00086224      -0.00523403
O        0.38287114      -1.49375499      -0.66574958      -0.42432940       0.00184760      -0.00444467       0.00323386
C        1.85211673      -0.00609930       0.50869382      -0.13433690      -0.00314495      -0.00075472       0.00195758
C        2.97306711      -0.90637212       0.02241936      -0.10213418      -0.00520006      -0.00115085       0.00097455
S        4.60777225      -0.38553409       0.58417380      -0.21000506      -0.00407641       0.00092750      -0.00314030
C        4.89126591       0.98766425      -0.55418540      -0.20199907      -0.00192840       0.00107905       0.00160995
C       -2.79905664       0.98149934       0.83157348      -0.15631744       0.00173013      -0.00119375       0.00138547
C       -4.16661859       0.88850937       0.64278640      -0.14083292       0.00155133       0.00194259      -0.00411498
H       -5.75606872      -0.17442770      -0.33282170       0.13599974      -0.00202050       0.00242237       0.00461003
H       -4.22015053      -1.75975013      -1.44570602       0.13311099      -0.00302157      -0.00183790       0.00249490
H       -1.78699759      -1.59977329      -1.10239408       0.13548493       0.00060269      -0.00030472      -0.00437404
H       -0.32877078       1.04883682       1.02344039       0.26185456      -0.00142715      -0.00469465      -0.00024096
H        1.84170148       0.03165212       1.59896153       0.07671680      -0.00089150       0.00362378       0.00284726
H        1.99055019       1.02140428       0.16645028       0.06890822      -0.00088315      -0.00175007       0.00301167
H        2.81951890      -1.91374082       0.39569836       0.11218797      -0.00268881      -0.00174284       0.00076488
H        2.95753265      -0.96936078      -1.06236044       0.09905513       0.00098571      -0.00071801       0.00130101
H        4.21076489       1.81526128      -0.36944414       0.08794766       0.00204001       0.00022952       0.00047562
H        5.90976946       1.33050659      -0.39068786       0.11610577      -0.00386616       0.00137701      -0.00480378
H        4.79023223       0.65889502      -1.58590364       0.09381787       0.00246101       0.00657814       0.00319967
H       -2.39058103       1.75139825       1.47376525       0.12718928       0.00417077       0.00043572      -0.00047082
H       -4.82623266       1.58727117       1.13762055       0.13451746       0.00800776       0.00138071       0.00037431
