25
Properties=species:S:1:pos:R:3:charge:R:1:forces:R:3 energy=-24950.520146594983 pbc="F F F"
O        0.27452268       0.74704881      -2.45229073      -0.57990563      -0.00278317       0.00414465      -0.00427809
C        0.70279747      -0.15753785      -1.70850393       0.31842059      -0.00134168      -0.00025098       0.00124298
C        1.93978206      -0.79886633      -1.79890498      -0.50660557       0.00037345       0.00368665       0.00262788
C        2.39211367      -1.85650769      -0.88298335      -0.10333396      -0.00201021      -0.00025138      -0.00084713
N       -0.12343602      -0.60047445      -0.61488636      -0.32150617      -0.00308486       0.00114374      -0.00314875
C       -1.19618001       0.04355347      -0.03543875       0.19857414       0.00195951       0.00245125       0.00126325
C       -1.88975529       1.10086003      -0.64436083      -0.13937949       0.00413008       0.00012873      -0.00463316
C       -2.97663746       1.67362630      -0.00364284      -0.17184713       0.00228043      -0.00416524      -0.00233041
C       -3.41303663       1.23117047       1.23913198      -0.20990244       0.00375395      -0.00236520      -0.00440765
C       -2.72799020       0.18563140       1.84484699      -0.18716608       0.00136545       0.00154029       0.00048070
C       -1.63933510      -0.39659676       1.22210334      -0.16878426       0.00546598       0.00259754       0.00310520
H        2.62581105      -0.39698275      -2.52926958       0.10655862       0.00111627       0.00217441      -0.00694373
H        1.65265737      -2.66113851      -0.78563486       0.07411862      -0.00617064       0.00516940       0.00138065
H        3.31570716      -2.32053723      -1.22681131       0.07698574      -0.00687319       0.00050228       0.00169942
H        0.34654627      -1.23986873       0.00716144       0.21694350       0.00228851      -0.00368607       0.00011340
H       -1.53461796       1.44005852      -1.60294911       0.12986465       0.00449634      -0.00272933      -0.00054725
H       -3.49614934       2.49139699      -0.48777605       0.11370511      -0.00019533      -0.00647864      -0.00021063
H       -4.26193929       1.69083244       1.72493212       0.11887131      -0.00091207      -0.00283435       0.00026022
H       -3.04133837      -0.17973734       2.81481558       0.11461630      -0.00118465       0.00295638       0.00500363
H       -1.10109005      -1.20047390       1.71048120       0.12051861      -0.00130246      -0.00029069       0.00020835
S        2.78056199      -1.41523688       0.92284962      -0.27970552      -0.00105377       0.00138325      -0.00006972
C        2.83222070       0.38105016       0.81676863      -0.18491654       0.00182559      -0.00186756      -0.00101734
H        3.01111652       0.77725550       1.81422305       0.09551825       0.00233213      -0.00126105       0.00182459
H        3.62823737       0.69412026       0.14800415       0.07916997      -0.00442046      -0.00107465       0.00171390
H        1.88625712       0.74976976       0.43570852       0.08918728      -0.00005458      -0.00062374       0.00750943
