20
Properties=species:S:1:pos:R:3:charge:R:1:forces:R:3 energy=-13025.509267554577 pbc="F F F"
C        4.11605105       0.31141412      -0.95263844      -0.27691969       0.00033515      -0.00001319      -0.00190679
C        3.12146199      -0.11830531      -0.19134562      -0.15190293       0.00113608       0.00289682       0.00198587
C        1.70323292       0.19916598      -0.54637973       0.44836825      -0.00410519      -0.00035567      -0.00357324
O        1.41620584       0.85312581      -1.52844110      -0.43435341      -0.00171264      -0.00051936      -0.00398143
N        0.78166990      -0.31136532       0.32913953      -0.36163306      -0.00123189      -0.00004904       0.00422016
C       -0.62411242      -0.20008857       0.28734072       0.12599787      -0.00147026      -0.00045138       0.00114128
C       -1.31011850       0.48145436      -0.71288998      -0.12450475       0.00199986       0.00065006      -0.00026594
C       -2.69595524       0.53671282      -0.66801360      -0.13596109       0.00204443       0.00051967       0.00302503
C       -3.40910966      -0.07316192       0.35205132      -0.15795465      -0.00192924       0.00331625      -0.00077223
C       -2.72066204      -0.75248745       1.34664724      -0.13873039      -0.00264314       0.00471889      -0.00227636
C       -1.33895186      -0.81485837       1.31403205      -0.16808505      -0.00057339      -0.00270740       0.00117519
H        3.90819627       0.89310423      -1.83924271       0.15899435      -0.00102702       0.00622914      -0.00274099
H        5.14800625       0.09618694      -0.71336206       0.14655195       0.00455541      -0.00379278      -0.00042921
H        3.31302102      -0.70495563       0.69934835       0.12167827       0.00025268      -0.00140721       0.00457514
H        1.13539484      -0.83241393       1.10999406       0.26807696       0.00013388      -0.00552537       0.00292842
H       -0.75874090       0.95483560      -1.50402257       0.14083050       0.00153514       0.00167285      -0.00240051
H       -3.22169899       1.06890635      -1.44803634       0.13522872       0.00329082      -0.00212132       0.00078968
H       -4.48769203      -0.01944198       0.37321747       0.13744676      -0.00517881      -0.00511135       0.00208947
H       -3.26049139      -1.23422347       2.14976743       0.13607241       0.00507679       0.00167931      -0.00348557
H       -0.80460907      -1.34567661       2.09208876       0.13079904      -0.00048833       0.00037093      -0.00009753
