20
Properties=species:S:1:pos:R:3:charge:R:1:forces:R:3 energy=-15727.62265833537 pbc="F F F"
O        1.94029385      -1.16074718       0.31659520      -0.42944694      -0.00657997       0.00405538      -0.00015686
C        1.81793337       0.01123146       0.02710797       0.43886325      -0.00345741       0.00052231      -0.00138174
C        2.99672737       0.90876122      -0.17929350      -0.15424506      -0.00746015      -0.00144677      -0.00095204
C        4.22924979       0.44302916      -0.04612069      -0.27309132      -0.00683112      -0.00252148       0.00211039
N        0.60890539       0.63648466      -0.14124848      -0.36019686       0.00165438       0.00183169      -0.00124493
C       -0.68413709       0.09152961      -0.02844323       0.13286850       0.00656091       0.00308154      -0.00325771
C       -0.93623420      -1.23971215       0.28779551      -0.13695160       0.00535760       0.00562984       0.00069063
C       -2.25154410      -1.67315052       0.37114455      -0.13646096       0.00266532      -0.00309016       0.00555562
C       -3.32191615      -0.82021156       0.15000872      -0.16644372       0.00424619      -0.00041314      -0.00572736
C       -3.03699763       0.49357820      -0.16140917       0.13042094       0.00478873       0.00269366      -0.00511149
F       -4.05260102       1.35194601      -0.38490233      -0.14463963      -0.00782235      -0.00093044       0.00332676
C       -1.74645388       0.96535203      -0.25489513      -0.17944884       0.00846340       0.00204100       0.00212978
H        2.81535733       1.94485059      -0.44023482       0.12273714       0.00730756      -0.00001072       0.00194545
H        4.39338825      -0.59312930       0.21407231       0.16032332      -0.00328802      -0.00426834       0.00040246
H        5.09410118       1.07555790      -0.19128842       0.14814426      -0.00643877      -0.00209768       0.00018098
H        0.63100113       1.61122658      -0.37853039       0.27041292      -0.00205537      -0.00227104       0.00070709
H       -0.11712549      -1.91080669       0.46261883       0.14135921       0.00204486       0.00566231      -0.00285078
H       -2.44421405      -2.70689384       0.61643963       0.13540062       0.00185737      -0.00831529       0.00177164
H       -4.34729484      -1.14940494       0.21191485       0.15484376      -0.00046710      -0.00156779       0.00286646
H       -1.57734069       2.00496855      -0.50207723       0.14555101      -0.00054575       0.00141522      -0.00100449
