26
Properties=species:S:1:pos:R:3:charge:R:1:forces:R:3 energy=-24966.46227437388 pbc="F F F"
C       -3.82968279      -1.27424513       0.24630347      -0.13403255      -0.00279039      -0.00124446      -0.00114601
C       -4.67548794      -0.24306197      -0.13141237      -0.16144085      -0.00170546      -0.00028547       0.00115293
C       -4.14238145       1.01586760      -0.36754314      -0.14086537      -0.00227423      -0.00146721       0.00250468
H       -4.78825227       1.83222893      -0.65855086       0.13450500       0.00834413      -0.00128497      -0.00458454
C       -2.78253440       1.23039144      -0.22887657      -0.15639344      -0.00255276       0.00321227       0.00331442
C       -1.93433616       0.19052876       0.14987561       0.14383417      -0.00608021      -0.00012696       0.00202992
N       -0.56462981       0.49631107       0.25992236      -0.36198997      -0.00003702      -0.00284873      -0.00079433
C        0.46722404      -0.30098013       0.67879204       0.41689762       0.00510079      -0.00632570      -0.00357920
O        0.33068801      -1.45241118       1.02895174      -0.42420188       0.00690566      -0.00195222       0.00676775
C        1.82084167       0.39325706       0.67826087      -0.13435340       0.00458014       0.00114822       0.00336495
C        2.91291452      -0.53864216       1.17084310      -0.10201244       0.00160926       0.00033297       0.00185014
S        4.54585440       0.23006582       1.21801432      -0.21014358      -0.00727683      -0.00085313      -0.00160086
C        4.95772487       0.16746418      -0.53928472      -0.20200600      -0.00067320      -0.00126768      -0.00103327
C       -2.46447587      -1.07394783       0.39157850      -0.11631630      -0.00136464      -0.00330543      -0.00463097
H       -4.23222811      -2.25926098       0.43517301       0.13311653      -0.00274320       0.00223428      -0.00133289
H       -5.73602520      -0.41670902      -0.23964917       0.13599515      -0.00089700       0.00538624       0.00093290
H       -2.36652208       2.21324398      -0.41043583       0.12721989       0.00472848      -0.00115188      -0.00367973
H       -0.32505398       1.43954320       0.01306834       0.26205704       0.00432491      -0.00283561       0.00209588
H        2.03016800       0.75243327      -0.33134434       0.06887218      -0.00228461      -0.00143271       0.00168812
H        1.76277357       1.27855499       1.31310074       0.07669033      -0.00274158       0.00453631       0.00135760
H        2.68870117      -0.86023203       2.18285334       0.11214496      -0.00277916       0.00095789      -0.00010671
H        2.94395854      -1.43551080       0.55792833       0.09905412      -0.00030347       0.00358284       0.00027432
H        4.31365403       0.81290061      -1.13156483       0.08796222       0.00408003       0.00341752       0.00362329
H        4.89200333      -0.85124486      -0.91384671       0.09388571      -0.00153347      -0.00051034      -0.00301778
H        5.98374301       0.51284474      -0.63674091       0.11603978      -0.00347833       0.00298339      -0.00577003
H       -1.81360804      -1.87609908       0.68726824       0.13548109       0.00184170      -0.00089978       0.00031912
