20
Properties=species:S:1:pos:R:3:charge:R:1:forces:R:3 energy=-13025.509275487258 pbc="F F F"
C        4.20183122       0.40947717       0.54441348      -0.27685571       0.00193345      -0.00044317       0.00143395
C        3.12156324      -0.17282527       0.04708582      -0.15202847      -0.00274589      -0.00037594       0.00276990
C        1.75788191       0.30342951       0.43685156       0.44833222      -0.00628647       0.00496421      -0.00235641
O        1.59460798       1.22645010       1.20880918      -0.43431866      -0.00317308      -0.00062833       0.00268432
N        0.73482948      -0.39077465      -0.15306641      -0.36166224      -0.00097876      -0.00409991       0.00061895
C       -0.65515115      -0.19850429      -0.00672140       0.12604940       0.00109154       0.00098376       0.00090024
C       -1.21235083       0.77792940       0.81290735      -0.12451675       0.00197658       0.00175726      -0.00313700
C       -2.59328758       0.89019727       0.89155461      -0.13594311       0.00232433      -0.00062189       0.00333623
C       -3.42752540       0.04982347       0.17107777      -0.15796722       0.00040387       0.00057614       0.00202360
C       -2.86682005      -0.92196566      -0.64485918      -0.13868929       0.00080946      -0.00140746       0.00140501
H       -3.50053385      -1.58667198      -1.21461114       0.13599490      -0.00525048       0.00113721       0.00084126
C       -1.49168782      -1.04490469      -0.73250768      -0.16810939       0.00296499       0.00154238       0.00129988
H        5.19695582       0.08384918       0.27600268       0.14658044       0.00696148      -0.00358661      -0.00058803
H        4.10336514       1.23240225       1.23778889       0.15895355       0.00075682       0.00552944       0.00089648
H        3.20219811      -1.00054448      -0.64770596       0.12177832      -0.00051196       0.00015950      -0.00158543
H        0.98923511      -1.13652876      -0.77391971       0.26806891       0.00012095      -0.00310602      -0.00570445
H       -0.56747414       1.43057371       1.37188918       0.14081022      -0.00054057      -0.00206933      -0.00067645
H       -3.01756579       1.65137831       1.53080151       0.13517250      -0.00162352      -0.00227425      -0.00255867
H       -4.50073856       0.14907525       0.24374406       0.13752180      -0.00022771       0.00150858      -0.00154276
H       -1.05823466      -1.80501106      -1.37041824       0.13082856       0.00199564       0.00045486      -0.00006061
