25
Properties=species:S:1:pos:R:3:charge:R:1:forces:R:3 energy=-24950.521383826468 pbc="F F F"
O        0.33391412       2.24583419      -1.18474419      -0.58011091       0.00191802      -0.00060385       0.00094039
C        0.82314463       1.09897253      -1.20624363       0.31769267      -0.00002086       0.00045706       0.00032662
C        2.13194938       0.75325323      -1.54911606      -0.50450307      -0.00194318       0.00110614      -0.00067569
C        2.64234916      -0.62483447      -1.56302608      -0.10415990      -0.00113614       0.00010197      -0.00026777
N       -0.00606940      -0.01374920      -0.82214328      -0.32058227       0.00179185      -0.00034714       0.00472079
C       -1.18949715       0.00313337      -0.11522468       0.19828366      -0.00174285       0.00158547      -0.00198516
C       -1.63941599      -1.19332204       0.46613069      -0.16787265       0.00096583       0.00234752      -0.00066129
C       -2.83487194      -1.24981502       1.15869278      -0.18724804      -0.00547532       0.00136117      -0.00010393
C       -3.62518287      -0.11612243       1.29814499      -0.20984365      -0.00010361       0.00243869      -0.00314080
C       -3.18298390       1.07139269       0.72782706      -0.17200728      -0.00472134      -0.00031887      -0.00750208
C       -1.98814401       1.14788018       0.03069032      -0.14001010       0.00223099      -0.00054763       0.00129085
H        2.80922825       1.57679281      -1.71927672       0.10652424      -0.00203397      -0.00037570       0.00261422
H        3.62947610      -0.68570218      -2.01891502       0.07697167       0.00044557      -0.00437875      -0.00264480
H        1.98898838      -1.29808115      -2.13134114       0.07415452      -0.00058493      -0.00142534      -0.00355329
H        0.50262502      -0.88020901      -0.73729029       0.21675734       0.00336826      -0.00261233      -0.00259073
H       -1.02457246      -2.08091314       0.37312346       0.12079135       0.00332712       0.00163098       0.00199812
H       -3.15097835      -2.18905691       1.59536323       0.11453898       0.00055625       0.00008313       0.00294355
H       -4.55989395      -0.15773971       1.83912348       0.11876305       0.00273077       0.00154289      -0.00030131
H       -1.62557994       2.06334363      -0.40615624       0.12971409      -0.00740414      -0.00035856       0.00396341
H       -3.78600283       1.96530993       0.82978200       0.11368668       0.00426207      -0.00356389       0.00133940
S        2.87300263      -1.54888430       0.08202535      -0.27952215       0.00278829       0.00248450       0.00016201
C        2.73731384      -0.18017579       1.24268321      -0.18477486      -0.00278519       0.00345332      -0.00182043
H        2.82038619      -0.57661404       2.25270556       0.09541143       0.00165506      -0.00314927      -0.00354207
H        1.77902370       0.31078225       1.11526941       0.08838794      -0.00189465      -0.00413514       0.00505857
H        3.52861171       0.54095455       1.06379501       0.07895745       0.00380659       0.00322422       0.00343169
