29
Properties=species:S:1:pos:R:3:charge:R:1:forces:R:3 energy=-26037.061418142108 pbc="F F F"
C       -1.47509670      -0.58739665      -0.83314627      -0.16417673       0.00214946      -0.00135330       0.00593778
C       -2.84078759      -0.79273950      -0.81584605      -0.15664628       0.00041948       0.00075041      -0.00362656
C       -3.64949378      -0.15909123       0.12386398       0.02989242      -0.00001564      -0.00147453      -0.00092687
C       -5.13352425      -0.40131336       0.14596511      -0.22162168      -0.00049405       0.00094339       0.00041665
C       -3.03877037       0.69026108       1.03547324      -0.14683707      -0.00005543       0.00061992      -0.00107312
C       -1.66813479       0.91015000       1.03638677      -0.12868758       0.00108043      -0.00100705       0.00150700
C       -0.87688561       0.26138412       0.09700066       0.12701818       0.00419964       0.00242809       0.00175842
N        0.52418926       0.42277668       0.01223535      -0.32014441       0.00426918      -0.00273463       0.00201817
C        1.36473200       1.01150295       0.90882099       0.41257668       0.00178989       0.00703573      -0.00311110
O        1.00622089       1.52381188       1.94885859      -0.44841942       0.00176197      -0.00407796       0.00197496
C        2.83734557       0.95080466       0.52206281      -0.14016996      -0.00080867       0.00204587       0.00030427
C        3.41945524      -0.46404635       0.59670773      -0.11847679       0.00171143       0.00219760       0.00211610
S        3.11531634      -1.51744094      -0.84813772      -0.17962036      -0.00899268      -0.00237220       0.00207913
C        4.13133003      -0.65587847      -2.06311013      -0.18259208      -0.00378448       0.00071308      -0.00067348
H       -0.86203333      -1.09221200      -1.56890300       0.12787576       0.00055440       0.00200971       0.00368312
H       -3.29040236      -1.45656933      -1.54273112       0.12766497       0.00198392      -0.00589315      -0.00163216
H       -5.35483134      -1.44678579       0.35786096       0.07930486      -0.00233827       0.00142940      -0.00173858
H       -5.58361959      -0.16118938      -0.81618047       0.07914188      -0.00082447       0.00052907       0.00115181
H       -5.61417032       0.20649943       0.90836671       0.07686433      -0.00475967       0.00325762      -0.00396916
H       -3.64724181       1.19704121       1.77239196       0.12739424      -0.00126419      -0.00129453       0.00063180
H       -1.21557592       1.56813278       1.75592540       0.13534193      -0.00479770       0.00097268       0.00241715
H        0.96758097      -0.09617702      -0.73391684       0.22640876       0.00506148      -0.00425008       0.00269375
H        2.97807444       1.36377099      -0.47556009       0.06551042      -0.00283250      -0.00611255      -0.00020864
H        3.36436091       1.57934394       1.23187987       0.09565735       0.00005930       0.00253167      -0.00349470
H        4.49756880      -0.41029148       0.72694536       0.09324221       0.00472596      -0.00187171      -0.00111722
H        3.01531671      -0.98688489       1.45979009       0.11139006      -0.00197788      -0.00183285      -0.00265427
H        3.71860735       0.31638218      -2.31807652       0.08047360      -0.00276412       0.00822054      -0.00142998
H        5.14524288      -0.53020360      -1.69429824       0.09307741       0.00316904       0.00092981      -0.00157772
H        4.15666639      -1.27046663      -2.95855627       0.11855735       0.00277489      -0.00234033      -0.00145712
