20
Properties=species:S:1:pos:R:3:charge:R:1:forces:R:3 energy=-13025.50928133939 pbc="F F F"
C        4.20706205       0.35917235       0.24353212      -0.27694657      -0.00182852       0.00059535      -0.00411158
C        3.11959367      -0.27024664      -0.17459662      -0.15191677      -0.00363279      -0.00128269       0.00146832
C        1.76105247       0.23091386       0.20224894       0.44833219      -0.00615831       0.00298546       0.00238683
O        1.60789278       1.21785954       0.89293807      -0.43426290      -0.00027846       0.00011154       0.00025311
N        0.73036113      -0.51931399      -0.29964908      -0.36180416      -0.00029986       0.00007070       0.00439731
C       -0.65769741      -0.32353640      -0.13741970       0.12605850       0.00610814      -0.00263133      -0.00538743
C       -1.20319146       0.71930936       0.60461474      -0.12448806       0.00777253      -0.00068646      -0.00431339
C       -2.58258700       0.83073860       0.70567007      -0.13594921       0.00445665      -0.00077961       0.00073385
C       -3.42663091      -0.07548739       0.08337502      -0.15795152      -0.00153859       0.00109486       0.00476655
H       -4.49832715       0.02433956       0.17246653       0.13746640      -0.00909893       0.00062896      -0.00188704
C       -2.87810425      -1.11394769      -0.65485605      -0.13870254       0.00148460      -0.00047249       0.00223252
C       -1.50439650      -1.23660088      -0.76413807      -0.16812609       0.00506075       0.00022762       0.00237138
H        4.11936514       1.24119453       0.86174417       0.15902047       0.00176616       0.00135307       0.00113975
H        5.19773550       0.01450345      -0.01830843       0.14652854       0.00180182       0.00150067       0.00387122
H        3.19086782      -1.15606876      -0.79468027       0.12169018      -0.00178763      -0.00253419      -0.00230985
H        0.97723268      -1.31566126      -0.85750193       0.26812676      -0.00570292      -0.00478596      -0.00596205
H       -0.55030942       1.42260855       1.08753593       0.14083308       0.00023375       0.00129292       0.00082701
H       -2.99776711       1.64395699       1.28366690       0.13521977      -0.00334756       0.00028473       0.00053441
H       -3.52098577      -1.83054057      -1.14625176       0.13603556       0.00279887       0.00153617      -0.00086225
H       -1.08006710      -2.04877646      -1.34113675       0.13083650       0.00219033       0.00149073      -0.00014832
