26
Properties=species:S:1:pos:R:3:charge:R:1:forces:R:3 energy=-24966.512254130008 pbc="F F F"
C       -3.47336279       1.23767508       0.87509288      -0.14052361      -0.00130077       0.00115058      -0.00068454
C       -3.77953156       0.03632792       1.49757829      -0.15990387       0.00044975      -0.00092048       0.00135021
C       -2.89511112      -1.02522169       1.39108726      -0.13387260       0.00140639      -0.00162060      -0.00207300
H       -3.12459022      -1.96606488       1.87046423       0.13376282       0.00496090      -0.00412361      -0.00072620
C       -1.71188653      -0.90984451       0.67384917      -0.10861744      -0.00160221       0.00297114      -0.00390493
C       -1.40901005       0.29734923       0.05395694       0.14326353      -0.00035928       0.00108762      -0.00107381
N       -0.21427469       0.51806057      -0.66879444      -0.36201248      -0.00194431      -0.00406525      -0.00004652
C        0.67989681      -0.40255319      -1.13748744       0.41348034       0.00393254      -0.00175720       0.00806127
O        0.58472169      -1.59745037      -0.94419982      -0.42399520      -0.00100133       0.00223140      -0.00602506
C        1.83180305       0.18205557      -1.93261779      -0.14778322      -0.00235537       0.00281181       0.00075615
C        3.17864130      -0.37553605      -1.48618796      -0.11548853      -0.00267405       0.00235415       0.00197830
S        3.87414970       0.40258217      -0.00592640      -0.20327193       0.00029913      -0.00025419      -0.00024803
C        2.71930260      -0.23828411       1.22372416      -0.18677518       0.00054496       0.00340900      -0.00092680
C       -2.29504407       1.36741299       0.16115429      -0.15444355      -0.00109232       0.00046642      -0.00080707
H       -4.15429151       2.07333786       0.94598603       0.13491426       0.00391473       0.00790362       0.00044886
H       -4.69714684      -0.06922574       2.05769608       0.13570434      -0.00157014      -0.00176124      -0.00059929
H       -1.03259457      -1.73915117       0.58626869       0.13025722      -0.00641743       0.00142464      -0.00258951
H       -0.02892576       1.47673794      -0.89958672       0.25527048      -0.00476462      -0.00733715       0.00474698
H        1.83485305       1.27034138      -1.89580656       0.07212796      -0.00284451       0.00326508      -0.00293832
H        1.65859634      -0.12263427      -2.96489755       0.09093799       0.00310582      -0.00471048       0.00059665
H        3.91880312      -0.20374369      -2.26520871       0.10608089      -0.00372634      -0.00771188      -0.00006192
H        3.09681351      -1.44900321      -1.32921835       0.10105679       0.00684631       0.00238763      -0.00251722
H        1.78810168       0.31724733       1.20533446       0.07507540      -0.00379065       0.00124467       0.00793085
H        3.18516036      -0.11006546       2.19715138       0.12123062       0.00578972       0.00314107       0.00016570
H        2.51625943      -1.29140397       1.05893225       0.09530752       0.00081281      -0.00121510      -0.00181362
H       -2.05629730       2.30434155      -0.32678177       0.12821741       0.00338059      -0.00037120       0.00100162
