26
Properties=species:S:1:pos:R:3:charge:R:1:forces:R:3 energy=-24966.503788914466 pbc="F F F"
C       -4.18265963       0.24094939       0.96928267      -0.16123742      -0.00001090      -0.00039033       0.00605357
C       -3.76116025      -0.99189015       0.49643974      -0.13957863      -0.00290976       0.00424872      -0.00587441
C       -2.45387130      -1.19770157       0.07877871      -0.11635179      -0.00062567      -0.00099299       0.00578866
C       -1.54815563      -0.14340476       0.13917435       0.13778296      -0.00273201       0.00212487      -0.00389519
N       -0.20357746      -0.24893095      -0.27137440      -0.32189617       0.00153909       0.00219132       0.00175457
C        0.51523107      -1.37627005      -0.54412530       0.40973899       0.00228324       0.00149263       0.00413261
O        0.06506435      -2.50144244      -0.49394343      -0.44748914      -0.00154987      -0.00430650      -0.00017305
C        1.97528242      -1.11843263      -0.89622520      -0.14136769       0.00314516      -0.00006102       0.00052541
C        2.79834321      -0.57476811       0.27700787      -0.11845927      -0.00069720      -0.00071094       0.00015459
S        2.71215858       1.21785375       0.53540117      -0.17945114       0.00384691      -0.00679928       0.00408691
C        3.58392494       1.76821366      -0.94364855      -0.18255509      -0.00556085      -0.00036341       0.00314287
C       -1.96862113       1.10025658       0.60982667      -0.15108238       0.00023289       0.00028770       0.00488332
H       -1.26468766       1.92146633       0.65671994       0.12788616       0.00537851      -0.00265236      -0.00100210
C       -3.27472824       1.28912577       1.02372021      -0.14549595      -0.00148144      -0.00020281      -0.00449786
H       -5.20259380       0.38471710       1.29351497       0.13597858      -0.00187019      -0.00167731      -0.00400753
H       -4.45695709      -1.81727453       0.44999366       0.13379888       0.00052631       0.00349587      -0.00164369
H       -2.13068473      -2.15745189      -0.28231990       0.13722102       0.00183988      -0.00171443       0.00426088
H        0.32168817       0.61362328      -0.22834837       0.22622640       0.00471826       0.00289976       0.00493129
H        2.03460547      -0.43664841      -1.74296188       0.06625636       0.00267088       0.00204033       0.00052328
H        2.38995710      -2.07432964      -1.19665200       0.09626522       0.00063187      -0.00278518      -0.00018302
H        3.84782670      -0.82018300       0.13247397       0.09416489      -0.00285845      -0.00032938      -0.00212839
H        2.48353377      -1.04393465       1.20551755       0.11090260      -0.00591552      -0.00335815      -0.00286318
H        3.00148372       1.59112043      -1.84371955       0.08145459      -0.00420114       0.00115258      -0.00756443
H        4.54298498       1.26569036      -1.03120036       0.09307059       0.00415390       0.00298138      -0.00225390
H        3.75556349       2.83582740      -0.84118373       0.11916801      -0.00374111       0.00633060      -0.00143003
H       -3.58491614       2.25710830       1.39055509       0.13504939       0.00318695      -0.00290175      -0.00272111
