23
Properties=species:S:1:pos:R:3:charge:R:1:forces:R:3 energy=-22202.962778600435 pbc="F F F"
O       -2.16204114       1.77485909      -1.20177730      -0.44633386       0.00008605      -0.00313171       0.00049821
C       -2.45872591       0.70177107      -0.72165914       0.45523897       0.00283653      -0.00178749       0.00160357
C       -3.89286085       0.27036083      -0.65740667      -0.15200943      -0.00280165       0.00599888       0.00229507
C       -4.39388306      -0.65322625       0.15092574      -0.27349368      -0.00001096       0.00167299       0.00154393
N       -1.55359031      -0.20058480      -0.21970282      -0.33117884       0.00672620      -0.00050029      -0.00109509
C       -0.15886027      -0.06628225      -0.11410029       0.10622914       0.00535050       0.00012696       0.00598632
C        0.51409387       1.13275184      -0.32483117      -0.10730160       0.00482284      -0.00281747      -0.00165801
C        1.89164242       1.17586115      -0.17761089      -0.12325170      -0.00076194       0.00306300      -0.00097206
C        2.60841471       0.04329002       0.17558685       0.00479031      -0.00578177       0.00337844       0.00491290
C        4.09521334       0.11915508       0.38967224       0.31907204      -0.00088841       0.00126955       0.00168034
F        4.70883575      -1.04221617       0.09353287      -0.13441268      -0.00382357       0.00451574       0.00166026
F        4.40421035       0.39984036       1.67378675      -0.13964479       0.00777554      -0.00120478       0.00040749
F        4.66639741       1.07657198      -0.36158881      -0.13275501      -0.00453180       0.00161110      -0.00207030
C        1.93585716      -1.15275664       0.38623460      -0.12858303       0.00041829      -0.00106127       0.00283199
C        0.56301396      -1.20224014       0.24521801      -0.15574946       0.00204815      -0.00386892      -0.00323942
H       -4.52308893       0.83848700      -1.32493582       0.12935486      -0.00289024       0.00158193      -0.00517369
H       -3.78223244      -1.18066223       0.87030401       0.13743593      -0.00778459      -0.00331171       0.00013101
H       -5.44625885      -0.89679530       0.14838382       0.15352097       0.00352534       0.00337333       0.00043837
H       -1.90954013      -1.11861028      -0.02720495       0.25730848      -0.00407933       0.00225643       0.00007706
H       -0.03766869       2.01251392      -0.60103220       0.14410536      -0.00056871      -0.00637648       0.00059481
H        2.40546379       2.10985789      -0.34635248       0.14290026      -0.00277165      -0.00277263      -0.00354837
H        2.47923944      -2.04530776       0.65678904       0.14319821       0.00142779       0.00116769      -0.00072613
H        0.03999360      -2.13348068       0.41637569       0.13155954       0.00167726      -0.00318282      -0.00617896
