35
Properties=species:S:1:pos:R:3:charge:R:1:forces:R:3 energy=-31242.41413571272 pbc="F F F"
O        0.27845660       1.61405537      -0.13864645      -0.38361028      -0.00020648       0.00047932      -0.00301928
C        1.05540002       1.19180895       0.73995272       0.23200552      -0.00196189      -0.00164521       0.00308146
C        2.40112311       1.47285162       0.91343995      -0.49995944      -0.00425199      -0.00117956      -0.00250315
C        3.12100303       2.32595312      -0.04752481      -0.12381938      -0.00170184      -0.00087338       0.00211201
N        0.49514478       0.27330501       1.72004858      -0.41644144      -0.00280639       0.00288405       0.00497595
C       -0.88371565       0.15143274       1.85458443       0.15478788      -0.00143342       0.00107104       0.00075455
C       -1.49257092       0.48065989       3.06818133      -0.19208999      -0.00035212       0.00057158       0.00240743
C       -2.86080042       0.38286941       3.23980479      -0.18533300       0.00068646      -0.00089996      -0.00056409
C       -3.65756771      -0.06472428       2.19486059      -0.19771799      -0.00130649      -0.00229524      -0.00056127
C       -3.05527087      -0.41790486       0.99643850      -0.16941826      -0.00047189      -0.00115537      -0.00210436
C       -1.68072242      -0.34626877       0.80506169       0.07398995       0.00089144      -0.00295669       0.00152002
C       -1.09862848      -0.86430309      -0.46022288       0.08062081       0.00260368       0.00354999      -0.00055273
C        0.02951747      -1.68424730      -0.44801015      -0.10905213       0.00041385       0.00138211      -0.00183608
C        0.50222276      -2.25869079      -1.61559475      -0.16242671      -0.00100982      -0.00142407       0.00174817
C       -0.12174205      -2.00021176      -2.82584867      -0.18388189       0.00124489      -0.00032894       0.00140008
C       -1.22084454      -1.15340102      -2.85645499      -0.17427695       0.00137660       0.00098257       0.00215361
C       -1.70495336      -0.59475622      -1.68558201      -0.14864130       0.00447239       0.00489287      -0.00008323
H        2.98234649       0.89930044       1.62603522       0.11526142       0.00050162      -0.00795397      -0.00114751
H        3.85881553       2.98677183       0.41334937       0.08213355       0.00014239       0.00221818       0.00177314
H        2.42396785       2.94052423      -0.62408806       0.08646476       0.00049873       0.00000217      -0.00426536
H        0.99238234       0.35650121       2.58990410       0.24946627      -0.00010306       0.00056340       0.00532804
H       -0.86741126       0.84562767       3.87475951       0.11454996       0.00561969       0.00055485      -0.00087799
H       -3.30830370       0.66154839       4.18626306       0.12212467      -0.00099915       0.00337284      -0.00182340
H       -4.73047145      -0.13934180       2.30802918       0.12370797      -0.00253994      -0.00152491       0.00295523
H       -3.67215276      -0.78794472       0.18817355       0.10804842      -0.00206553      -0.00226062      -0.00228228
H        0.54918828      -1.81936643       0.48767872       0.11221358       0.00422399      -0.00013509      -0.00604340
H        1.37779376      -2.89379771      -1.58700108       0.11515776       0.00094902       0.00179101       0.00563008
H        0.26027020      -2.43368456      -3.73946377       0.12179644       0.00252470       0.00342956       0.00180413
H       -1.69683340      -0.92208608      -3.80119000       0.12208240      -0.00007979       0.00212252       0.00219348
H       -2.55330562       0.07366381      -1.72416699       0.11902148      -0.00095354      -0.00025586      -0.00036704
S        4.12527967       1.40239607      -1.31961313      -0.29889724       0.00006817      -0.00421754       0.00141517
C        2.74780718       0.46465140      -2.00096581      -0.19244140      -0.00073700       0.00451624      -0.00240792
H        3.09991049      -0.09531603      -2.86219199       0.09636147       0.00093358      -0.00434855      -0.00318438
H        1.93050193       1.11932143      -2.29399328       0.10381332      -0.00270740      -0.00172201      -0.00466044
H        2.36377112      -0.22399278      -1.25494808       0.10439987      -0.00146486       0.00079250      -0.00296885
