35
Properties=species:S:1:pos:R:3:charge:R:1:forces:R:3 energy=-31242.457059926375 pbc="F F F"
O        2.58844924      -2.06594493      -1.75209138      -0.55625755       0.00203072       0.00299479      -0.00161325
C        3.05269595      -0.92839930      -1.53711399       0.29786548       0.00082112       0.00109827      -0.00280712
C        4.38801803      -0.53719856      -1.65287841      -0.51837075       0.00189413       0.00014985       0.00242125
C        4.87467238       0.82472342      -1.40509625      -0.10863739      -0.00160713       0.00095723      -0.00170991
N        2.15484082       0.10606364      -1.09399460      -0.31092316       0.00023268      -0.00398384       0.00048521
C        0.84717360      -0.01523772      -0.69092747       0.15600893      -0.00194011       0.00282337      -0.00496755
C        0.26375494       1.03601197       0.03924141      -0.18434332       0.00048506       0.00103636      -0.00072019
C       -1.05991843       0.98767955       0.42726615      -0.17191827       0.00021339       0.00010815      -0.00001623
C       -1.86577113      -0.10058794       0.09829697       0.00743040       0.00131081      -0.00231743       0.00372824
C       -3.28981668      -0.14967541       0.50149402       0.08245438      -0.00103108       0.00476560      -0.00044266
C       -4.28029090      -0.55198702      -0.39590292      -0.14147343       0.00287984      -0.00219397       0.00076643
C       -5.61353941      -0.59031594      -0.02159525      -0.15847637       0.00286601       0.00328625       0.00241413
C       -5.99052020      -0.24094187       1.26722650      -0.16813417       0.00265309      -0.00145803       0.00177739
C       -5.01632718       0.15379541       2.17260660      -0.15795514      -0.00155759      -0.00318156       0.00213085
C       -3.68512275       0.20558169       1.79158086      -0.14066720      -0.00413004       0.00259537      -0.00231604
C       -1.28439171      -1.14346170      -0.62029706      -0.15330768      -0.00248438      -0.00085795      -0.00460725
C        0.04398003      -1.12448168      -1.00371811      -0.14357910      -0.00029633       0.00028501      -0.00009408
H        5.08457952      -1.33049848      -1.87880937       0.11142263       0.00072443      -0.00096508      -0.00098598
H        4.28639966       1.57889542      -1.94239826       0.07861992       0.00090876       0.00076444      -0.00081015
H        5.91152388       0.95307521      -1.71626301       0.08485826      -0.00297897       0.00312920       0.00261252
H        2.61942754       0.94167747      -0.77333859       0.22137100      -0.00092776      -0.00308450       0.00080648
H        0.87801842       1.88648920       0.30837590       0.11990124      -0.00106636       0.00279427      -0.00344419
H       -1.48336730       1.81823749       0.97801229       0.10736604       0.00077739      -0.00020787       0.00317291
H       -4.00057166      -0.82591663      -1.40348728       0.11160586       0.00114539      -0.00031907      -0.00031110
H       -6.36026103      -0.89909695      -0.73992371       0.11948776       0.00614329       0.00075409       0.00340637
H       -7.03022268      -0.27725353       1.56261621       0.12389163       0.00349322       0.00135151      -0.00141697
H       -5.29333470       0.42547400       3.18159757       0.11947533       0.00189803       0.00377972      -0.00041430
H       -2.93609324       0.51396583       2.50778544       0.11108548      -0.00538879      -0.00184811      -0.00292441
H       -1.88729090      -2.00782992      -0.86662586       0.10930160      -0.00241801      -0.00531979      -0.00041490
H        0.50259677      -1.93658901      -1.54059141       0.12921128       0.00072311      -0.00160976       0.00241783
S        4.87064252       1.49967478       0.37177936      -0.25717738      -0.00386122      -0.00415410       0.00193108
C        4.70143287      -0.03675848       1.29606829      -0.18621102       0.00619030       0.00149258      -0.00478463
H        4.65730114       0.20620210       2.35637480       0.10162771      -0.00474191      -0.00169371       0.00504880
H        3.79113410      -0.54383696       0.99164344       0.08220892      -0.00264145      -0.00205512       0.00209108
H        5.54980869      -0.68712671       1.10414205       0.08223813      -0.00031957       0.00108393      -0.00041031
