31
Properties=species:S:1:pos:R:3:charge:R:1:forces:R:3 energy=-31155.924034429925 pbc="F F F"
O       -1.51015860       2.54195527       0.52640865      -0.55175149       0.00119600       0.00157545      -0.00381526
C       -2.12376600       1.68226936      -0.13566262       0.29957876       0.00310923      -0.00097369      -0.00200540
C       -3.44558034       1.74902287      -0.56608764      -0.49958834       0.00341588       0.00105956      -0.00241199
C       -4.12207756       0.71884719      -1.37208500      -0.10961957       0.00136802       0.00103322       0.00219197
N       -1.41872420       0.47198932      -0.49254759      -0.31048691       0.00111775      -0.00028183       0.00014846
C       -0.11598053       0.14462024      -0.27772717       0.15687631      -0.00093228      -0.00152878      -0.00169749
C        0.85851764       1.07097112       0.14369936      -0.12953834      -0.00508642      -0.00065215      -0.00222960
C        2.17060370       0.67224462       0.28704961      -0.14613970      -0.00667864      -0.00079127       0.00411895
C        2.56963857      -0.64296245       0.03896939      -0.00517839      -0.00262935       0.00260514      -0.00479340
C        3.95515850      -1.10681931       0.16638769       0.49027544      -0.00331665      -0.00139538      -0.00291150
O        4.82298816      -0.12062488       0.51684749      -0.28388309      -0.00372581      -0.00327607      -0.00175183
C        6.18273734      -0.52424235       0.62006859      -0.08436806      -0.00538113       0.00133819       0.00178567
O        4.33632793      -2.24304090      -0.01732154      -0.50664908      -0.00118203       0.00006746      -0.00667977
C        1.60079372      -1.56589390      -0.35957623      -0.15227604       0.00173009      -0.00019689      -0.00392365
C        0.29239221      -1.18692759      -0.51630034      -0.20037332       0.00122985      -0.00008589       0.00797667
H       -3.98901135       2.62240838      -0.23556994       0.11007234      -0.00116103      -0.00121915      -0.00329001
H       -5.09146731       1.06196375      -1.73702976       0.08227216       0.00230061       0.00244260       0.00024739
H       -3.53518347       0.42889050      -2.25095602       0.08053283       0.00204033       0.00208529       0.00226801
H       -2.00831714      -0.28699333      -0.79838834       0.22738059      -0.00105915       0.00380230      -0.00246894
H        0.54245714       2.07899286       0.34902304       0.12960732      -0.00226552      -0.00222129       0.00020419
H        2.90335698       1.40056364       0.60192458       0.11203835       0.00192531      -0.00692425      -0.00201238
H        6.29727042      -1.30319038       1.37142701       0.07808822       0.00233081       0.00472612      -0.00033040
H        6.54399203      -0.90432167      -0.33393835       0.07753077       0.00169961       0.00109808       0.00827988
H        6.73868252       0.36271757       0.90702584       0.07844371      -0.00514743      -0.00171681       0.00085174
H        1.90116707      -2.58727409      -0.54518978       0.11676189       0.00269232      -0.00159891       0.00140092
H       -0.44860784      -1.91420303      -0.82149640       0.11664238       0.00348140       0.00632548       0.00062335
S       -4.51592754      -0.95573297      -0.58623746      -0.25056142      -0.00105540       0.00066872       0.00450417
C       -4.80722321      -0.41876889       1.10884471      -0.19414485       0.00502038      -0.00317377      -0.00337210
H       -5.04560080      -1.29698892       1.70788212       0.10166512       0.00187847      -0.00603111       0.00420993
H       -5.63632939       0.28391606       1.15632928       0.07864857       0.00248695       0.00046140      -0.00288214
H       -3.90643634       0.05737975       1.48567666       0.08814395       0.00059761       0.00277900       0.00776441
