32
Properties=species:S:1:pos:R:3:charge:R:1:forces:R:3 energy=-31171.664075754863 pbc="F F F"
C        2.47098496      -0.26888035      -0.72214475      -0.12302953       0.00430065       0.00058500       0.00185494
C        1.11205120      -0.48219247      -0.55700568      -0.10853527       0.00128522      -0.00068580       0.00016849
C        0.41914894       0.24879873       0.40550473       0.11830109      -0.00341947      -0.00155822      -0.00230838
N       -0.95513919       0.11257491       0.64749795      -0.36269414      -0.00447240      -0.00012104       0.00014392
C       -1.85752988      -0.75365631       0.08336792       0.41139457      -0.00049638      -0.00340318      -0.00266862
O       -1.56807441      -1.56479953      -0.76667459      -0.41714776       0.00452036      -0.00241322       0.00022502
C       -3.26540584      -0.60834344       0.63752714      -0.13193801      -0.00005334      -0.00202577      -0.00184495
C       -4.20933502      -1.61615786       0.01053383      -0.10767898       0.00024841      -0.00561555      -0.00156167
S       -5.90038940      -1.49181642       0.62887323      -0.20487660      -0.00168791       0.00138614      -0.00391030
C       -6.46440410      -0.06504897      -0.32435173      -0.20350157      -0.00043625       0.00259905       0.00015935
C        1.10080892       1.18164913       1.18921652      -0.16513598      -0.00331948      -0.00356649       0.00148039
C        2.45303824       1.38257696       1.01458688      -0.12102170      -0.00309392       0.00611316       0.00430593
C        3.15292036       0.65916692       0.05316267       0.00957690      -0.00031730       0.00323978       0.00702296
C        4.61016036       0.92433283      -0.09266550       0.45866680      -0.00101726       0.00101384      -0.00208383
O        5.21884063       1.72656481       0.57139469      -0.45179734      -0.00138509      -0.00116789       0.00129765
O        5.18241216       0.17261589      -1.04934164      -0.26047245      -0.00341585      -0.00473584      -0.00280322
C        6.58592367       0.38603208      -1.23802410      -0.08661022      -0.00107396      -0.00315474      -0.00100469
H        3.00483160      -0.83698380      -1.46629747       0.12625155       0.00078044       0.00047771      -0.00590189
H        0.59477961      -1.20244725      -1.16216972       0.13619407       0.00199265      -0.00214568      -0.00321125
H       -1.32163375       0.72578518       1.35327350       0.26500165      -0.00075487       0.00213274      -0.00027244
H       -3.60514487       0.41492564       0.46214361       0.07033929       0.00248880       0.00116463       0.00505584
H       -3.23070077      -0.73885752       1.72048113       0.07904943       0.00032435       0.00224793      -0.00134233
H       -4.20341412      -1.51108994      -1.07081380       0.10115808       0.00606464      -0.00208871      -0.00197554
H       -3.86906141      -2.62316614       0.22937035       0.11492730       0.00291943      -0.00589884       0.00394225
H       -5.94630521       0.84687663      -0.03818576       0.08960485      -0.00228173       0.00277464       0.00023843
H       -7.52412997       0.05618478      -0.11589687       0.11857028       0.00062904       0.00195693       0.00343984
H       -6.33280419      -0.23743864      -1.38988365       0.09561181       0.00010929       0.00464960       0.00068866
H        0.56064355       1.74517770       1.93815161       0.13010113       0.00337735       0.00136467      -0.00144135
H        2.98997612       2.09919320       1.61664127       0.13581860       0.00232367       0.00749602       0.00161530
H        6.77661149       1.41767610      -1.52263163       0.09339117      -0.00168568      -0.00090237       0.00208843
H        7.12861414       0.16424707      -0.32272278       0.09344385      -0.00180521       0.00180925       0.00219260
H        6.88414876      -0.28985648      -2.03116139       0.09703723      -0.00064857      -0.00152804      -0.00358885
