26
Properties=species:S:1:pos:R:3:charge:R:1:forces:R:3 energy=-24966.462439297957 pbc="F F F"
C       -4.67113853      -0.42642515      -0.06770225      -0.16135210      -0.00078501      -0.00129844      -0.00158817
C       -3.81975883      -1.17193898       0.73286426      -0.13401861       0.00097439       0.00432084       0.00266902
C       -2.45728229      -0.91297253       0.77771773      -0.11636102       0.00158871      -0.00074910      -0.00339644
C       -1.93585590       0.11612991      -0.00175103       0.14367494      -0.00154608      -0.00110987      -0.00422692
N       -0.56922453       0.45268780      -0.03723268      -0.36192697      -0.00167341      -0.00213588       0.00421022
C        0.46659790      -0.05805528       0.69941561       0.41709414       0.00034503       0.00122937       0.00381695
O        0.33902006      -0.93107594       1.52923484      -0.42432317      -0.00058936       0.00183082      -0.00112252
C        1.81236339       0.58176112       0.39298653      -0.13433613       0.00121031       0.00172370       0.00048848
C        2.91028849      -0.01757309       1.25248511      -0.10207564      -0.00049801       0.00284814      -0.00040488
S        4.53347591       0.71636045       0.95972532      -0.21019761      -0.00149110      -0.00133973       0.00197786
C        4.96326557      -0.11144700      -0.58673120      -0.20199941      -0.00077158       0.00132145      -0.00154121
C       -2.78960301       0.86793998      -0.80824514      -0.15625684      -0.00176099       0.00036374       0.00050015
H       -2.37998462       1.66948278      -1.40988883       0.12718393       0.00318874      -0.00403476       0.00065930
C       -4.14656663       0.59945580      -0.84066171      -0.14084728       0.00098767      -0.00499167      -0.00098841
H       -5.72952104      -0.64074632      -0.08967872       0.13597928      -0.00086518       0.00302549      -0.00252137
H       -4.21573230      -1.97344569       1.34019780       0.13313815      -0.00153723       0.00351368      -0.00201792
H       -1.80151600      -1.49089523       1.40275748       0.13547933      -0.00044082      -0.00221738       0.00000796
H       -0.33602238       1.18839861      -0.67959036       0.26191354       0.00170027      -0.00597074       0.00592169
H        1.73785594       1.65652538       0.56557184       0.07672665       0.00191707      -0.00053201       0.00079120
H        2.02638385       0.45531733      -0.67011813       0.06884442      -0.00170179       0.00149119      -0.00054248
H        2.95768329      -1.09272400       1.10110773       0.09901342       0.00162614       0.00314179       0.00320977
H        2.67984273       0.14036049       2.30119808       0.11220294      -0.00409857      -0.00076251      -0.00162189
H        5.98798139       0.16569899      -0.82048718       0.11605587      -0.00143532      -0.00239621      -0.00285442
H        4.32190371       0.20142129      -1.40692672       0.08805568      -0.00132715      -0.00072582      -0.00090639
H        4.90698668      -1.19160707      -0.47385137       0.09380471      -0.00083457       0.00322279      -0.00449544
H       -4.79640732       1.19065285      -1.47042207       0.13452788       0.00781828       0.00023045       0.00397527
