20
Properties=species:S:1:pos:R:3:charge:R:1:forces:R:3 energy=-13025.509262403899 pbc="F F F"
C        4.05917269       0.75843226       1.08299381      -0.27691415       0.00085368       0.00346373      -0.00055730
C        3.11236491       0.24520775       0.31259306      -0.15192981      -0.00164038      -0.00242483       0.00152864
C        1.66988756       0.40661926       0.67543477       0.44842818      -0.00524726       0.00334300      -0.00350421
O        1.31964160       1.00664785       1.67136938      -0.43432227      -0.00248824      -0.00473775      -0.00085664
N        0.80363914      -0.17731721      -0.21084028      -0.36165783       0.00021595      -0.00115847      -0.00133489
C       -0.60617031      -0.20975841      -0.16835254       0.12601396       0.00370468       0.00026312       0.00038152
C       -1.25620798      -0.87700461      -1.20519048      -0.16811688       0.00327615       0.00299939      -0.00056602
C       -2.63697908      -0.95507890      -1.23668336      -0.13869074      -0.00048664      -0.00282505      -0.00123119
C       -3.39000531      -0.36464825      -0.23245543      -0.15795560      -0.00057875       0.00174759       0.00235421
C       -2.74101789       0.29949008       0.79639921      -0.13591453       0.00419899       0.00156382       0.00528703
C       -1.35662913       0.38317741       0.84191841      -0.12460482       0.00527238       0.00154181      -0.00157606
H       -0.85443543       0.89627930       1.64110968       0.14084612      -0.00471619       0.00351686       0.00116902
H        5.10717312       0.65609615       0.83884706       0.14655444       0.00705521      -0.00380822       0.00043623
H        3.79452260       1.29680183       1.98171693       0.15898365      -0.00150601       0.00471525       0.00457698
H        3.36110111      -0.29896503      -0.59092365       0.12170472      -0.00037960       0.00003576      -0.00257727
H        1.20750407      -0.64707677      -0.99992051       0.26805928       0.00090080      -0.00195948      -0.00245348
H       -0.67231473      -1.33648701      -1.99285957       0.13083443       0.00256719      -0.00489488       0.00185417
H       -3.12505370      -1.47818451      -2.04655784       0.13598797      -0.00491843       0.00020773      -0.00657487
H       -4.46840989      -0.42216307      -0.25281626       0.13751186      -0.00406710      -0.00054556      -0.00164540
H       -3.31668396       0.76478630       1.58364618       0.13518205      -0.00201590      -0.00104412       0.00528909
