36
Properties=species:S:1:pos:R:3:charge:R:1:forces:R:3 16H=T (SP=-838.405627895221,U=-838.08328855,H=-838.08234434,G=-838.14387136) energy=-22814.885057575866 pbc="F F F"
N       -3.16810105      -0.43251843      -0.26614732      -0.13212800      -0.00092610      -0.00271376       0.00117009
C       -1.87061677       0.00546664      -0.12337708       0.15797237      -0.00285127      -0.00016590      -0.00240871
C       -1.22854514      -0.44717238       1.09956008      -0.08344642      -0.00873495       0.00273038      -0.00371400
C        0.06394458      -0.14007277       1.42072097      -0.06236259      -0.00134559      -0.00008012       0.00009915
O       -1.29438598       0.72450225      -0.93545460      -0.35440713       0.00506923      -0.00387369       0.00307446
H       -1.82606248      -1.04773766       1.79098866       0.04487085       0.00145476       0.00084284       0.00007529
H        0.67972005       0.38376900       0.69446681       0.03662648       0.00262737      -0.00235056       0.00108753
C        0.60702767      -0.41326917       2.76318785       0.04404535       0.00491883      -0.00065084      -0.00465632
C       -4.18985748       0.07580968      -1.10220841       0.02752486      -0.00021201      -0.00494076       0.00049460
C       -5.39201767      -0.59269785      -1.13210783      -0.07189560       0.00111543       0.00063364       0.00071915
C       -6.46413734      -0.09336245      -1.89739583      -0.04354808       0.00462870       0.00507317       0.00365253
C       -6.31943008       1.09127430      -2.64682763       0.00757327      -0.00143071       0.00577528       0.00512099
C       -5.07184236       1.73982317      -2.61525657      -0.07445467       0.00115366      -0.00061967      -0.00181316
C       -4.02849496       1.25138340      -1.87044646      -0.06930625      -0.00244779      -0.00656069      -0.00269038
H       -5.53295011      -1.50640693      -0.56608566       0.04723141      -0.00118145      -0.00072912      -0.00324167
H       -3.08013176       1.75934293      -1.86192760       0.02741849       0.00238850       0.00338951       0.00560361
H       -3.48564577      -1.17969042       0.32377652       0.14056358       0.00346591      -0.00427484      -0.00080071
H        1.69276119      -0.47405000       2.80873502       0.04750649      -0.00135942       0.00270119       0.00476903
H        0.17696085      -1.30106850       3.23104854       0.04903611      -0.00189853      -0.00131911      -0.00519639
N        0.24597289       0.75199327       3.74686479       0.11069950      -0.00102058       0.00493001       0.00091491
C        1.04333493       1.97013821       3.48455411       0.01558385      -0.00081003       0.00506094      -0.00168785
C        0.31262145       0.33638578       5.16107937       0.01786669       0.00197569      -0.00008440      -0.00049335
H       -0.37067371      -0.49616020       5.31218109       0.05048640       0.00313007      -0.00443236      -0.00115611
H        0.03074398       1.17252468       5.79888123       0.05203208       0.00394433       0.00207226       0.00044467
H        1.32886989       0.01477510       5.38142916       0.04628433       0.00295725       0.00082959       0.00446075
H        0.93795087       2.21458106       2.43163918       0.04116634      -0.00263917       0.00040284      -0.00278597
H        2.08803652       1.76552286       3.71503972       0.04623907      -0.00601139      -0.00293677       0.00301664
H        0.67491077       2.78404233       4.10657425       0.05248920      -0.00358196       0.00216296      -0.00316931
N       -7.35686406       1.59585008      -3.37840065      -0.25319329      -0.00507435      -0.00163364      -0.00067189
C       -8.47248387       0.92345205      -3.34320803       0.06431945      -0.00061245      -0.00036982      -0.00555152
N       -8.73217184      -0.22631269      -2.66864684      -0.25488418      -0.00011532      -0.00116886      -0.00597669
H       -9.29838786       1.32031446      -3.91898670       0.02642400       0.00689043       0.00631429      -0.00246828
C       -7.73478440      -0.70970857      -1.96997527       0.01619234      -0.00084995       0.00133648       0.00264217
H       -7.90657686      -1.62939508      -1.42221762       0.03921226      -0.00625640      -0.00520468       0.00535059
H       -4.94946567       2.64132987      -3.19539191       0.03323403      -0.00152435       0.00139610       0.00176529
H       -0.71938492       0.96226465       3.51229664       0.15702762       0.00516413      -0.00154175       0.00402075
