13
Properties=species:S:1:pos:R:3:charge:R:1:forces:R:3 20=T (SP=-286.810338130889,U=-286.69469625,H=-286.69375204,G=-286.7317865) energy=-7804.182562085448 pbc="F F F"
N       -3.20104280      -0.07427358      -0.00796194      -0.10411040       0.00456691      -0.00159821       0.00444073
C       -1.92402350       0.38659716       0.00152107       0.16756518       0.00414443      -0.00254797       0.00017705
C       -1.02011879      -0.27259761       0.99198411      -0.04881712      -0.00245827       0.00016889      -0.00106710
C        0.23833126       0.11984156       1.11727604      -0.06556845      -0.00597790       0.00401647       0.00228689
O       -1.55109591       1.27238791      -0.74566367      -0.35258514       0.00613193       0.00245051       0.00365384
H       -1.41944654      -1.07556213       1.60210274       0.05071521       0.00564295       0.00337130       0.00659972
H        0.62020474       0.91845431       0.49722274       0.03573766       0.00193711      -0.00380776       0.00173470
H        0.90571284      -0.33886349       1.83231676       0.04918935       0.00068969      -0.00179647      -0.00924657
C       -4.18238887       0.49874848      -0.90282515      -0.00368106       0.00254094       0.00069191      -0.00083963
H       -3.47411068      -0.78228540       0.64521925       0.14497963      -0.00612209      -0.00537874       0.00183652
H       -3.85418037       0.40508712      -1.93516177       0.03858703      -0.00237397       0.00109157      -0.00547562
H       -4.32174669       1.55763656      -0.69542599       0.03951144      -0.00817137       0.00518228      -0.00248047
H       -5.12841331      -0.01930941      -0.77757060       0.04847660      -0.00055029      -0.00184363      -0.00162011
