28
Properties=species:S:1:pos:R:3:charge:R:1:forces:R:3 29_carbanion=T (SP=-956.313588742604,U=-956.06979541,H=-956.0688512,G=-956.12608902) energy=-26020.90605256595 pbc="F F F"
N       -3.10515765      -0.14437626      -0.38142469      -0.14490265      -0.00309848       0.00198971       0.00138684
C       -1.76067203       0.41036014      -0.34926821       0.08051805      -0.00384063      -0.00230251       0.00339548
C       -0.93965805      -0.14726182       0.61385457      -0.18030258      -0.00121513      -0.00290001       0.00319468
C        0.47677177       0.30461584       0.70756784      -0.05568874      -0.00253924       0.00157400      -0.00137925
O       -1.47040223       1.31395415      -1.17084417      -0.39633745       0.00015105       0.00180091      -0.00553198
S        1.68143942      -1.01758344       0.23020503      -0.15743113       0.00092176      -0.00081938       0.00171522
C        3.22037248      -0.14126274       0.57421556      -0.06733133      -0.00138078      -0.00034229      -0.00072062
H        0.64338914       1.14851501       0.04430313       0.01058006       0.00176664      -0.00113835       0.00156468
H        0.75528012       0.58866086       1.72704273       0.00898781       0.00406060      -0.00094141      -0.00659070
H        3.29102332       0.76723750      -0.01895509       0.01968075       0.00140361      -0.00363407       0.00172024
H        3.28976377       0.12478600       1.62685565       0.02038817       0.00000336       0.00217896      -0.00335614
H        4.05811602      -0.78921482       0.32164933       0.01029291       0.00215313       0.00259229       0.00236520
C       -4.22040264       0.35539486      -1.00650660       0.05569804      -0.00042432      -0.00010739       0.00255221
C       -5.46702998      -0.23503139      -0.73391848      -0.07704612      -0.00070594      -0.00112869       0.00369459
C       -6.62955618       0.21481309      -1.33485763      -0.05838864      -0.00187335       0.00139254      -0.00320794
C       -6.59231353       1.27016781      -2.23553545      -0.08346830      -0.00131469       0.00186119      -0.00048751
C       -5.36224602       1.85706252      -2.51461466      -0.05607721      -0.00043210       0.00343309      -0.00057093
C       -4.19086976       1.41977986      -1.92215205      -0.06927624      -0.00076403       0.00112150       0.00227141
H       -5.50539448      -1.06079644      -0.03417385       0.02033970       0.00102544      -0.00298269       0.00001059
H       -7.56961988      -0.26653848      -1.09293089       0.01667845       0.00051646      -0.00093807      -0.00263753
H       -3.23709924       1.87073539      -2.13392655       0.01396417      -0.00039023       0.00347403       0.00585109
H       -3.28295881      -0.85525051       0.30113976       0.10082507      -0.00277592       0.00083136      -0.00143308
H       -5.30891793       2.68339204      -3.21347023       0.01567902       0.00734862      -0.00463274      -0.00177367
H       -7.49634934       1.62749058      -2.70724641       0.01707411      -0.00059296      -0.00231361      -0.00041925
C       -1.35810086      -1.23578144       1.56379495      -0.09847006       0.00142365      -0.00537995       0.00272696
H       -2.18806033      -0.94420447       2.22039539       0.02149397      -0.00077430      -0.00164051       0.00102617
H       -1.65299794      -2.17410001       1.07500700       0.02111426       0.00274465       0.00741324       0.00306450
H       -0.52183594      -1.49137502       2.22096546       0.01139716      -0.00139643       0.00153884      -0.00843144
