26
 
C            3.69200679281170        0.52143783077005       -1.55860269095141
C            2.35184970584115        0.55726361702327       -1.21789372228395
C            1.94411924747883        0.07694332020970        0.02237561096666
N            0.60621180871219        0.07891001868776        0.43816694226517
C           -0.50302704917080        0.51256302352727       -0.22499323759396
O           -0.50691599449032        0.98566210635224       -1.33743350944459
C           -1.77050948703862        0.31986407999379        0.60298448167461
C           -2.97455504248273        0.92751302990971       -0.09852448696059
S           -4.50969730731728        0.71568770927115        0.85740070962657
C           -4.89695680286972       -1.01167382223032        0.45164357068779
C            2.89298210335815       -0.43451987722885        0.90568016201766
C            4.22844978722904       -0.46535299108614        0.55420106908141
C            4.63386481707333        0.01296482043468       -0.68071102242942
H            5.67762606915200       -0.01096109218093       -0.95482722903143
H            4.00050965647525        0.89669078817635       -2.52294556610425
H            1.62117227073280        0.95349708298163       -1.90219203321016
H            0.46350295580227       -0.29543312633534        1.36678888475942
H           -1.64302777235839        0.78592959113818        1.58305094241389
H           -1.92075849741962       -0.75309261313288        0.75327987017642
H           -3.11930670682452        0.48701694424376       -1.08418262521530
H           -2.84178704014103        2.00216421596187       -0.21373306630569
H           -5.84458581250504       -1.23738120158191        0.92862238218523
H           -4.98787821198432       -1.11704413020874       -0.62577145478415
H           -4.12562192475507       -1.67125715601208        0.83892379139116
H            2.57838544556679       -0.80841410926739        1.87089728344634
H            4.95394698912419       -0.86414379646024        1.24779494362265