25
 
O            0.50847052327190        0.99654848874238        1.32028246955002
C            0.66296751107752       -0.17149004622475        0.93096349357285
C            1.65647181361537       -1.07098626264838        1.29065434841899
C            2.75653767840408       -0.69784262938154        2.13637009529734
N           -0.30524214965909       -0.76077682091898        0.03599044906942
C           -1.46875385264033       -0.26489039101453       -0.46518821764100
C           -1.91800679439975        1.03934830001812       -0.20917868131855
C           -3.10222134072144        1.48842312056325       -0.74999965314655
C           -3.87905742129196        0.67057768052099       -1.55931608747254
C           -3.44573532618369       -0.61929255533371       -1.82105011717208
C           -2.26307176302859       -1.08337396734731       -1.28612292451230
H            1.66457928403931       -2.06458688983546        0.85860385432378
H            3.11455521311441       -1.47006442544311        2.81425160226209
H            2.58219850693023        0.24386895076393        2.64945442228577
H           -0.09900433590631       -1.71661466027521       -0.21836652766759
H           -1.30901390865215        1.66639592355430        0.42128261917687
H           -3.43120333007790        2.49843410626820       -0.53915250092127
H           -4.80819913845690        1.03223899879403       -1.97985487209789
H           -4.03947506360590       -1.27205257254945       -2.45035509581741
H           -1.93400389495556       -2.09451903096635       -1.49701937693752
S            4.43103741458051       -0.34048298942744        1.16487224583564
C            3.75920029393338        0.83318887424818       -0.02817957284199
H            4.34322287786437        0.77309281856462       -0.94297874296471
H            2.72452708684089        0.54446822212628       -0.21230445261552
H            3.79922011590477        1.84038775720070        0.38103810760673