25
 
O            0.44089929308575        0.35799242084417        2.68233156874225
C            0.89102114796694        0.61306730603844        1.55853862310201
C            2.19789025830483        1.06836887807323        1.28994487293400
C            2.66388558495426        1.52955382960329        0.04684245225077
N            0.09553476015950        0.45388616801387        0.39583484099332
C           -1.21934333289942        0.11052755489509        0.27186769281874
C           -2.09667370516915        0.02870126276814        1.36111972146732
C           -3.42121023855107       -0.30066235132330        1.16560452208671
C           -3.91710617237650       -0.55183865350617       -0.10513402422809
C           -3.05820979038007       -0.47105238342061       -1.19031090253711
C           -1.73076629734472       -0.14645997492809       -1.00958618739244
H            2.89974795212861        0.98841317957998        2.10921569966692
H            3.64370617291661        1.99086666012007        0.05153358638514
H            1.97206781404737        2.05322818326145       -0.60115503356166
H            0.62615683284412        0.44718499326517       -0.46547082115919
H           -1.70614400585039        0.21478703019307        2.34791561475864
H           -4.08344433593612       -0.36246699013759        2.02017014317616
H           -4.95847276193509       -0.80881395316324       -0.24890201071742
H           -1.06446501071301       -0.08763942394065       -1.86073404151084
H           -3.43003847322447       -0.66459574725423       -2.18918943777575
S            3.08022189312978       -0.03520846019717       -1.35202947475142
C            3.05360494567989       -1.41182043681068       -0.19889990815661
H            4.05878650810572       -1.81105371055280       -0.06920039886786
H            2.38869121002093       -2.18706294427122       -0.57335688275937
H            2.67365975103413       -1.01790243714578        0.75279881095241