26
 
C           -4.02536585540542        0.26552271636550        1.55473703267749
C           -2.64873756442909        0.17363546395928        1.62117057359974
C           -1.90348716556269       -0.07662321227201        0.47046005538166
N           -0.51121638423548       -0.15691864815826        0.60468906276409
C            0.43606019350887       -0.38468474489860       -0.34874519524540
O            0.21147548074009       -0.55890472420646       -1.52372193245944
C            1.84446316448200       -0.38311338185627        0.23912411997677
C            2.87213959933617       -0.76740424725799       -0.81314932115313
S            4.56828357408237       -0.77441619010321       -0.15105319100481
C            4.92162034171910        1.00689610932842       -0.17264477639332
C           -2.55663282588178       -0.23373201065760       -0.74770959934643
C           -3.93563702196571       -0.13985462141395       -0.80176138646722
C           -4.67514882556250        0.10903412213473        0.34170341480304
H           -5.75097164427785        0.18053377204398        0.29029570774220
H           -4.59144103301902        0.45970370644185        2.45379509104651
H           -2.14309616338606        0.29593753330423        2.56973845670354
H           -0.18120111247083       -0.02839352610307        1.55200555892696
H            1.89424774308830       -1.08577391419343        1.07446153100716
H            2.05286058700101        0.61910921394724        0.62450692126973
H            2.83745202460893       -0.08768878927604       -1.66361710855583
H            2.68759513930810       -1.77983669557305       -1.16909793214910
H            4.25938954837336        1.53024325829208        0.51113279192361
H            4.80644235588008        1.38484115120842       -1.18461528090661
H            5.94968961166432        1.12315559637909        0.15294797680649
H           -1.98361004906121       -0.42770000190508       -1.63831387032494
H           -4.43517371853500       -0.26356793553000       -1.75102640225861