25
 
O            0.58381845149991        1.49768779795033       -0.63731422744623
C            0.79777044025678        0.28427058789115       -0.78427466046235
C            1.91495423179391       -0.32924849577146       -1.33292561197848
C            3.07845458360850        0.41446864118051       -1.73012022604317
N           -0.22123204879230       -0.67098478533716       -0.41714397185162
C           -1.48560932292551       -0.48576938400880        0.04964028836307
C           -2.30047504713127       -1.60739415214097        0.27929610715497
C           -3.58522590041517       -1.46629375896423        0.75858342932834
C           -4.10349047763208       -0.20920127553391        1.02533959919333
C           -3.30738630856208        0.90614596915867        0.80272890678480
C           -2.02177677616374        0.78113101206403        0.32513146805183
H            1.96157073947731       -1.41026310542567       -1.38957970853611
H            3.60039064235395        0.04149169562750       -2.60903788125211
H            2.88421818640763        1.48145425030133       -1.79556718813382
H            0.04131674279146       -1.63284138429956       -0.58072243801577
H           -1.90545048828050       -2.59570675265719        0.07345426555891
H           -4.19243843209584       -2.34829232341209        0.92596916842879
H           -3.70221982046356        1.89342783357734        1.00812866391770
H           -1.39683913940972        1.64112460089344        0.14791389849304
H           -5.11258474902310       -0.10109385694634        1.40083580006927
S            4.56044914461277        0.33823087976744       -0.43653755027963
C            3.61899445056037        0.82822801826695        1.02147885463058
H            2.60237098503480        0.46040968501689        0.88366435466878
H            4.07507182033574        0.37669912955551        1.89878524614312
H            3.61534809218047        1.91231917324088        1.11227341322302