35
 
O            1.20028542133378       -1.61127130240627       -1.17917310470006
C            2.00054484785253       -0.67984667675167       -1.33049856961244
C            3.21189160689559       -0.74407614492882       -2.04405436172762
C            4.02125451492995        0.36352561841957       -2.36129666134107
N            1.75743096704250        0.59456172992355       -0.74985863156506
C            0.67555150609430        1.02449481541505       -0.04104748918718
C            0.77892191931607        2.20395596221858        0.71264975387797
C           -0.30277359011337        2.67890004663951        1.42307993178612
C           -1.51302135177237        2.00695277351096        1.40561203919656
C           -1.63939335485392        0.83365638629790        0.66029102044621
C           -2.91385501982532        0.10153996634682        0.63282163463387
C           -4.13241124326545        0.77735298259530        0.60135545550629
C           -5.32810678556933        0.08373019391867        0.57961653994988
C           -5.33109002377086       -1.30081109944550        0.59030380400968
C           -4.12674597032688       -1.98488134983867        0.61898031995374
C           -2.93091612824144       -1.29278509061187        0.63950969658524
C           -0.55297717806790        0.35543863376675       -0.05756195186339
H            3.56231486354442       -1.73517827861905       -2.29854486990451
H            3.53319159660123        1.30453617785654       -2.58550634536819
H            4.84734553033965        0.16397113597936       -3.03323689744682
H            2.58768982946641        1.16837465911849       -0.66402396267975
H            1.72209800422349        2.73371114041275        0.73222422976052
H           -0.20200410239167        3.58593057555647        2.00625818053179
H           -2.34559732948340        2.37317266280155        1.99034935497902
H           -4.14025779467480        1.85802014991258        0.57472373537322
H           -6.26468728172972        0.62540052854432        0.54974444162895
H           -6.26680625595267       -1.84325499982402        0.57348024562388
H           -4.12187627059140       -3.06638914374712        0.62658229413573
H           -1.99543799772058       -1.83067161006332        0.66787934659402
H           -0.63284673327746       -0.54242294604258       -0.64767522596310
S            5.13006245130357        1.11430707804223       -0.70796831574587
C            4.96206061238763       -0.30845834919445        0.37618918274349
H            4.61943378770211        0.01920844791711        1.35517750429360
H            5.91723997094396       -0.82335617710205        0.46668337535664
H            4.21348698163759       -0.96687428218358       -0.08306569986355