32
 
C           -2.20057638411624        0.63034483826057        2.79540180327434
C           -3.13297109176337        0.67540350318679        1.77522857778187
C           -2.73052575536050        0.40288292395830        0.47077877532256
C           -3.69235816612123        0.43927179305067       -0.65985295904618
O           -3.40493750853449        0.24211777840125       -1.81345477873567
O           -4.94353987356757        0.72201127361449       -0.25792019742530
C           -5.92201630699832        0.77394110032698       -1.28399733004415
C           -1.40526734756321        0.08754130933710        0.18769918287982
C           -0.47280370676083        0.04268581757961        1.21728982922145
N            0.87517235237532       -0.26495844174800        1.01476156093211
C            1.52550322525024       -0.57714932549187       -0.14737276803736
O            1.00696165399456       -0.63499647519619       -1.23483160881104
C            3.00960840241745       -0.83513645147454        0.09079463992408
C            3.68892544396109       -1.31946528180759       -1.18044560471151
S            5.46638152269620       -1.62850807878146       -0.93328070029024
C            6.09807499264975        0.07157457658023       -1.03128928897471
C           -0.88226285617562        0.31717131033714        2.52290631069181
H           -2.49963241259983        0.84003139378825        3.81150747877506
H           -4.16296733696396        0.91849983723730        1.97850558017211
H           -5.98536607634961       -0.18794849366091       -1.79732285136915
H           -6.86361354848836        1.00955678068652       -0.79487583602026
H           -5.66522681832536        1.54337061391876       -2.01531823998320
H           -1.11763776573791       -0.12008819938598       -0.83024278782202
H            1.43236700261244       -0.25704154262126        1.85871739723328
H            3.13101360231876       -1.58231086328960        0.87878341066471
H            3.46724844868316        0.09759340910562        0.43293142039989
H            3.26214237321455       -2.26939182761660       -1.49847522046582
H            3.57316095285932       -0.59788544558703       -1.98800513969548
H            7.17766240259409        0.00633034411283       -0.94962200113844
H            5.70403632108651        0.66744458851158       -0.21292593809366
H            5.82246153139481        0.50350309936144       -1.98918578327751
H           -0.15901727268179        0.28360413530536        3.32642695358636