20
 
C            4.18754627089991        0.37122000724947        0.61488363967087
C            3.09324345845228       -0.21541167949926        0.15304067240745
C            1.74796228462571        0.33259570958871        0.46800376464071
O            1.58474677841049        1.32351256584793        1.14916281152235
N            0.73629438607155       -0.39972145975396       -0.09117734198917
C           -0.64455688547648       -0.19882097972155       -0.01945662417809
C           -1.22168008571456        0.85423901022672        0.68458492943564
C           -2.59783476833239        0.98867166052773        0.71031808197736
C           -3.41160303750764        0.08837272058758        0.04403040807972
H           -4.48495025068775        0.20099868591463        0.06950757248087
C           -2.83895652646277       -0.96002235717982       -0.65698849693741
C           -1.46589964777245       -1.10469270082875       -0.68999447754518
H            5.17741326527164        0.00264965623382        0.40738829336216
H            4.10186496254438        1.25529499719845        1.22565678201949
H            3.14193294864873       -1.10374347189959       -0.46236341830600
H            1.00725817014532       -1.20567172465972       -0.63841047186434
H           -0.59069176897651        1.55555528436235        1.20346866157804
H           -3.03687576828080        1.80862257103906        1.25902111644262
H           -3.46343756950399       -1.66884145048731       -1.18076843283493
H           -1.02177621635475       -1.92480704474659       -1.23855822590833