25
 
O           -0.98376920597459        0.25071089070044       -2.78674868653376
C           -0.07906987002613        0.37917376894579       -1.95629970093010
C            1.19824303531123        0.93365974479033       -2.21086835219544
C            2.09759891629216        1.32337103975703       -1.22794622179120
N           -0.24489492177403       -0.03126672764050       -0.61382933824639
C           -1.36374769511216       -0.47916483087746        0.02843458027895
C           -2.65295397293466       -0.34555998826814       -0.50311900059296
C           -3.75017626021248       -0.77703098094575        0.21214507931486
C           -3.60656306036203       -1.34532361254588        1.46894744136026
C           -2.33503805746376       -1.48316455139518        2.00389131000171
C           -1.22905000179819       -1.05900699953512        1.29862329174430
H            1.50783993454059        0.95061241681097       -3.24586650966093
H            1.70540693117020        1.68081722427078       -0.28427254365950
H            2.98246812716331        1.85261032556581       -1.55615649934389
H            0.63218320990798       -0.19812423491635       -0.13504637196108
H           -2.76156565685680        0.08502923227394       -1.48480283357163
H           -4.73883854453504       -0.66722631391477       -0.21580914986274
H           -4.47331659284248       -1.67926448170645        2.02413753878899
H           -2.20712601276760       -1.92805283307031        2.98318760656019
H           -0.23811485816813       -1.17186785586692        1.71834439447571
S            3.22717115139184       -0.30433456354348       -0.20918010818729
C            4.18335719950997        0.83715724429503        0.82398146179570
H            3.50966073345899        1.46867075512857        1.40282731293023
H            4.80084180286561        0.24809109404409        1.49789362107214
H            4.81945366921502        1.45948423764464        0.19481045023531