27
 
C           -3.71786147010562        1.46319899004981       -0.60279269641718
C           -2.35161475116011        1.53049951181796       -0.44449980393963
C           -1.62151712406419        0.39949173914285       -0.07087897938176
N           -0.24153900702842        0.53867824490971        0.07003550705851
C            0.68993630522676       -0.40250837121887        0.41862891994164
O            0.44061312577177       -1.55737615708108        0.66541849020770
C            2.09743345742193        0.17779792269406        0.44777582030436
C            3.09736225404244       -0.84312837216167        0.96850940928165
S            4.79133181268445       -0.17730322916701        1.02248616486018
C            5.25242775816698       -0.34765400290228       -0.72549447309280
C           -2.28680038399603       -0.80719699366789        0.14320710050230
C           -3.65512248891877       -0.87668945745969       -0.01450890752010
C           -4.38225837062534        0.25417233019675       -0.38822355248768
C           -5.78329027616616        0.18040112414587       -0.54975804189427
N           -6.92095582639274        0.12461283289897       -0.68322137505459
H           -4.27912137545882        2.33927169603348       -0.89166768317679
H           -1.83802758833824        2.46739169406655       -0.61064069547774
H            0.10352201580958        1.47227951612991       -0.11035171526202
H            2.36291322028466        0.48335778945924       -0.56844482134540
H            2.11579960381943        1.06566500213952        1.08457675753713
H            3.09923767468901       -1.74214811259577        0.35359669604306
H            2.85396515450315       -1.12181297808197        1.99264618953234
H            5.16017042086586       -1.38834420491308       -1.02307842428892
H            6.28608688759316       -0.02881084488456       -0.80532013613953
H            4.62492233311776        0.28708387965034       -1.34467635329488
H           -1.72678991809032       -1.68036131627944        0.43194261246571
H           -4.17082344365283       -1.81056823292167        0.15153579098127