30
 
C           -3.84214335736177        0.84422500074160       -0.97550515451995
C           -3.73212066068423       -0.53012608038279       -0.91491794196864
C           -2.53634255776292       -1.11715208237630       -0.53272917645462
C           -1.44466752557554       -0.32735222512933       -0.20936887043417
N           -0.20284804807328       -0.83547395734502        0.18060910080800
C            0.20485199157588       -2.12518804014685        0.23687610739958
O           -0.48661685659977       -3.09347032703522        0.00301518000184
C            1.66661773686626       -2.27252679203254        0.65814500212756
C            2.64560517354764       -1.57133744862310       -0.27912873122952
S            2.81119953473488        0.22604783555478        0.00728638233110
C            3.82755142564267        0.20344811334706        1.51177199689511
C           -1.55937130942886        1.07665555537444       -0.26462020143281
O           -0.43060125517667        1.77357299131323        0.08472146952576
C           -0.44419189079091        3.17383809781367       -0.02960514713225
C           -2.75879346470881        1.64886941549923       -0.65076255289202
H           -4.77077490072648        1.30604331205451       -1.27512305060689
H           -4.57509812815989       -1.15519525783214       -1.16586675170066
H           -2.43829156607653       -2.18854175953120       -0.48673842417752
H            0.48938595403350       -0.10982895241994        0.34482332236479
H            1.78009527688298       -1.90064276027100        1.67924461095296
H            1.88651041046492       -3.34210578807038        0.66306730943642
H            2.32550295012771       -1.67010892945235       -1.31602275171563
H            3.64582761777930       -1.99438271276121       -0.17913172702652
H            3.29988846109147       -0.30335447261008        2.31444648313519
H            4.77191704938049       -0.29099714403829        1.30139409519309
H            4.00306012876713        1.23857279302639        1.78402124454409
H           -1.17263815735522        3.62659042954924        0.65102512394751
H           -0.65737256493645        3.49073005250979       -1.05519071880372
H            0.55826825012571        3.49815470566510        0.24579721822869
H           -2.86440971760364        2.72103642760902       -0.70230252598642