23
Properties=species:S:1:pos:R:3:charge:R:1:forces:R:3 energy=-14095.68003254422 pbc="F F F"
C        3.14948850       1.60874448      -0.13867854      -0.29628396       0.00402348       0.00173057      -0.00238012
C        1.96529772       1.03907137       0.02260496      -0.12763007       0.00400135      -0.00083011       0.00256513
C        1.90221163      -0.43699850       0.24781385       0.44292006       0.00117078      -0.00087078       0.00033415
O        2.90453131      -1.09928578       0.44710039      -0.47351277       0.00198908      -0.00706143       0.00163825
N        0.65974862      -1.01694457       0.23466018      -0.20596053       0.00084687      -0.00224154      -0.00143819
C        0.57892256      -2.38910376       0.72103134      -0.14529052      -0.00043087       0.00067132       0.00003954
C       -0.54733136      -0.30482365      -0.03360460       0.10182922      -0.00033566      -0.00451719      -0.00159201
C       -1.38798323       0.06264845       1.01282568      -0.14136717       0.00165333      -0.00161372      -0.00415973
C       -2.56835263       0.74099657       0.74705119      -0.13896666       0.00460006       0.00366658      -0.00320916
C       -2.92355380       1.04483161      -0.55984360      -0.14209692       0.00029516      -0.00264941       0.00004697
C       -2.09312145       0.66479375      -1.60450715      -0.13643283      -0.00398043      -0.00092692       0.00534646
C       -0.90816838      -0.00852307      -1.34317686      -0.13511673      -0.00037414      -0.00055705       0.00168408
H        3.26732489       2.66958580      -0.30976863       0.14983892      -0.00180426       0.00415895      -0.00298486
H        4.03797270       0.99493847      -0.09153267       0.16144377      -0.00248610       0.00376213       0.00429769
H        1.04408103       1.60342062       0.01839549       0.11783524       0.00054013      -0.00280508      -0.00072932
H       -0.42895085      -2.75825185       0.56860592       0.08777053      -0.00359352      -0.00226589      -0.00552443
H        1.28770538      -3.00667061       0.17745129       0.10184236       0.00061991       0.00082500       0.00418396
H        0.83582483      -2.44713348       1.77815277       0.09184804      -0.00021480       0.00309958       0.00072649
H       -1.10676489      -0.17876897       2.02871269       0.13157956       0.00043040       0.00109686      -0.00025935
H       -3.21258692       1.02956596       1.56541122       0.13811977       0.00076330       0.00126553      -0.00135010
H       -3.84455384       1.57201366      -0.76175108       0.14066835      -0.00135476      -0.00199862      -0.00238968
H       -2.36551702       0.89127762      -2.62550852       0.13887592      -0.00035454       0.00247221       0.00185153
H       -0.25259987      -0.31223516      -2.14607276       0.13808647      -0.00600475       0.00558936       0.00330236
