28
Properties=species:S:1:pos:R:3:charge:R:1:forces:R:3 energy=-26020.57780756651 pbc="F F F"
C       -1.79588513      -1.42265864      -1.97930567      -0.17124778       0.00213404      -0.00254256      -0.00341112
N       -1.02750807      -0.67234749      -1.01405523      -0.18950029       0.00258410       0.00256004      -0.00178979
C       -1.65724444      -0.26416297       0.13263089       0.15657394       0.00075594       0.00252347      -0.00132508
C       -3.05371252      -0.07713307       0.15449153      -0.18954082      -0.00022329       0.00368532       0.00205994
C       -3.70425719       0.34028101       1.30210049      -0.17225264      -0.00150043       0.00209709       0.00353147
C       -3.00498887       0.57074204       2.47679407      -0.22410291      -0.00032516      -0.00080334       0.00209747
C       -1.62732233       0.36984547       2.47189879      -0.17066352      -0.00201598      -0.00351781      -0.00233056
C       -0.95729399      -0.04066519       1.33512153      -0.12888119       0.00200493       0.00323815      -0.00128646
C        0.43939724      -0.67224941      -1.19917244       0.28595719       0.00692060       0.00026858       0.00568771
O        0.93019935      -1.74139080      -1.62207355      -0.55930454       0.00150934      -0.00458376      -0.00152973
C        1.07961281       0.51418355      -0.92931475      -0.39038685       0.00308591       0.00225031       0.00401337
C        2.55043793       0.59264803      -0.91000121      -0.11022115       0.00332385       0.00032606      -0.00192143
H       -1.08836224      -1.91040788      -2.63761471       0.09000300       0.00650127      -0.00281813      -0.00539395
H       -2.41774754      -2.18543097      -1.50281591       0.06339992      -0.00480659       0.00087623       0.00546352
H       -2.45129511      -0.77626601      -2.57238271       0.05791642      -0.00093608       0.00172929      -0.00294670
H       -3.61913923      -0.25329860      -0.74796186       0.10747486      -0.00456625       0.00232642       0.00392649
H       -4.77710180       0.48765845       1.27557189       0.11349905      -0.00223466      -0.00303452       0.00442838
H       -3.51656651       0.89485842       3.37077477       0.12215934      -0.00201017       0.00244331      -0.00105860
H       -1.05600663       0.53999184       3.37625226       0.11031128      -0.00490553      -0.00407992      -0.00421337
H        0.10963825      -0.20510980       1.34306924       0.13950476       0.00144981      -0.00103489       0.00073834
H        0.50580329       1.38336074      -0.64039967       0.12455924      -0.00483835       0.00188811       0.00193630
H        2.94902268       1.47055495      -1.42170587       0.06368750      -0.00130431       0.00387952      -0.00269966
H        2.99119784      -0.30181039      -1.35322785       0.09580231       0.00202727      -0.00616023      -0.00087756
S        3.21484391       0.70329619       0.81102441      -0.26696140       0.00172920      -0.00011364      -0.00428998
C        4.96800224       0.66567561       0.39593505      -0.19693054      -0.00259607      -0.00164360       0.00125246
H        5.21760150      -0.23948569      -0.15573954       0.07345349       0.00153880      -0.00046463       0.00094119
H        5.25006838       1.52817247      -0.20751269       0.07354547      -0.00260268      -0.00391972      -0.00061034
H        5.54812854       0.67933929       1.31691965       0.09214596      -0.00069952       0.00462568      -0.00039318
