25
Properties=species:S:1:pos:R:3:charge:R:1:forces:R:3 energy=-24950.591469433264 pbc="F F F"
C       -4.10569944      -0.74689106       0.67957327      -0.22165975      -0.00067095      -0.00035588       0.00162658
C       -3.66213715       0.37706856       1.36329207      -0.17683232       0.00050204      -0.00142226      -0.00323395
C       -2.39955870       0.88876618       1.13293060      -0.18843170       0.00065123      -0.00430746       0.00280664
C       -1.52463393       0.29332947       0.20370185       0.21121624      -0.00438483      -0.00118716      -0.00376162
C       -1.97651031      -0.84750191      -0.48345343      -0.13749035      -0.00192214      -0.00659965       0.00383284
C       -3.24620500      -1.34193290      -0.23767136      -0.16168301      -0.00486467       0.00167401       0.00112309
N       -0.28873936       0.85614087       0.01038114      -0.38403267      -0.00095020       0.00084000       0.00082778
C        0.82003639       0.44393489      -0.82716367       0.31487012       0.00359059       0.00499386       0.00338985
O        0.69097991      -0.60813627      -1.49311589      -0.50810897       0.00078508       0.00665063       0.00544464
C        1.91653519       1.28621741      -0.76232331      -0.47532782       0.00386610       0.00197404      -0.00320244
C        3.16859460       0.95877440      -1.46737913      -0.11242133      -0.00035790       0.00163167      -0.00243075
H       -4.30689295       0.86272523       2.08598563       0.11181085       0.00543334      -0.00308618      -0.00484561
H       -2.06807917       1.76564514       1.67786356       0.10708666      -0.00435659       0.00298450      -0.00399541
H       -1.30608899      -1.30584894      -1.18885863       0.12433319       0.00296251       0.00538190      -0.00043178
H       -3.57269493      -2.22003732      -0.78118302       0.11051976       0.00423582       0.00138600       0.00325316
H       -0.09265881       1.67707591       0.54909839       0.23712058       0.00444687      -0.00349528       0.00562536
H        1.94279703       2.10947046      -0.05783276       0.10622109      -0.00206323       0.00102421      -0.00771487
H        3.64895725       1.82351020      -1.92712205       0.07170245      -0.00101856       0.00075367       0.00273085
H        2.99078741       0.21305704      -2.24606758       0.08572147       0.00030798      -0.00042298       0.00368874
H       -5.09326713      -1.14846456       0.85750314       0.11802873       0.00275913      -0.00022391      -0.00059895
S        4.52388421       0.25846105      -0.40137574      -0.30705798       0.00209701      -0.00100458      -0.00327345
C        3.61930888      -1.18581165       0.17881664      -0.19655529      -0.00625472      -0.00118108      -0.00262902
H        3.27624737      -1.78206068      -0.66263100       0.08525372      -0.00291573      -0.00314305       0.00052368
H        4.28114185      -1.78212861       0.80615065       0.09338103      -0.00505218      -0.00166450       0.00288008
H        2.75071404      -0.86294501       0.74551132       0.09233543       0.00317447      -0.00120093      -0.00163553
