20
Properties=species:S:1:pos:R:3:charge:R:1:forces:R:3 energy=-13025.464133433185 pbc="F F F"
C        3.71501302       0.48198809      -0.23181434      -0.27905491       0.00275883      -0.00459458      -0.00492031
C        3.15831477      -0.31039497       0.67370218      -0.14944205       0.00167052       0.00073801      -0.00111197
C        1.68819526      -0.45509253       0.94225716       0.46559241       0.00145909       0.00061846       0.00162791
O        1.30583975      -0.90621814       2.00229083      -0.45733553      -0.00277850       0.00109957      -0.00516001
N        0.86456083      -0.05848760      -0.07836703      -0.33189365       0.00087752       0.00061935       0.00021662
C       -0.54414491      -0.03881533      -0.10670546       0.11863618       0.00118922      -0.00366984      -0.00117126
C       -1.33296495      -0.23007671       1.02335984      -0.12272862       0.00310669       0.00011288       0.00071729
C       -2.71397435      -0.16781181       0.90383661      -0.13723907       0.00279771       0.00109632       0.00375338
C       -3.32218567       0.07815672      -0.31662854      -0.15491900      -0.00248908      -0.00807432       0.00261354
H       -4.39889099       0.12022897      -0.39288247       0.13828379      -0.00257830       0.00415355      -0.00301661
C       -2.53139595       0.26664281      -1.44034674      -0.13875005      -0.00527721       0.00199126      -0.00000768
C       -1.15276813       0.21033731      -1.33530999      -0.16586348      -0.00384566      -0.00580097      -0.00095498
H        4.78718993       0.54184562      -0.34826963       0.15110984       0.00246726      -0.00385313       0.00332172
H        3.12867347       1.12468075      -0.87447905       0.13574755       0.00148567       0.00298592       0.00679930
H        3.75930025      -0.90182224       1.34871905       0.12649155       0.00062617       0.00465190      -0.00035547
H        1.30673664       0.12214322      -0.96022291       0.25523609      -0.00285451       0.00177238       0.00116059
H       -0.86204844      -0.42922234       1.96912168       0.14370690       0.00181935       0.00200356       0.00120864
H       -3.32042437      -0.31780022       1.78545708       0.13610286      -0.00024662      -0.00078910       0.00245269
H       -2.98756219       0.45809891      -2.40089437       0.13730772       0.00358377       0.00242693      -0.00776544
H       -0.53636601       0.35847447      -2.21356978       0.12901156      -0.00377125       0.00251181       0.00059276
