20
Properties=species:S:1:pos:R:3:charge:R:1:forces:R:3 energy=-13025.452745340861 pbc="F F F"
C        3.67871357      -0.85498926       0.06497688      -0.27807230       0.00162311      -0.00037277      -0.00013970
C        3.22479555       0.37022404       0.28586978      -0.14358969      -0.00347258      -0.00163504       0.00259463
C        1.79392348       0.82220612       0.35120123       0.46349797      -0.00615080      -0.00331482      -0.00161884
O        1.54667729       1.99209640       0.56397287      -0.45916575       0.00158079      -0.00194388      -0.00193219
N        0.84531323      -0.14564212       0.16089360      -0.32992646      -0.00645436       0.00024934       0.00148176
C       -0.55869388      -0.01202028       0.16536307       0.11781123      -0.00157221       0.00253594       0.00579854
C       -1.21627962       1.19453409       0.38551738      -0.12302922       0.00131431      -0.00140788      -0.00632681
C       -2.60351944       1.22251282       0.36799713      -0.13701203       0.00550477       0.00426096       0.00546604
C       -3.34672596       0.07579861       0.13900586      -0.15479015       0.00281277       0.00129982      -0.00029046
C       -2.68658480      -1.12466149      -0.07697330      -0.13839972      -0.00029219       0.00037243       0.00537413
C       -1.30357379      -1.16766492      -0.06458465      -0.16609766      -0.00075982       0.00040315      -0.00577545
H       -0.79158067      -2.10660352      -0.23672008       0.12831365      -0.00416942       0.00210406       0.00505483
H        3.02866838      -1.70126286      -0.10423165       0.13521253       0.00359010      -0.00755461       0.00065443
H        4.73816336      -1.06202659       0.04409323       0.15016164       0.00723406       0.00590578      -0.00250341
H        3.91009263       1.18956232       0.44680244       0.12449928       0.00111341      -0.00070387       0.00191776
H        1.17270650      -1.07780744      -0.00396600       0.25440854       0.00332321       0.00662250      -0.00062124
H       -0.64113571       2.08482895       0.56490821       0.14422058      -0.00206006      -0.00214170      -0.00288162
H       -3.10639698       2.16360646       0.53856208       0.13615645      -0.00218952       0.00006462      -0.00071256
H       -4.42626993       0.11528288       0.12848420       0.13847333       0.00099065      -0.00080520       0.00271291
H       -3.24719483      -2.03111961      -0.25412213       0.13732786      -0.00196580      -0.00393856      -0.00825258
