29
Properties=species:S:1:pos:R:3:charge:R:1:forces:R:3 energy=-26037.021985301693 pbc="F F F"
C       -1.80976003       1.03503580      -0.08674097      -0.12832010       0.00379534      -0.00293196      -0.00394865
C       -3.15348933       1.21854781       0.20504515      -0.14115645       0.00342967       0.00064594      -0.00134135
C       -3.94238234       0.20404948       0.73321258       0.03620301       0.00008534       0.00182641      -0.00099147
C       -5.40535792       0.41659891       1.01374571      -0.22194742      -0.00242067      -0.00218153      -0.00094150
C       -3.34025573      -1.02648340       0.97250226      -0.15032858      -0.00051580       0.00261695       0.00389172
C       -2.00163736      -1.23000118       0.69092165      -0.17106459      -0.00109332      -0.00119058      -0.00196031
C       -1.22552927      -0.20288568       0.15932098       0.12271533       0.00483282       0.00017206       0.00690812
N        0.13140697      -0.49314495      -0.08914764      -0.36032423       0.00101449       0.00131932      -0.00480025
C        1.09006900       0.28684704      -0.67370030       0.42048335       0.00336475       0.00234632       0.00324742
O        0.89276641       1.41146959      -1.07919589      -0.42592263       0.00245381      -0.00234707      -0.00148007
C        2.44714662      -0.39265843      -0.78593233      -0.13062386      -0.00101645      -0.00057511      -0.00280003
C        3.46028749       0.51875109      -1.45160618      -0.10058589      -0.00068359      -0.00016293      -0.00140351
S        5.09228769      -0.23199924      -1.63499352      -0.21103124       0.00586850       0.00022758       0.00244036
C        5.69604194      -0.05674755       0.05845327      -0.20160225      -0.00004582       0.00067931       0.00332969
H       -1.22070097       1.83346709      -0.49882879       0.13330972       0.00168723       0.00127927       0.00110079
H       -3.59582922       2.18699751       0.01279834       0.12647954      -0.00301053       0.00034885       0.00161547
H       -6.01133156       0.15028337       0.14756061       0.08055244       0.00010327      -0.00068880      -0.00483174
H       -5.61091942       1.45753033       1.25188987       0.07758519       0.00171764      -0.00207327       0.00056816
H       -5.73489030      -0.19878572       1.84731799       0.07791208      -0.00122676       0.00155212       0.00503210
H       -3.92638282      -1.83540318       1.38754152       0.12701429       0.00274878      -0.00358403      -0.00022978
H       -1.54689632      -2.19397931       0.88022497       0.12713431      -0.00207986      -0.00100562       0.00238227
H        0.41785704      -1.41644076       0.18252342       0.26173827       0.00456824       0.00679907      -0.00125583
H        2.32973562      -1.31392925      -1.35880724       0.07636689       0.00015395      -0.00285602       0.00139529
H        2.77474132      -0.69036810       0.21244977       0.06843062      -0.00628805       0.00170067      -0.00424383
H        3.11994967       0.77628960      -2.44944810       0.11160131      -0.00566480       0.00196773       0.00081909
H        3.54334845       1.45070058      -0.89897225       0.09867671      -0.00117426       0.00101643      -0.00195206
H        6.74038551      -0.35819267       0.05715264       0.11555789      -0.00395236      -0.00535046      -0.00003695
H        5.15078855      -0.69050495       0.75341915       0.08806183      -0.00333735       0.00068036      -0.00265859
H        5.62998529       0.97846182       0.38462955       0.09308447      -0.00331369      -0.00023057       0.00214541
