26
Properties=species:S:1:pos:R:3:charge:R:1:forces:R:3 energy=-24966.512226090665 pbc="F F F"
C        3.91297654       1.08777493       0.06468117      -0.15989417       0.00187934       0.00125685       0.00258220
C        2.78238150       1.84645217       0.32304314      -0.13385849       0.00255521       0.00214055      -0.00299512
C        1.52314838       1.26574806       0.39012535      -0.10856271       0.00349027       0.00200739      -0.00054239
C        1.39627942      -0.10420809       0.19076570       0.14310069       0.00120288       0.00043770       0.00397059
N        0.15283727      -0.77624274       0.20631548      -0.36205447       0.00253192       0.00065908      -0.00098152
C       -1.04968364      -0.33303188       0.67980954       0.41354454       0.00169551      -0.00549299       0.00531147
O       -1.22946620       0.77833191       1.13417826      -0.42398140      -0.00790108       0.00355307       0.00263331
C       -2.17435441      -1.34798978       0.59765015      -0.14769658       0.00043089       0.00147642       0.00159214
C       -3.44576697      -0.75144062       0.00449079      -0.11557080       0.00305805       0.00259433       0.00314603
S       -3.47045393      -0.65573631      -1.80387128      -0.20306624       0.00418400       0.00369703       0.00108013
C       -2.23699862       0.64120671      -2.03725953      -0.18681748      -0.00355972      -0.00425841      -0.00257801
C        2.53111738      -0.86982874      -0.06938575      -0.15444562      -0.00436123      -0.00194325      -0.00237407
C        3.78124490      -0.27946776      -0.13018115      -0.14056669      -0.00191021      -0.00114504       0.00468727
H        4.88608507       1.55418056       0.01690348       0.13568117       0.00341381       0.00167282       0.00106035
H        2.87376146       2.91189622       0.47847019       0.13374102      -0.00304650       0.00178289       0.00108673
H        0.64957620       1.85744805       0.59839475       0.13025419       0.00100982      -0.00111621       0.00588871
H        0.17573766      -1.71767283      -0.13921350       0.25519988       0.00274239      -0.00257446      -0.00201115
H       -1.87299154      -2.23767545       0.04646363       0.07205985      -0.00394482      -0.00022281       0.00706079
H       -2.38043811      -1.63879818       1.62800431       0.09088007       0.00104684       0.00021993      -0.00286944
H       -4.29706506      -1.37734911       0.26470156       0.10617390       0.00594533      -0.00449913      -0.00485537
H       -3.61756148       0.23738985       0.42403970       0.10107500       0.00322066       0.00577114      -0.00180448
H       -2.37830813       1.44796399      -1.32521457       0.09530181      -0.00002923      -0.00303952      -0.00718185
H       -2.36455199       1.02441289      -3.04630243       0.12121654      -0.00384369       0.00049690       0.00146589
H       -1.23290219       0.24303282      -1.93871554       0.07512697      -0.00154347       0.00112691      -0.00418566
H        2.42693510      -1.93740245      -0.21783771       0.12817250      -0.00126073      -0.00508337      -0.00477054
H        4.65349245      -0.88570449      -0.32809205       0.13498646      -0.00700691       0.00048194      -0.00441614
