24
Properties=species:S:1:pos:R:3:charge:R:1:forces:R:3 energy=-25387.48283628268 pbc="F F F"
C        2.76856204       1.22174234       0.18299158      -0.09841481      -0.00128342       0.00101617       0.00075988
C        1.99570928       1.23087772      -1.06688118      -0.49310815       0.00208222       0.00128270      -0.00053322
C        0.63823058       0.93325681      -1.16833796       0.30702537      -0.00062448      -0.00204764       0.00055417
O       -0.07294033       1.00611847      -2.19314813      -0.57794935       0.00060607      -0.00461102      -0.00140933
N        0.03000549       0.48250934       0.05746832      -0.32344124       0.00007860       0.00234316       0.00337416
C       -1.18947628      -0.10365861       0.23781480       0.38299823       0.00327352      -0.00560341      -0.00277920
C       -2.21575361      -0.09048905      -0.73446442      -0.14531313       0.00066100       0.00280604       0.00199761
C       -3.41192063      -0.69248354      -0.42365195      -0.14568481       0.00125096      -0.00143822       0.00007242
C       -3.59324820      -1.29915011       0.81981811      -0.21460536      -0.00209157       0.00051043       0.00197682
C       -2.52957752      -1.26143901       1.69774343       0.02882452      -0.00149845       0.00230973       0.00071089
N       -1.35679595      -0.68895321       1.43597153      -0.42472377       0.00165728       0.00129747       0.00047257
H        2.20478714       1.65005511       1.02027917       0.07546452      -0.00160063       0.00006164       0.00268001
H        3.68134362       1.81035513       0.08699520       0.07632785       0.00113963      -0.00125600       0.00268461
H        2.47209539       1.51864995      -1.99182313       0.10603323       0.00194166       0.00121632      -0.00220689
H        0.64827926       0.33224362       0.84018808       0.23447776       0.00016363       0.00179345      -0.00012602
H       -2.01144030       0.38460541      -1.67840179       0.12415213       0.00317543      -0.00233719      -0.00314023
H       -4.21349544      -0.69461486      -1.15238340       0.11008207       0.00236086      -0.00020533       0.00023218
H       -4.51989993      -1.78119469       1.09209541       0.11696780      -0.00179064      -0.00089857       0.00171017
H       -2.61733995      -1.71963831       2.67769693       0.06814918       0.00260255      -0.00099129      -0.00121746
S        3.47643492      -0.39405266       0.88659410      -0.29924908      -0.00052403       0.00115902       0.00100421
C        2.57855648      -1.66422793      -0.02726051      -0.18402626      -0.00233492       0.00021874      -0.00222566
H        3.20461340      -2.55694030      -0.05772405       0.09592117      -0.00190715       0.00138034      -0.00308644
H        1.64209942      -1.91105417       0.46474580       0.09244712      -0.00232066       0.00280428      -0.00589302
H        2.37833547      -1.31599329      -1.03556294       0.08764500      -0.00501740      -0.00081083       0.00438774
