26
Properties=species:S:1:pos:R:3:charge:R:1:forces:R:3 energy=-27462.931226622666 pbc="F F F"
C        2.82906328      -1.36127441       0.99990626      -0.10940906       0.00396413      -0.00042131      -0.00027651
C        2.43811364      -0.03740265       1.51036223      -0.50022715      -0.00344451      -0.00028404      -0.00039958
C        1.17998102       0.53415562       1.34676000       0.30012706      -0.00507052       0.00040860      -0.00644389
O        0.79861932       1.64287530       1.76529643      -0.55124313      -0.00512800      -0.00247748       0.00141315
N        0.24218202      -0.26510659       0.58737904      -0.30477464      -0.00440290       0.00013393       0.00056819
C       -1.02662197       0.03581568       0.20326715       0.17491861      -0.00187227      -0.00226764       0.00021280
C       -1.78161356       1.08663650       0.76069471      -0.12454241       0.00316013      -0.00248853       0.00127421
C       -3.07898198       1.29435263       0.34492498      -0.14866298       0.00504856       0.00045644      -0.00203269
C       -3.67246103       0.48992341      -0.63273928       0.05108164      -0.00196443      -0.00528204       0.00531798
C       -2.92507280      -0.54810111      -1.19607162      -0.16894589       0.00217353       0.00331932      -0.00108722
C       -1.63375588      -0.76682241      -0.78629192      -0.17674418       0.00050480      -0.00218265       0.00043752
C       -5.01859874       0.72377271      -1.04748461       0.24586318      -0.00108104       0.00156793      -0.00282394
N       -6.10528318       0.91005106      -1.38292121      -0.49696609      -0.00344474      -0.00003092       0.00079269
H        3.80344064      -1.66868377       1.38035334       0.08284792       0.00229031      -0.00598590       0.00578236
H        2.11527495      -2.14284447       1.28564253       0.08005814       0.00543502       0.00132967       0.00149587
H        3.16290462       0.58280723       2.01663032       0.11063544       0.00381971      -0.00227484       0.00073273
H        0.66485136      -1.03789704       0.09480997       0.22501455       0.00404724       0.00625773       0.00202459
H       -1.30293581       1.70387188       1.50196246       0.12953751       0.00368467       0.00605581      -0.00566427
H       -3.66032060       2.09681091       0.77723983       0.11842732       0.00482859      -0.00149497      -0.00190412
H       -3.36810960      -1.17608390      -1.95612003       0.11799536       0.00214214       0.00320936       0.00178289
H       -1.05415617      -1.56409516      -1.23245154       0.11787752      -0.00000189       0.00081938      -0.00111713
S        2.98208621      -1.62505777      -0.86777572      -0.24771410      -0.00021680      -0.00301895      -0.00828716
C        3.52259029       0.02286847      -1.35414800      -0.19393760      -0.00256514      -0.00208830       0.00365707
H        2.76455849       0.74456772      -1.06410208       0.08831117      -0.00407228       0.00313813       0.00019378
H        3.65330001       0.03272406      -2.43584412       0.10175262      -0.00189503      -0.00162004       0.00624899
H        4.46597621       0.27542573      -0.87539664       0.07871926      -0.00593998       0.00522135      -0.00189763
