41
Properties=species:S:1:pos:R:3:charge:R:1:forces:R:3 energy=-34741.94895761988 pbc="F F F"
C        6.83774445      -1.25342972       0.44530612       0.25566995       0.00296960       0.00382842      -0.00674252
N        6.73044214      -0.11888441       1.18496976      -0.40551320      -0.00095790      -0.00068376      -0.00098899
C        5.58528905       0.50545583       1.11737605       0.08105520      -0.00119951      -0.00193701      -0.00140332
H        5.47812242       1.41255853       1.70227878       0.08393320       0.00097346      -0.00172565      -0.00048555
C        4.50437754       0.04820016       0.32532119       0.10718007      -0.00184658      -0.00096534      -0.00053112
C        3.26225664       0.71333043       0.24934149      -0.15322308       0.00019130       0.00008093      -0.00061500
C        2.28530618       0.19940892      -0.54987971       0.10419735      -0.00110463       0.00398420       0.00082173
N        1.04173410       0.83351614      -0.74241952      -0.32812533      -0.00214287       0.00405362       0.00098881
C        0.31983724       1.47920827       0.22062584       0.41111872       0.00055515       0.00380878       0.00251269
O        0.72744921       1.71506240       1.33739903      -0.44437233       0.00029123      -0.00307236      -0.00849250
C       -1.10938386       1.81015933      -0.19026884      -0.13404353      -0.00139294      -0.00067691       0.00050605
C       -1.97721347       0.55113922      -0.00339647      -0.05553597       0.00020754       0.00255701      -0.00025239
S       -1.74069726      -0.65514504      -1.35010098      -0.16807315      -0.00029505       0.00617155       0.00131032
C       -2.50352495       0.18055737      -2.75982484      -0.17493248      -0.00170058      -0.00221130      -0.00259272
C       -3.43819273       0.95461906       0.28587397      -0.03300424       0.00477242       0.00225965       0.00010316
N       -4.38136257      -0.04795515       0.71378800      -0.27802840       0.00059331       0.00349280      -0.00199007
C       -3.94021387      -0.82869625       1.85262892      -0.13657779      -0.00158987       0.00051910      -0.00271125
C       -4.99590282      -0.85972778      -0.31574827      -0.13547432      -0.00071371      -0.00162968       0.00028410
C        2.49751121      -1.00468674      -1.26584278      -0.14530003       0.00024484       0.00263366       0.00332534
H        1.68517969      -1.41082628      -1.85548941       0.12058946       0.00742310       0.00188716      -0.00067221
C        3.68953244      -1.65522037      -1.19998289      -0.16956517      -0.00183556      -0.00175464      -0.00158594
C        4.73488490      -1.13865054      -0.39537328       0.28299889      -0.00462596      -0.00205931       0.00136384
N        5.93030942      -1.78705179      -0.32342003      -0.41173139      -0.00354201       0.00246753       0.00208669
H        7.79080719      -1.76199370       0.51016608       0.06199121       0.00339469       0.00208573       0.00304915
H        3.08092261       1.60674443       0.82241254       0.13594192      -0.00173070      -0.00490259       0.00294692
H        0.48110094       0.44532536      -1.49136918       0.22104883      -0.00086167      -0.00374315       0.00186265
H       -1.16721436       2.17240438      -1.21407380       0.06384914      -0.00163949       0.00004247       0.00158166
H       -1.45640798       2.58888909       0.48127306       0.09322922       0.00298618      -0.00169267       0.00038173
H       -1.59412187       0.02209227       0.87140442       0.11760817      -0.00215315       0.00134456      -0.00137070
H       -1.98362871       1.09434249      -3.03557670       0.08050656      -0.00226186      -0.00103974       0.00122914
H       -2.44510873      -0.51993430      -3.58929415       0.11861835       0.00159469      -0.00578921      -0.00070687
H       -3.54871782       0.39747171      -2.56561810       0.08310644      -0.00072974       0.00109413       0.00289157
H       -3.84454417       1.47550245      -0.58108876       0.07340609       0.00196033       0.00115110       0.00275747
H       -3.36923622       1.69403288       1.08544885       0.08246099       0.00154450      -0.00022777       0.00156421
H       -4.79373119      -1.33740734       2.29735434       0.09152314      -0.00069324      -0.00274847      -0.00117959
H       -3.51149181      -0.17246530       2.61017855       0.07670920      -0.00064465      -0.00455799      -0.00012420
H       -3.19277933      -1.59255947       1.59906657       0.06846315       0.00283218       0.00481814      -0.00382703
H       -4.32610139      -1.61788297      -0.73533630       0.06641033       0.00230234      -0.00100413      -0.00104358
H       -5.86520239      -1.36989609       0.09872670       0.08943379      -0.00440208      -0.00106273       0.00097987
H       -5.34992769      -0.22027488      -1.12350798       0.07535838       0.00180983       0.00100777       0.00157227
H        3.86215602      -2.56918552      -1.74751947       0.12709266       0.00141635      -0.00580497       0.00319710
