30
Properties=species:S:1:pos:R:3:charge:R:1:forces:R:3 energy=-27517.902569060192 pbc="F F F"
N       -1.38668330      -2.56983948       1.45643218      -0.61310047      -0.00172998       0.00276754       0.00094768
H       -0.61120405      -2.13258741       1.93310236       0.26663420       0.00157879      -0.00390588      -0.00229879
C       -2.20736163      -1.79714705       0.71015671       0.41918501       0.00091529       0.00146779      -0.00109571
O       -2.99992645      -2.23851936      -0.09860451      -0.46971896       0.00187980      -0.00094253      -0.00052625
C       -2.05674195      -0.28287370       0.96391051       0.00417083       0.00484249      -0.00075951      -0.00259462
N       -0.85162233       0.24270595       0.30347327      -0.17035159      -0.00069294       0.00383505      -0.00021962
C        0.37892400       0.05859669       0.82040452       0.39911440      -0.00250780      -0.00702918      -0.00454597
O        0.56028983      -0.54819926       1.87325453      -0.45989671       0.00494027       0.00291842       0.00217692
C        1.53828385       0.64932020       0.04052551      -0.12051006      -0.00609971       0.00027776       0.00165443
C        2.85861214       0.12911280       0.57989123      -0.10827181      -0.00527758      -0.00220267       0.00193715
S        4.29391132       0.79897264      -0.28414843      -0.20959893       0.00424837      -0.00048357      -0.00247491
C        4.20871217      -0.16307427      -1.81018553      -0.19977716       0.00046911       0.00100692      -0.00051401
C       -1.19824628       1.09742937      -0.82989254      -0.07113965      -0.00320359       0.00281456      -0.00212651
C       -2.53151189       1.68643313      -0.38651366      -0.14571956      -0.00690430      -0.00238806       0.00395472
C       -3.20542323       0.52300195       0.34722561      -0.15225723      -0.00028291      -0.00537198       0.00346859
H       -1.35574353      -3.55273712       1.25138187       0.33906353       0.00321432       0.00476084       0.00452631
H       -1.95605022      -0.13000771       2.03709007       0.10925413       0.00246765      -0.00216043      -0.00404930
H        1.41361383       0.41918591      -1.01675411       0.06615393      -0.00056949       0.00247004       0.00173460
H        1.49697711       1.73609941       0.12719069       0.08343218       0.00125364       0.00163487      -0.00018111
H        2.87823012      -0.95850226       0.55028392       0.09537158      -0.00378053      -0.00524831      -0.00076941
H        2.96012342       0.41007556       1.62288242       0.11176492       0.00025143      -0.00015901       0.00239475
H        5.10068987       0.07313442      -2.38432346       0.11679216      -0.00042369      -0.00065209       0.00205500
H        3.33521139       0.09511938      -2.40405273       0.08440641       0.00115811      -0.00469948      -0.00382395
H        4.19912834      -1.22963657      -1.59713876       0.09372872       0.00004056       0.00500814       0.00354853
H       -0.43452270       1.84660372      -1.00855134       0.08049529       0.00336748      -0.00071359       0.00050469
H       -1.31823114       0.50043680      -1.73585832       0.09149262       0.00141378      -0.00266070      -0.00358360
H       -2.35098110       2.51072235       0.30270439       0.08694535      -0.00273009       0.00174285       0.00164049
H       -3.11411420       2.05952085      -1.22513558       0.08488040      -0.00019419       0.00288708       0.00145073
H       -3.90751052       0.85856893       1.10592762       0.08045054       0.00251852       0.00498080       0.00100058
H       -3.74210268      -0.12403521      -0.34071058       0.10700594      -0.00016193       0.00080461      -0.00419173
