55
Properties=species:S:1:pos:R:3:charge:R:1:forces:R:3 energy=-48017.77653769626 pbc="F F F"
N        0.62327866       0.58327040       0.66781512       0.09759051       0.00057550      -0.00279462       0.00452671
N        0.34341261       0.05609752      -0.53340116      -0.34410158       0.00109176       0.00585418       0.00187196
C       -0.97145746       0.15390798      -0.66044391      -0.01439518      -0.00002975       0.00504566      -0.00233240
C       -1.55442461       0.75009456       0.47452733       0.01933410       0.00128669      -0.00083746       0.00189350
C       -0.47386419       1.00808068       1.30597591      -0.14066793       0.00159439       0.00676627      -0.00113432
C       -2.96226762       1.00888266       0.66507970       0.22072160      -0.00091895      -0.00487996      -0.00311826
N       -3.79048000       0.65077391      -0.33289856      -0.30311024      -0.00478448       0.00147784      -0.00254985
C       -5.06841682       0.88703826      -0.14005910       0.28368053      -0.00481386      -0.00101392       0.00287585
C       -5.57268060       1.48065778       1.01430843       0.02642313       0.00398949       0.00642477       0.00130982
N       -4.77313773       1.84360286       2.00604892      -0.40374738       0.00742457      -0.00024125       0.00057304
C       -3.48457792       1.60415829       1.82510062       0.04023924       0.00632216       0.00094013      -0.00301347
N       -5.95646036       0.50720706      -1.17798523       0.12662897       0.00019972      -0.00172506       0.00070734
N       -5.82275009       0.93279549      -2.46023847      -0.21756561       0.00117230       0.00152719       0.00030236
N       -6.80894581       0.50178480      -3.15577983      -0.32182023       0.00134887       0.00190808      -0.00084367
C       -7.63749861      -0.23364828      -2.33829085       0.25491989       0.00496782      -0.00386444      -0.00229963
C       -7.09301097      -0.23467687      -1.05762862       0.14947215       0.00014047      -0.00120625       0.00046660
C       -7.69336317      -0.89426546       0.01620765      -0.18116483      -0.00187703       0.00016067       0.00010399
C       -8.87351006      -1.55243661      -0.24963585      -0.16675180      -0.00169915       0.00005662      -0.00271624
C       -9.44286208      -1.55363229      -1.54003993      -0.17796366       0.00226703      -0.00141116      -0.00448624
C       -8.84431045      -0.90616005      -2.59216878      -0.18479511      -0.00092159       0.00691494      -0.00200701
C        2.00616110       0.63902237       1.13347504       0.02307243       0.00002201       0.00141197      -0.00113667
C        2.82908431       1.54823419       0.22548639      -0.13700554      -0.00240605       0.00068692      -0.00382210
C        4.30432456       1.32960023       0.52356344      -0.05693953      -0.00350678       0.00378701       0.00203524
N        4.71424114      -0.00065005       0.12830239      -0.26287296      -0.00235574       0.00216835       0.00369961
C        3.65533946      -0.99026374       0.10497049      -0.07105137       0.00086703      -0.00220644       0.00072820
C        2.64056763      -0.75431665       1.23198616      -0.13991643      -0.00051802       0.00056881       0.00343068
C        6.05432995      -0.34722133       0.52033859       0.25396696      -0.00247282      -0.00187465       0.00080259
O        6.69287480       0.53878304       1.13734213      -0.49379125      -0.00410720       0.00256636      -0.00413796
C        6.54156748      -1.60521119       0.16437007      -0.49235004      -0.00060705      -0.00356751      -0.00009709
C        7.92599035      -1.93955303       0.49889394      -0.12366327       0.00293854       0.00033575      -0.00011003
H       -1.46087759      -0.19829789      -1.55139109       0.11048716       0.00134250      -0.00268599      -0.00337500
H       -0.40770229       1.44969891       2.28410083       0.13101934       0.00118094      -0.00145582       0.00223514
H       -2.81730196       1.89093086       2.62703654       0.07451241      -0.00268687       0.00523336       0.00325599
H       -7.23767931      -0.87927124       0.99199359       0.11829597      -0.00218104      -0.00220641       0.00084143
H       -9.37952640      -2.08265544       0.54446765       0.12653412      -0.00372620       0.00151479       0.00093878
H      -10.37255227      -2.08287215      -1.69323775       0.12757699       0.00071704      -0.00474332       0.00409386
H       -9.27818583      -0.90739395      -3.58101085       0.13034204       0.00193573      -0.00456287      -0.00350502
H        1.96651277       1.07683757       2.13085136       0.07381628      -0.00121025      -0.00156320      -0.00127605
H        2.62173652       1.30587021      -0.81729441       0.09222645       0.00028052       0.00207151      -0.00549588
H        2.55350445       2.58817915       0.39335594       0.06782092       0.00836825       0.00011484       0.00474954
H        4.91695989       2.05872103      -0.00427921       0.07847949       0.00139510       0.00182515       0.00398670
H        4.48810096       1.49299157       1.59627923       0.07549407      -0.00059466      -0.00272451       0.00225083
H        3.13476588      -0.96719548      -0.85505017       0.07776551      -0.00402041      -0.00401784       0.00031301
H        4.08820953      -1.97674352       0.22260709       0.07595015       0.00197256      -0.00491860       0.00078492
H        1.87268276      -1.52567506       1.21988748       0.07789841       0.00021184      -0.00286657      -0.00248047
H        3.18678497      -0.82856544       2.17137947       0.07706099       0.00147919       0.00464207       0.00557612
H        6.05413123      -2.20694955      -0.58557772       0.12265169      -0.00586534      -0.00137278      -0.00182674
H        8.31149571      -1.30771106       1.30421867       0.09566157      -0.00207343       0.00148730       0.00307652
H        8.08156855      -2.98296486       0.78743738       0.09315438      -0.00141891      -0.00047716      -0.00093105
H       -6.63382153       1.66336328       1.11073362       0.08666861       0.00364922      -0.00667298       0.00472009
S        9.16964154      -1.75990198      -0.89237109      -0.26296732      -0.00198401      -0.00052956      -0.00174035
C        8.94977584       0.01021646      -1.16935338      -0.20996211      -0.00191057      -0.00222330      -0.00087851
H        9.12350767       0.57237256      -0.25286803       0.09300471       0.00457330       0.00099638      -0.00618724
H        7.92591126       0.19803683      -1.48562962       0.09449782      -0.00045732      -0.00070402      -0.00170857
H        9.65362269       0.32462103      -1.94011557       0.10963500      -0.00416626       0.00286095       0.00105951
