64
Properties=species:S:1:pos:R:3:charge:R:1:forces:R:3 energy=-64295.06143006168 pbc="F F F"
C        2.41958631      -1.82415288       2.03651396       0.05969986      -0.00193821       0.00141670      -0.00016337
N        1.93401564      -1.03719700       1.08950974      -0.32314026      -0.00898404      -0.00034915       0.00258004
C        2.83298529      -0.27082845       0.47115442       0.42321998      -0.00100351      -0.00497079       0.00366203
N        2.46582836       0.58448339      -0.53366177      -0.30670717       0.00245922      -0.00262855       0.00366208
C        1.24350743       0.82820494      -1.16273462       0.05125236       0.00033884      -0.00328680      -0.00609440
C        0.07504482       0.14116173      -0.89082488      -0.12161552      -0.00232192       0.00383033       0.00420409
C       -1.09001375       0.45587740      -1.58991863       0.12361959      -0.00065170       0.00149566       0.00103539
N       -2.31781949      -0.20523882      -1.35459290      -0.32179439       0.00020966       0.00198304       0.00195310
C       -2.59813620      -1.19376997      -0.46304276       0.41036353      -0.00235857       0.00582760       0.00165356
O       -1.78311424      -1.71544327       0.26842948      -0.42810565      -0.00248560      -0.00407172      -0.00728137
C       -4.06776622      -1.62495942      -0.43887548      -0.13179629       0.00409432      -0.00031007      -0.00121668
C       -5.04273112      -0.53719224       0.04299841      -0.05986875       0.00225350      -0.00706242       0.00154413
S       -5.45971214       0.67618216      -1.25218267      -0.17516300      -0.00221607       0.00426474      -0.00417758
C       -6.63834516      -0.25152341      -2.24971434      -0.18369155      -0.00019976       0.00159615       0.00086261
C       -6.26904492      -1.21632808       0.65465947      -0.02490748       0.00026313      -0.00321828       0.00246136
N       -7.36376391      -0.32147494       0.96746645      -0.23454061       0.00116706       0.00125062       0.00015054
C       -8.52981297      -1.06423495       1.40992254      -0.14082645       0.00051806      -0.00099568      -0.00019344
C       -6.98512246       0.69461745       1.93279466      -0.13652825       0.00066745       0.00056977       0.00217386
C       -1.07810813       1.44863842      -2.55021483      -0.17723294       0.00035994      -0.00256257      -0.00259815
C        0.09564842       2.14873775      -2.82425275      -0.19520999      -0.00075400       0.00252569      -0.00253118
C        1.25163610       1.84296299      -2.13940233       0.08770840       0.00064637       0.00011505      -0.00383646
O        2.46420696       2.44993782      -2.32854239      -0.21912329       0.00156331       0.00130378       0.00131875
C        2.51312078       3.54085163      -3.22725030      -0.07300718      -0.00024436      -0.00428120       0.00325892
N        4.13495308      -0.22910562       0.72617954      -0.34228662      -0.00022840      -0.00252687       0.00789722
C        4.62880831      -0.99171170       1.70639950       0.16371831       0.00668994      -0.00344775       0.00194560
C        6.04945366      -0.87343444       1.97019767       0.00105060       0.00154415       0.00087624      -0.00054247
C        6.82824405      -1.18529756       3.10587320       0.01045761      -0.00350265       0.00314935      -0.00125639
N        8.10418728      -0.89466206       2.95398704      -0.37668610      -0.00480138      -0.00046399      -0.00174817
N        8.19054866      -0.37970752       1.70690585       0.12632662      -0.00149803       0.00503820       0.00157266
C        9.35839280       0.04990332       1.14819005      -0.04589308       0.00163588      -0.00300669       0.00043020
C        9.33158321       0.55675036      -0.10545470      -0.15466990      -0.00115068       0.00033584       0.00072561
C        8.10138019       0.63606794      -0.81339548      -0.11844929       0.00012808       0.00062173      -0.00090318
C        6.94072059       0.20574781      -0.24700909      -0.13759916       0.00098764       0.00010346      -0.00107571
C        6.97878067      -0.33100510       1.06677825       0.10422323       0.00099904      -0.00212186      -0.00139329
C        3.75469989      -1.84993206       2.38614123      -0.08106902       0.00076007       0.00113245      -0.00514446
Cl       4.27255158      -2.97845503       3.60371142      -0.06712294      -0.00072385       0.00214580      -0.00706804
H        1.71518099      -2.46887122       2.54230722       0.09488047      -0.00278647       0.00264153       0.00174984
H        3.23350064       1.13313169      -0.87686830       0.25870499      -0.00445994       0.00458223      -0.00178988
H        0.08550618      -0.62302635      -0.13982841       0.14401475       0.00290121      -0.00216925       0.00146310
H       -3.10733908       0.16814953      -1.86570179       0.22444609       0.00441947       0.00363589       0.00429658
H       -4.12699248      -2.46435161       0.24891410       0.08318868       0.00091844       0.00251034      -0.00063202
H       -4.37422292      -1.97730584      -1.42417834       0.06179783      -0.00111943      -0.00299353       0.00313794
H       -4.55815325       0.05970968       0.81411392       0.11048333      -0.00232439       0.00048147      -0.00153240
H       -6.93523919       0.40681907      -3.06187649       0.12031779       0.00413226      -0.00009551       0.00107485
H       -6.20365790      -1.15507525      -2.67199936       0.07939207      -0.00344494       0.00197719       0.00032048
H       -7.50869397      -0.49348112      -1.64801917       0.08361331       0.00000686       0.00140406      -0.00112964
H       -5.92200842      -1.76264679       1.54587815       0.07194494       0.00354090       0.00112071       0.00333253
H       -6.62346105      -1.97323379      -0.05057168       0.06956934       0.00133257      -0.00093776       0.00015788
H       -8.35853023      -1.59898634       2.35573471       0.06645364      -0.00165255      -0.00207963       0.00139036
H       -9.36402174      -0.38212287       1.55495104       0.08448960      -0.00164451      -0.00124750      -0.00285599
H       -8.81397844      -1.78835119       0.64869719       0.07424030       0.00047021      -0.00132976      -0.00205185
H       -6.22507089       1.34799191       1.51191323       0.07339000      -0.00078687      -0.00160380      -0.00043036
H       -7.85178944       1.30547284       2.17187709       0.08714919       0.00120302       0.00171589      -0.00029180
H       -6.60133042       0.26288246       2.86876230       0.06228380       0.00208993      -0.00035781       0.00063552
H       -1.97807310       1.69217162      -3.09913397       0.12881759       0.00113055       0.00253513      -0.00206286
H        0.08343947       2.92404738      -3.57249473       0.13306388       0.00090667      -0.00084646      -0.00599050
H        2.28216099       3.22892447      -4.24703505       0.07925750      -0.00157013      -0.00099073       0.00714321
H        3.53401002       3.90713396      -3.18973193       0.09325173      -0.00645708      -0.00212193      -0.00162575
H        1.83304538       4.33792103      -2.92343133       0.07870633       0.00804659      -0.00335229       0.00173894
H        6.50426835      -1.59353959       4.04521042       0.11764939      -0.00072831       0.00103402      -0.00265804
H       10.23379353      -0.05210059       1.76810543       0.13885096       0.00377542       0.00171479       0.00196318
H       10.25004008       0.89824280      -0.55491369       0.14062221      -0.00173855      -0.00030786      -0.00286531
H        8.10025172       1.04618008      -1.81216257       0.13473812       0.00218587       0.00045590      -0.00183263
H        5.98086798       0.25695904      -0.73521491       0.12007710      -0.00056965       0.00034662       0.00347618
