62
Properties=species:S:1:pos:R:3:charge:R:1:forces:R:3 energy=-51302.19441262417 pbc="F F F"
N       -1.28194206      -0.96123694      -0.78490781       0.02982154       0.00431073       0.00097308       0.00567960
N       -0.06717705      -0.45761686      -0.47073216      -0.33898020       0.00276366       0.00548932       0.00393598
C        0.73381126      -1.48358849      -0.25454160       0.12932718       0.00005164       0.00256766      -0.00301953
C        0.01546195      -2.70736059      -0.40564203       0.00258943      -0.00113775      -0.00127205       0.00498309
C       -1.27844303      -2.30419638      -0.76937390       0.26101848       0.00019689      -0.00070698      -0.00114745
N       -2.30996015      -3.12068582      -1.04634283      -0.45442551      -0.00331976       0.00095212      -0.00193424
C       -1.99667240      -4.38847261      -0.89273604       0.22468522      -0.00157806      -0.00029272      -0.00139250
N       -0.82923502      -4.91999767      -0.50182831      -0.45761105      -0.00174367       0.00146996       0.00170271
C        0.17736335      -4.09325589      -0.23428811       0.36330348       0.00022379      -0.00088449       0.00220192
N        1.34730185      -4.65538914       0.18923529      -0.63859588       0.00003483      -0.00115136      -0.00184581
C        2.14413680      -1.24746601       0.07887651       0.02888275      -0.00258599      -0.00109504      -0.00125047
C        3.15244505      -2.06876978      -0.41664505      -0.13780373      -0.00018048      -0.00088286      -0.00051573
C        4.48013025      -1.81954660      -0.10602473      -0.17092656       0.00317803      -0.00076937      -0.00791330
C        4.80037696      -0.74468505       0.70587610       0.15065406       0.00174098      -0.00791633       0.00178001
C        3.80751521       0.08763933       1.20539646      -0.14780694       0.00113630      -0.00123706      -0.00616154
C        2.48765197      -0.16249162       0.88507027      -0.13081960      -0.00033253       0.00069493      -0.00397922
O        6.12582124      -0.58576753       1.06582367      -0.23312202       0.00062535       0.00211092      -0.00437599
C        6.73440061       0.63765663       0.91652745       0.17731699      -0.00037185      -0.00026650      -0.00346786
C        7.85511976       0.85012127       1.70472718      -0.15880795      -0.00444748      -0.00001756       0.00084182
C        8.55748435       2.03648767       1.59455785      -0.14936703      -0.00335505      -0.00319898       0.00493659
C        8.15503820       3.00873544       0.69099398      -0.16385393       0.00105623      -0.00182606       0.00251918
C        7.04268296       2.77808889      -0.10365087      -0.14572214       0.00138586       0.00087658       0.00069481
C        6.32582863       1.59774733       0.00183786      -0.12655620       0.00256647       0.00097430      -0.00089365
C       -2.41930145      -0.08782107      -1.05474590       0.01979450       0.00425206      -0.00489166       0.00395752
C       -2.66294156       0.91379100       0.07409150      -0.05367585       0.00309914       0.00048504      -0.00291961
N       -3.98350432       1.45763681      -0.10864972      -0.24843560       0.00104069       0.00535729      -0.00285224
C       -4.35227145       1.73118054      -1.48913437      -0.05972214      -0.00272341      -0.00905568       0.00083480
C       -3.11741272       1.93060643      -2.36430820      -0.14371924      -0.00686917      -0.00086735       0.00579097
C       -2.26512168       0.66082621      -2.38647125      -0.14704266       0.00218766      -0.00792803       0.00392224
C       -4.43908138       2.30867578       0.96122156       0.29184714      -0.00072488      -0.00362300       0.00077711
O       -3.57563949       2.64998197       1.79780320      -0.55390298      -0.00545168      -0.00370086      -0.00165296
C       -5.80527577       2.63997938       0.99126140      -0.49348441       0.00069507      -0.00274636       0.00175673
C       -6.87408743       1.85271930       0.37432584      -0.11451957      -0.00023669      -0.00145692       0.00171383
H       -2.78384606      -5.09976729      -1.10023990       0.04204843      -0.00017697      -0.00657156      -0.00507708
H        1.27088324      -5.61305880       0.48826991       0.32063711       0.00115901       0.00198667      -0.00005950
H        1.96493386      -4.07347418       0.72568196       0.25727430      -0.00492720       0.00070776       0.00032807
H        2.89433037      -2.89035043      -1.06901158       0.10721870       0.00222342       0.00461465      -0.00410018
H        5.27623297      -2.44118714      -0.48478998       0.13394432       0.00780871      -0.00137104       0.00406769
H        4.07728020       0.92991367       1.82339230       0.12597157      -0.00409564      -0.00062945      -0.00172789
H        1.70593417       0.48752877       1.24826390       0.11156654      -0.00444582      -0.00000350       0.00198281
H        8.14182138       0.07007782       2.39184139       0.13025932       0.00066976       0.00420549       0.00135737
H        9.42374638       2.20429275       2.21897189       0.12618940       0.00172903       0.00086674      -0.00451712
H        8.70430302       3.93419011       0.60687367       0.12875460       0.00023246       0.00227417       0.00141601
H        6.71600175       3.52224712      -0.81510412       0.12358097      -0.00134508       0.00042472      -0.00014668
H        5.45935588       1.42042466      -0.61456007       0.12543154       0.00088366       0.00150548       0.00283788
H       -3.27742503      -0.75748443      -1.11209638       0.08948430       0.00269073       0.00328454      -0.00309818
H       -1.86976164       1.68133554       0.07023057       0.09531296       0.00300077      -0.00052269       0.00428075
H       -2.60272203       0.42656919       1.04533720       0.10032625       0.00076972       0.00812120      -0.00136287
H       -4.93765054       0.90259919      -1.90823823       0.06115915      -0.00557154       0.00284035       0.00414071
H       -4.99769710       2.60796153      -1.50336559       0.07892571       0.00751684      -0.00493521      -0.00022867
H       -3.40817409       2.21942024      -3.37361415       0.06923369       0.00094043       0.00746888       0.00157606
H       -2.54407410       2.75561661      -1.93732928       0.07486196       0.00028193       0.00029695      -0.00052539
H       -1.21797653       0.92167652      -2.52561834       0.07101700       0.00158122       0.00018563      -0.00359542
H       -2.55601074       0.00669223      -3.20914577       0.07298788       0.00624630      -0.00462223      -0.00097094
H       -6.08850182       3.26100953       1.83041773       0.12624514       0.00157870       0.00260982      -0.00359900
H       -6.54516357       1.26880417      -0.48524225       0.08279407       0.00338153       0.00085371       0.00336400
H       -7.73028255       2.44756112       0.04794989       0.09688935      -0.00049422      -0.00259823      -0.00003441
S       -7.69463012       0.60030038       1.51178476      -0.24875534      -0.00398805       0.00330458      -0.00789665
C       -6.22553763      -0.39847732       1.82193457      -0.19643968      -0.00536255       0.00471042       0.00084136
H       -5.85902874      -0.85690075       0.90348849       0.07773519      -0.00443080      -0.00208972       0.00057302
H       -6.49464673      -1.18049519       2.53361570       0.11238886      -0.00190360       0.00357254       0.00634654
H       -5.44584968       0.24176795       2.23340904       0.09261726      -0.00144021       0.00334614       0.00112039
