50
Properties=species:S:1:pos:R:3:charge:R:1:forces:R:3 energy=-41470.776030537745 pbc="F F F"
C        2.03644007      -3.77624495      -1.72862774       0.25452459      -0.00250725       0.00125663      -0.00397456
N        3.36236957      -3.80637101      -1.50250386      -0.39979136      -0.00257312      -0.00102616       0.00001650
C        3.93083632      -2.72014941      -1.00743471       0.07382880       0.00125401      -0.00044941      -0.00232508
H        4.99215984      -2.78704866      -0.81837217       0.09170214       0.00210821       0.00174320       0.00257309
C        3.18056158      -1.57530087      -0.73641348      -0.00706066      -0.00112728      -0.00275325       0.00814557
C        3.31619930      -0.24096993      -0.22436409       0.13708770      -0.00167748       0.00253019       0.00213397
C        4.52378524       0.47278239       0.20835394       0.05679156      -0.00150269       0.00343291       0.00345826
C        5.76541055       0.15500408      -0.33734659      -0.13457036      -0.00190585      -0.00031858       0.00235013
C        6.90527729       0.82579424       0.07536237      -0.13432105      -0.00096481      -0.00113955      -0.00226263
C        6.80933555       1.81833596       1.03978975      -0.14312974       0.00321723      -0.00595653       0.00160581
H        7.69527141       2.33955826       1.36916325       0.13638815      -0.00090155       0.00059462      -0.00131604
C        5.57096268       2.14450898       1.58014867      -0.14217380       0.00428753       0.00079080       0.00074741
C        4.43153310       1.48284701       1.16169852      -0.12332222       0.00230779       0.00212080       0.00416131
N        2.13929255       0.34352798      -0.17787550      -0.31962827      -0.00237633       0.00193554      -0.00033496
N        1.22420665      -0.53356366      -0.65746993       0.02610090      -0.00012739       0.00117799      -0.00241356
C       -0.17844326      -0.16979312      -0.79753863       0.01884972       0.00198802       0.00200962      -0.00505378
C       -0.80468034       0.16648408       0.55956822      -0.04686962       0.00367969      -0.00157963      -0.00133250
N       -2.19117078       0.53341161       0.37310019      -0.21143447       0.00025967      -0.00746661       0.00554682
C       -3.13432644       0.01133064       1.21103704       0.39415601       0.00321525      -0.00749625       0.00549112
O       -2.84541249      -0.80328497       2.06718300      -0.46067008      -0.00347493       0.00164658      -0.00613981
C       -4.56824713       0.48572316       1.02837453      -0.12083645       0.00079173       0.00161653      -0.00319632
C       -5.51864186      -0.24173628       1.96148333      -0.11366978       0.00282300       0.00147100       0.00002102
S       -7.24738331       0.23086554       1.72589101      -0.20515749       0.00197054       0.00489382       0.00738249
C       -7.62129724      -0.71072723       0.22920328      -0.19828850      -0.00067210       0.00029851       0.00248586
C       -2.42377627       1.65333942      -0.52438603      -0.05772784       0.00122740      -0.00510570       0.00832598
C       -1.82807527       1.35204696      -1.89498080      -0.12306271       0.00350457      -0.00179008       0.00172849
C       -0.35554112       0.99264188      -1.77130194      -0.12927853       0.00261539      -0.00007015      -0.00298406
C        1.80719317      -1.69974416      -1.00481461       0.27776819       0.00036436       0.00376271      -0.00701253
N        1.20131719      -2.77841476      -1.51180066      -0.39944592      -0.00296001      -0.00066283       0.00413901
H        1.60778953      -4.68075369      -2.13503136       0.06489705      -0.00282824      -0.00071971      -0.00262605
H        5.83370544      -0.60297942      -1.10486548       0.11247346       0.00665411       0.00308521       0.00157669
H        7.86414781       0.57377271      -0.35314241       0.13714746       0.00025150      -0.00100875      -0.00047277
H        5.49861873       2.92046032       2.32815019       0.13772120      -0.00016465       0.00280725      -0.00241994
H        3.46328972       1.74018107       1.56313947       0.11782771      -0.00263993       0.00025912      -0.00317208
H       -0.65454303      -1.06497827      -1.19440378       0.09969629       0.00135893       0.00170533      -0.00046195
H       -0.25354409       0.98825171       1.02002653       0.08518185       0.00173474       0.00018080       0.00012647
H       -0.75868574      -0.68783040       1.22401574       0.10609461      -0.00202681       0.00066405      -0.00272949
H       -4.86211761       0.33935029      -0.01164697       0.07096267       0.00053192      -0.00117241      -0.00140102
H       -4.60316415       1.56046345       1.21294651       0.08133680      -0.00759090       0.00263137      -0.00428136
H       -5.26922480      -0.01784828       2.99432022       0.11496540      -0.00434579      -0.00049690       0.00030741
H       -5.41417075      -1.31805011       1.84371407       0.10070030      -0.00076958       0.00192727      -0.00295020
H       -8.68351995      -0.58741898       0.03662806       0.11840879      -0.00158582       0.00178524       0.00017612
H       -7.06620281      -0.34424096      -0.63121694       0.08666918      -0.00112368      -0.00321014      -0.00248201
H       -7.40953637      -1.76738679       0.37399524       0.09545420      -0.00135791      -0.00393749       0.00141746
H       -1.95038132       2.55242397      -0.11477903       0.07809348       0.00483065       0.00338897      -0.00268954
H       -3.48394309       1.85446509      -0.60000216       0.07778467      -0.00184548      -0.00039279       0.00402281
H       -1.95134305       2.22182772      -2.53700485       0.07602357      -0.00056441      -0.00296318      -0.00317428
H       -2.37421560       0.52584767      -2.35442959       0.07800206       0.00142778      -0.00130508      -0.00038499
H        0.20976400       1.85285296      -1.40669830       0.08438300      -0.00363638      -0.00432730      -0.00400921
H        0.05891590       0.72113070      -2.74062759       0.07941737       0.00084411       0.00563239       0.00366076
