26
Properties=species:S:1:pos:R:3:charge:R:1:forces:R:3 energy=-28482.755099524355 pbc="F F F"
S        1.04783007       2.39318946       0.95233626       0.02322249       0.00418575      -0.00298087       0.00666595
C        1.39227374       0.79344780       0.35554896       0.21123935      -0.00151925       0.00066544       0.00344224
N        0.36366574       0.09371516       0.03935399      -0.30421403       0.00159342       0.00127278       0.00021038
C       -0.80717782       0.80463177       0.26268860       0.13762385      -0.00180136       0.00043270      -0.00338123
C       -0.62785240       2.05711308       0.75293255      -0.23496450      -0.00393459       0.00102961      -0.00012980
C       -2.11066591       0.16639838      -0.03227418       0.04859055      -0.00364639      -0.00394089       0.00114771
C       -3.30659863       0.87417986       0.06203407      -0.14747037      -0.00193185      -0.00210724       0.00348386
C       -4.51744292       0.25679482      -0.21154354      -0.13447784      -0.00151222       0.00067033      -0.00633012
C       -4.55212015      -1.07779348      -0.58457240      -0.14081755      -0.00202107      -0.00263698      -0.00027012
C       -3.36657058      -1.79121484      -0.68184650      -0.14374968      -0.00041435       0.00012466      -0.00266228
C       -2.15755534      -1.17393949      -0.41002858      -0.12963827       0.00187950      -0.00346718      -0.00437610
N        2.71862207       0.40844031       0.24465190      -0.30683222       0.00109824       0.00404834      -0.00408880
C        3.21967028      -0.87064516       0.02231490       0.47436512      -0.00217791       0.00150392       0.00404191
O        2.54764694      -1.86612051      -0.02227783      -0.42813647       0.00653388       0.00203992       0.00388192
C        4.70966249      -0.91065939      -0.13925062      -0.15748304      -0.00388662      -0.00316917      -0.00327538
C        5.49605560       0.11657398      -0.43552574      -0.27441609      -0.00054793      -0.00099788       0.00398302
H       -1.37599617       2.78153790       1.01248470       0.17029676      -0.00223294       0.00706296       0.00462192
H       -3.30803754       1.91675448       0.34586178       0.12272654       0.00032051       0.00201134      -0.00255971
H       -5.43570888       0.82037519      -0.13282828       0.13778478       0.00408106       0.00814074      -0.00094821
H       -5.49618552      -1.55608447      -0.79901079       0.13818200      -0.00336694      -0.00543619       0.00371960
H       -3.38335857      -2.83196456      -0.97163945       0.13818371       0.00529840       0.00087913      -0.00128078
H       -1.23055336      -1.71790162      -0.48835383       0.14036396       0.00584140      -0.00000273       0.00409638
H        3.39621331       1.10339892       0.49993226       0.24169692      -0.00150432       0.00127293       0.00145832
H        5.10463638      -1.90951555      -0.03077603       0.12767643       0.00079499      -0.00323297      -0.00192117
H        6.56341054      -0.00932920      -0.54026935       0.15126608       0.00145742      -0.00282432      -0.00398672
H        5.11117267       1.11190674      -0.61528532       0.13898155      -0.00258606      -0.00035870      -0.00554314
