29
Properties=species:S:1:pos:R:3:charge:R:1:forces:R:3 energy=-26015.61673896932 pbc="F F F"
C       -4.61715491      -0.24520852      -0.48687432      -0.04464857       0.00164676      -0.00288201      -0.00506080
C       -4.06596440       0.98679738      -0.80244409      -0.03878293       0.00018553      -0.00116747      -0.00045461
C       -2.70896080       1.21098541      -0.62457000      -0.04840883       0.00027877       0.00072216      -0.00212075
C       -1.88885695       0.19824324      -0.13470334       0.04725417      -0.00000647       0.00390380       0.00518279
N       -0.50659970       0.46277174       0.09649593      -0.06311022      -0.00030529       0.00140491      -0.00265821
C        0.45361870      -0.37245482      -0.43730334       0.17239614      -0.00490211       0.00019621      -0.00152014
O        0.16824621      -1.36408842      -1.09355977      -0.28667626       0.00716810      -0.00063582       0.00078863
C        1.90167927      -0.00234448      -0.16856342      -0.04581413      -0.00615293       0.00560195       0.00377497
C        2.84803353      -0.97112063      -0.84893202      -0.03084079      -0.00630402       0.00048268       0.00203202
S        4.61686879      -0.57253109      -0.61830079      -0.10041876       0.00746127       0.00490812      -0.00370993
C        4.84745648      -1.11360930       1.10241413      -0.06747196       0.00052343      -0.00129227       0.00059827
C       -0.16459673       1.73838546       0.71597688      -0.00768212       0.00215090       0.00273056       0.00202188
C       -2.43937814      -1.04308074       0.16723196      -0.04027199       0.00072836      -0.00262416      -0.00439679
C       -3.79735224      -1.25523802      -0.00156518      -0.04007835      -0.00085442       0.00225711       0.00069396
H       -5.67606867      -0.41944268      -0.62178625       0.04057534       0.00121500       0.00023346       0.00062398
H       -4.69140567       1.77982564      -1.18945833       0.04081082       0.00011930      -0.00138128      -0.00087417
H       -2.28794504       2.17377983      -0.87808994       0.03987315      -0.00083913       0.00006619       0.00206448
H        2.07898209       0.01268956       0.90894930       0.03794714       0.00402039      -0.00180753       0.00311607
H        2.09842873       1.01488738      -0.51172541       0.03928136      -0.00206865       0.00305026      -0.00531429
H        2.68702401      -0.95753722      -1.92314631       0.04099444      -0.00409445      -0.00058091       0.00048085
H        2.65544831      -1.98732406      -0.51380763       0.03390739      -0.00467781      -0.00456684       0.00566591
H        4.28727021      -0.49745143       1.80165437       0.03786276      -0.00118269       0.00014167      -0.00240817
H        5.90543166      -1.00939727       1.32557690       0.04136693      -0.00143185       0.00004246      -0.00311570
H        4.56574701      -2.15695182       1.22775257       0.03724071       0.00339571      -0.00203693       0.00436130
H        0.68707188       1.62831806       1.38061057       0.04195393       0.00190978      -0.00749071      -0.00115041
H        0.06345051       2.52293289      -0.01065473       0.03685684       0.00034338       0.00129068       0.00191351
H       -1.01039844       2.06158963       1.31392188       0.04510753       0.00260712      -0.00228029      -0.00063851
H       -1.80165407      -1.83513327       0.52757841       0.04064357       0.00067468       0.00143789      -0.00352583
H       -4.21698357      -2.22257239       0.24065935       0.04013272      -0.00160827       0.00027550       0.00362968
