23
Properties=species:S:1:pos:R:3:charge:R:1:forces:R:3 energy=-14079.597338309824 pbc="F F F"
C       -0.28379751       2.00529500      -1.15029039      -0.07098234       0.00206451       0.00087837       0.00040590
C       -1.10915872       0.83343608      -0.71481022      -0.00696933      -0.00064571       0.00150594      -0.00303353
C       -2.46771319       0.80229404      -0.99970549      -0.04281793       0.00056439      -0.00232053      -0.00148035
C       -3.26719694      -0.26430122      -0.62225348      -0.04702687      -0.00146656       0.00393527       0.00586833
C       -2.69837932      -1.32702241       0.05906050      -0.04197550      -0.00242285      -0.00094409      -0.00250545
C       -1.34809723      -1.32855757       0.36280774      -0.04787077      -0.00298956       0.00009965       0.00161743
C       -0.54581775      -0.25356944      -0.01943486       0.04200344      -0.00290146      -0.00043433      -0.00344170
N        0.83139248      -0.21085763       0.24355189      -0.09749918      -0.00227296       0.00329803       0.00293942
C        1.59221684      -1.05777038       1.01067869       0.17477410      -0.00090830      -0.00797227      -0.00548979
O        1.14433544      -2.00053663       1.65019293      -0.30109805       0.00321735       0.00154302       0.00875477
C        3.04948513      -0.76087545       1.04955426      -0.03069330      -0.00199810       0.00346306       0.00283460
C        3.76257272      -0.15114709       0.10967312      -0.06032313      -0.00335352       0.00389231      -0.00002057
H        0.18007764       2.52218055      -0.30699307       0.03765189       0.00190780       0.00158971      -0.00085905
H       -0.90558418       2.73205796      -1.66477992       0.03849940       0.00189885       0.00364351       0.00380632
H        0.51007897       1.72082146      -1.84491291       0.03635871       0.00262762      -0.00152975      -0.00088611
H       -2.90651742       1.63690400      -1.53208770       0.03977456       0.00197838      -0.00601161       0.00287440
H       -4.32236109      -0.26082970      -0.85766326       0.04417962       0.00390709      -0.00112861      -0.00192823
H       -3.30638563      -2.16839087       0.36281173       0.04308929      -0.00388117       0.00044454      -0.00151104
H       -0.90826020      -2.15020848       0.90002952       0.03820980       0.00107431      -0.00352433      -0.00039398
H        1.30190039       0.61348085      -0.08311437       0.12591515       0.00002078      -0.00008573      -0.00436121
H        3.53070721      -1.15920764       1.93372955       0.04187635       0.00355431      -0.00152530       0.00018200
H        3.33197548       0.19365470      -0.82234491       0.03990451      -0.00220464       0.00228920      -0.00398003
H        4.82815143      -0.00369172       0.21979930       0.04501959       0.00222958      -0.00110569       0.00060749
