20
Properties=species:S:1:pos:R:3:charge:R:1:forces:R:3 energy=-13010.320279539055 pbc="F F F"
C        4.20749297       0.21632608      -0.57310879      -0.05217528       0.00012507      -0.00117686       0.00404267
C        3.08155702       0.56191367       0.03835952      -0.04179055       0.00076575       0.00380014      -0.00282969
C        1.76860073       0.02081654      -0.40143825       0.17920531       0.00590019      -0.00292971       0.00122603
O        1.65431092      -0.75972591      -1.33622678      -0.29277655       0.00087412      -0.00194655      -0.00216018
N        0.70597068       0.48158327       0.34160762      -0.09737612       0.00297267      -0.00066577       0.00106163
C       -0.65851625       0.19060687       0.21613183       0.04474646      -0.00206715      -0.00118917      -0.00571488
C       -1.17480491      -0.67340670      -0.75048664      -0.04497885      -0.00482349      -0.00311813      -0.00103570
C       -2.54063263      -0.89991565      -0.80111777      -0.03841103      -0.00752525       0.00263894      -0.00167813
C       -3.40546555      -0.28349428       0.09067947      -0.04584950      -0.00122570       0.00097640       0.00530806
C       -2.89001816       0.57451448       1.05165399      -0.03594154      -0.00083284      -0.00277421      -0.00051050
C       -1.52963264       0.80973195       1.11537161      -0.05103203      -0.00055397       0.00290433      -0.00214385
H        5.16833169       0.60490544      -0.26289051       0.04378506      -0.00239284      -0.00233589      -0.00105508
H        4.17986983      -0.47288676      -1.40641726       0.04199834       0.00050831       0.00775146       0.00522966
H        3.10724425       1.25207515       0.87507480       0.04325443      -0.00111364      -0.00225056      -0.00218431
H        0.92927329       1.12150886       1.08510656       0.13779099       0.00566625       0.00030664      -0.00009202
H       -0.50460535      -1.15142276      -1.44339613       0.03789021       0.00131787       0.00024379       0.00025386
H       -2.93146418      -1.57103776      -1.55442269       0.04226596       0.00110041       0.00121875       0.00238765
H       -4.46937421      -0.46844758       0.03940773       0.04309939       0.00102880      -0.00004319       0.00072756
H       -3.54988965       1.06361519       1.75592730       0.04355678       0.00061093      -0.00103287      -0.00138343
H       -1.13714935       1.48158438       1.86943865       0.04273849      -0.00033566      -0.00037783       0.00055094
