24
Properties=species:S:1:pos:R:3:charge:R:1:forces:R:3 energy=-25367.490494493373 pbc="F F F"
C        2.60203899      -1.56568371       0.62194053      -0.04630534      -0.00038285       0.00191218      -0.00448614
C        2.18567396      -0.60125631       1.56286524      -0.17593332      -0.00448195       0.00280069      -0.00030202
C        0.90380474      -0.02063054       1.62335352       0.10744606      -0.00680908       0.00028885      -0.00184907
O        0.49268410       0.75778785       2.50907138      -0.37740928       0.00757097      -0.00262392       0.00247587
N        0.05358762      -0.36101806       0.51943382      -0.12128972      -0.00318450      -0.00137012      -0.00019219
C       -1.25388140      -0.06264214       0.29146458       0.10001272      -0.00154652      -0.00172464       0.00052327
C       -2.09620216       0.57817984       1.22644535      -0.07299179      -0.00170073      -0.00004146      -0.00272971
C       -3.41015193       0.80176471       0.87663187      -0.05389667       0.00233130       0.00269185       0.00036710
C       -3.88326652       0.40635214      -0.37351624      -0.10269783       0.00049792       0.00098977       0.00331393
C       -2.97866343      -0.20961135      -1.22275551      -0.00353460       0.00520168      -0.00049174       0.00041779
N       -1.70523065      -0.44755419      -0.92317412      -0.23457332       0.00070930       0.00126514       0.00197075
H        3.54169400      -2.05665669       0.83913474       0.01575868       0.00118202       0.00113728      -0.00205033
H        1.85375810      -2.28220956       0.30386469       0.02069667      -0.00641355      -0.00336069      -0.00136509
H        2.89502376      -0.19033306       2.27108070       0.01439736       0.00411683      -0.00045550       0.00425615
H        0.49757370      -0.79582929      -0.27775396       0.10361349       0.00102247       0.00254134       0.00350883
H       -1.68398639       0.87724688       2.17545936       0.02403492      -0.00342725       0.00027050      -0.00788822
H       -4.07258314       1.28976569       1.58272792       0.01806027      -0.00001792       0.00099054      -0.00047692
H       -4.90877314       0.57055160      -0.67643312       0.02239994       0.00084673      -0.00077384       0.00187681
H       -3.29277135      -0.53577843      -2.21197545       0.01227788       0.00109736      -0.00539093      -0.00187759
S        3.11469161      -0.87502494      -1.33907540      -0.22747900       0.00210690      -0.00182325      -0.00089830
C        2.83216102       0.90476120      -1.09964929      -0.09270707       0.00112925       0.00487879       0.00052177
H        2.47481267       1.03144791      -0.07368785       0.02177245       0.00274466       0.00017805       0.00216861
H        2.07217883       1.27829057      -1.78770672       0.02611131      -0.00052393      -0.00061885       0.00955020
H        3.75299704       1.47485267      -1.23335606       0.02223619      -0.00206916      -0.00126977      -0.00683570
