25
Properties=species:S:1:pos:R:3:charge:R:1:forces:R:3 energy=-24930.944924557858 pbc="F F F"
C        2.90996645      -0.78465382       1.81141023      -0.05201486      -0.00158548       0.00135479       0.00070252
C        1.66231102      -0.07349049       1.65822624      -0.21465109       0.00049254      -0.00145094      -0.00245740
C        0.73580887      -0.43883015       0.68479864       0.09074198       0.00156419       0.00898892      -0.00181151
O        0.80173305      -1.41558672      -0.09866858      -0.36084342       0.00282910       0.00673717       0.00592665
N       -0.40587771       0.44154761       0.59747461      -0.12717025       0.00231894      -0.00189314      -0.00205083
C       -1.54750390       0.33433802      -0.14376092       0.04080004       0.00425939      -0.00092655      -0.00007608
C       -2.49316763       1.37915436      -0.07967073      -0.09015925       0.00421964       0.00082607      -0.00122154
C       -3.66976314       1.33106152      -0.80170445      -0.07141509      -0.00035808       0.00225628       0.00114408
C       -3.96106897       0.24124218      -1.61680899      -0.10522667       0.00203562      -0.00172204       0.00125193
C       -3.03430253      -0.79495595      -1.68612965      -0.06830525       0.00337889      -0.00419499       0.00169041
C       -1.84829192      -0.76630613      -0.97347124      -0.07251866       0.00480738       0.00336791      -0.00145112
H        3.28113253      -0.84643791       2.83192354       0.01365949      -0.00138053       0.00320741      -0.00045457
H        2.85800796      -1.77753687       1.37465324       0.02019458      -0.00581500      -0.00106148       0.00622921
H        1.52368519       0.84288136       2.22609593       0.00958743      -0.00015072      -0.00849366      -0.00096436
H       -0.36568573       1.24376834       1.20349930       0.11163940      -0.00602358      -0.00164922      -0.00459255
H       -2.28317810       2.23894421       0.54767428       0.01682408      -0.00147416      -0.00102081       0.00398517
H       -4.36822110       2.15706040      -0.72826553       0.01383606      -0.00792751       0.00157469       0.00287691
H       -3.23709348      -1.65524108      -2.31489892       0.01211231      -0.00007856      -0.00334593      -0.00172213
H       -1.12587818      -1.56249704      -1.02942421       0.01769163       0.00079894       0.00074595      -0.00392142
H       -4.88351367       0.20225931      -2.18155592       0.01488943       0.00056365       0.00229234      -0.00019851
S        4.47033282      -0.00066535       0.94069128      -0.18566453       0.00466216      -0.00241656      -0.00085271
C        3.83788616      -0.06985906      -0.76097243      -0.07988364      -0.00250462      -0.00127973      -0.00714967
H        4.56104214       0.41248109      -1.41992199       0.01769531      -0.00366112      -0.00145423      -0.00131711
H        2.88099096       0.44264302      -0.82290654       0.02660210       0.00203747       0.00046725       0.00445047
H        3.68746250      -1.09890285      -1.07999897       0.02157882      -0.00300900      -0.00090965       0.00198451
