35
Properties=species:S:1:pos:R:3:charge:R:1:forces:R:3 energy=-22774.40113178417 pbc="F F F"
C       -1.69906018      -0.40165590      -0.01925416      -0.03360429      -0.00078881      -0.00086679      -0.00111206
C       -0.25912894      -0.73791105      -0.07132007       0.17717332       0.00159424       0.00386653      -0.00360477
O        0.11059908      -1.90253849       0.00136966      -0.29685456      -0.00405568       0.00122202      -0.00496476
N        0.61019696       0.32130632      -0.23164219      -0.09534328       0.00272984       0.00118271      -0.00038581
C        2.00646629       0.30625280      -0.27177247       0.04585165       0.00009199       0.00233933      -0.00056011
C        2.63621588       1.52919082      -0.61840195      -0.04690803      -0.00026702      -0.00097132       0.00268535
H        2.01790792       2.38899429      -0.84997654       0.04579757       0.00444520      -0.00388071       0.00340678
C        3.99394766       1.65208603      -0.66882843      -0.03125785      -0.00321296       0.00430759       0.00295912
C        4.81063133       0.54205919      -0.37348413       0.06530024      -0.00236156       0.00680090      -0.00184319
N        6.16105181       0.65625656      -0.42081572      -0.19179404       0.00073917       0.00271301      -0.00572821
C        6.84890755      -0.42577551      -0.13498512       0.09030337      -0.00066380       0.00399848       0.00371483
N        6.36165423      -1.64442430       0.20374919      -0.20006554      -0.00194311      -0.00209725      -0.00257981
C        5.05302631      -1.75473016       0.25018367       0.06152238      -0.00300390       0.00000428       0.00437507
H        4.64799169      -2.72536152       0.52018628       0.04873643       0.00181552      -0.00820938       0.00034123
C        4.18061606      -0.68293766      -0.03047754      -0.00815617      -0.00323810       0.00548191       0.00265039
C        2.78098945      -0.79578405       0.01869143      -0.04211663      -0.00442743      -0.00214275      -0.00408815
C       -2.23120933       0.73542837       0.41886349      -0.01933393       0.00079016      -0.00108781       0.00037480
C       -3.69295488       1.02581107       0.45320643       0.00949667       0.00174816       0.00206181      -0.00143347
N       -4.53412476      -0.14100437       0.28501412      -0.12637085       0.00489738      -0.00134728      -0.00363322
C       -5.84595542       0.19494808      -0.22930931      -0.02474768       0.00155340       0.00055762       0.00086558
C       -4.62058780      -0.92376217       1.50580047      -0.03105352       0.00244386       0.00232662       0.00083389
H       -2.33939910      -1.22211123      -0.31230666       0.03899305      -0.00676045      -0.00142359       0.00435716
H        0.19289390       1.20769378      -0.46217860       0.13650878      -0.00307166      -0.00210815       0.00211449
H        4.47162606       2.58593647      -0.93011230       0.04739878       0.00286904      -0.00590599      -0.00387546
H        7.92814270      -0.34361830      -0.17118797       0.04720117       0.00423681       0.00158850      -0.00006701
H        2.33180031      -1.74045132       0.27542551       0.04404569      -0.00452829      -0.00333606       0.00222239
H       -1.58890668       1.52914632       0.78807129       0.04086062       0.00177740      -0.00602267       0.00604880
H       -3.90334122       1.75345808      -0.34033831       0.03288667      -0.00618346      -0.00002673      -0.00184741
H       -3.91925566       1.55571474       1.39646893       0.02528434       0.00441267       0.00174052      -0.00004692
H       -6.43680769       0.83611566       0.44729022       0.02250920      -0.00127165       0.00268139      -0.00090237
H       -5.74664292       0.71195302      -1.18212754       0.03663820       0.00318699      -0.00521769      -0.00235097
H       -6.41187073      -0.71755444      -0.40157011       0.03696480       0.00451901      -0.00132531       0.00071320
H       -3.62416454      -1.19199191       1.84995079       0.03244326       0.00334946       0.00070306      -0.00066519
H       -5.12877814      -0.38430642       2.32090544       0.02554642      -0.00166874      -0.00212895       0.00381257
H       -5.17286792      -1.84235531       1.31652733       0.03614384       0.00024670       0.00452230      -0.00178656
