23
Properties=species:S:1:pos:R:3:charge:R:1:forces:R:3 energy=-14079.687712950954 pbc="F F F"
C        3.65632410      -0.05280180      -1.06257327      -0.07855860       0.00231528      -0.00102908      -0.00471119
C        2.64047481       0.14428817       0.01393262       0.00410138       0.00291332      -0.00201129      -0.00017626
C        2.94379409       0.16248047       1.31087493      -0.07120290      -0.00137801      -0.00264651       0.00120759
C        1.24027109       0.39460503      -0.47249978       0.17544964       0.00178328       0.00569537       0.00478384
O        1.03468100       1.04265961      -1.49048163      -0.29020476      -0.00061262      -0.00421685      -0.00175731
N        0.25740211      -0.17474826       0.29415614      -0.09738838       0.00084392       0.00104072       0.00295733
C       -1.13386083      -0.10174024       0.15172908       0.04391864      -0.00050391      -0.00302445      -0.00409131
C       -1.90720148      -0.86766395       1.02670625      -0.05061100       0.00047245      -0.00277006      -0.00717970
C       -3.28711341      -0.84774114       0.94589328      -0.03675526       0.00169955      -0.00047506      -0.00212230
C       -3.91858833      -0.06008802      -0.00618058      -0.04637747       0.00121855      -0.00167968       0.00246597
C       -3.14927709       0.70599189      -0.86953780      -0.03897471      -0.00527974      -0.00339855      -0.00086193
C       -1.76509127       0.69647027      -0.80183387      -0.04451250      -0.00567088      -0.00063047      -0.00189096
H        4.64798794      -0.20816941      -0.64615430       0.03924748      -0.00287471       0.00435824      -0.00346768
H        3.67773408       0.80951608      -1.72703000       0.03784965       0.00793056       0.00123411       0.00334596
H        3.40152458      -0.91238306      -1.68332035       0.03603270      -0.00002576      -0.00270661       0.00326172
H        2.21171923       0.37674545       2.07935373       0.03704183      -0.00160456       0.00375145       0.00529232
H        3.96042824       0.01011114       1.64924637       0.03877832       0.00030278      -0.00201051      -0.00431993
H        0.57531904      -0.80928798       1.00628332       0.13485245       0.00099678       0.00161453       0.00820695
H       -1.42104453      -1.48273462       1.77455565       0.04232026       0.00131575      -0.00026264      -0.00433508
H       -3.87072701      -1.45103306       1.62881335       0.04290760      -0.00004185       0.00454925      -0.00080600
H       -4.99750396      -0.04522851      -0.07345760       0.04246791       0.00359743       0.00422011       0.00203980
H       -3.63070322       1.32407617      -1.61579274       0.04154259      -0.00136365       0.00341696       0.00360565
H       -1.17292468       1.28934538      -1.47731058       0.03807517      -0.00603424      -0.00301913      -0.00144665
