31
Properties=species:S:1:pos:R:3:charge:R:1:forces:R:3 energy=-27069.491495805658 pbc="F F F"
C        3.20896254       1.72090380      -1.65659577      -0.09548897       0.00238932      -0.00013130      -0.00129415
C        2.53973262       0.92297256      -0.55282542       0.03973480       0.00252707       0.00068923       0.00150394
C        1.17851242       0.58984507      -0.87524265      -0.19980305       0.00227563      -0.00246045       0.00022466
C        0.17054513       0.23943485       0.02838902       0.10908236      -0.00069863      -0.00037235      -0.00389990
O        0.21703860       0.19706144       1.27720814      -0.33972016      -0.00520798      -0.00497251      -0.00023347
N       -1.06105098      -0.12709486      -0.62024052      -0.12339503      -0.00342678       0.00415249       0.00282696
C       -2.29321343      -0.39302424      -0.09262399       0.04053839       0.00195105      -0.00076177       0.00645086
C       -2.57842390      -0.40073580       1.28815445      -0.06947702       0.00178951       0.00677321       0.00473011
C       -3.85911028      -0.68397040       1.73088883      -0.06453691       0.00425620      -0.00239918       0.00225645
C       -4.89666968      -0.96704153       0.84795824      -0.09984420       0.00000110       0.00245556       0.00503889
C       -4.62321868      -0.95960078      -0.51623144      -0.06734342       0.00099314      -0.00348606       0.00416216
C       -3.35262872      -0.68012910      -0.97926767      -0.08520266      -0.00163574       0.00401487       0.00336127
C        2.77653371       1.56694712       0.79812867      -0.09622976       0.00116687       0.00453274       0.00030598
H        2.72123937       2.69516634      -1.74882691       0.01344584      -0.00192823       0.00167064       0.00283419
H        3.12938311       1.20488397      -2.61116501       0.01588900       0.00424462      -0.00377322      -0.00534036
H        4.26371603       1.88344557      -1.43899898       0.01459877       0.00130142       0.00063081       0.00980733
H        0.97504240       0.45344757      -1.93375028       0.00655431       0.00065114      -0.00687218      -0.00172720
H       -1.02576497      -0.10755689      -1.62495782       0.11295740      -0.00418657       0.00345104      -0.00729729
H       -1.77471388      -0.18031011       1.96887290       0.01895454       0.00124603      -0.00519507      -0.00202643
H       -4.04830137      -0.68244235       2.79912446       0.01412245       0.00281023      -0.00093147      -0.00803017
H       -5.89178419      -1.18775174       1.21118556       0.01666611      -0.00115158       0.00259576       0.00114364
H       -5.41071832      -1.17449399      -1.22942080       0.01586752      -0.00296234      -0.00409924      -0.00560602
H       -3.15719328      -0.67932157      -2.04630370       0.01869755       0.00566778      -0.00024564      -0.00364503
H        2.29268880       2.54856129       0.81999747       0.01234885      -0.00611904       0.00194016       0.00136894
H        3.84444612       1.70574120       0.96671328       0.01200282       0.00556171       0.00157921      -0.00319185
H        2.35103975       0.97455049       1.59580679       0.01728791      -0.00461333       0.00684313      -0.00074564
S        3.77844794      -0.76390014      -0.52866326      -0.21380161      -0.00123295       0.00130229      -0.00318169
C        2.78525761      -1.77460072       0.59436275      -0.09264376      -0.00252301      -0.00325706       0.00584280
H        2.65493675      -1.28644578       1.55640424       0.02199151      -0.00311986      -0.00318838      -0.00632378
H        3.28345538      -2.73162794       0.73920918       0.02097465      -0.00076992      -0.00169638      -0.00700689
H        1.79749244      -1.94535046       0.17416714       0.02577184       0.00074200       0.00121058       0.00769051
