32
Properties=species:S:1:pos:R:3:charge:R:1:forces:R:3 energy=-27085.477149590384 pbc="F F F"
C        4.62400953       1.24896883       1.02055226      -0.04875088       0.00300800      -0.00054163      -0.00050453
C        4.09268694       0.24741073       1.81948454      -0.04046978       0.00534077       0.00053416       0.00308775
C        2.87927201      -0.34907008       1.51490048      -0.04531916       0.00410268      -0.00680330      -0.00349759
C        2.17817308       0.06549055       0.38283260       0.04275655      -0.00092982       0.00073461      -0.00077269
N        0.94729497      -0.47381340      -0.00924785      -0.09761196       0.00060146       0.00113076       0.00045550
C        0.23586165      -1.49954695       0.54104906       0.17477304      -0.00436231       0.00314540      -0.00141603
O        0.56469824      -2.10869100       1.54952807      -0.28698421      -0.00207841      -0.00395051      -0.00439208
C       -1.04700244      -1.84502954      -0.20868733      -0.04813705       0.00430267      -0.00083291      -0.00047645
C       -2.13895633      -0.75815771      -0.23425212       0.04670533       0.00248927      -0.00445136       0.00124308
S       -1.66290873       0.40226865      -1.61148072      -0.06660199      -0.00060308      -0.00145903       0.00535294
C       -2.58151063       1.92226701      -1.23715699      -0.05824132      -0.00154352      -0.00178473       0.00038945
C       -2.22168384      -0.05482553       1.11317163      -0.08044464      -0.00049142      -0.00037494      -0.00288288
C       -3.47212091      -1.40146488      -0.59004119      -0.07612431      -0.00339787       0.00160346       0.00174897
C        2.71069229       1.07861252      -0.41960635      -0.05265978      -0.00145445       0.00071448      -0.00445693
C        3.92344685       1.66145908      -0.10409869      -0.03953978       0.00150224       0.00513285       0.00129251
H        5.57280206       1.70368663       1.26880342       0.04059494       0.00381706      -0.00076124       0.00624304
H        4.62949414      -0.08233617       2.69927323       0.03972561       0.00160111      -0.00290966       0.00674793
H        2.47274094      -1.12777384       2.13733393       0.03563178       0.00415960      -0.00110190       0.00435262
H        0.49000770       0.00619643      -0.77397759       0.10764550      -0.00276624      -0.00578261       0.00039568
H       -1.44706805      -2.71701161       0.30067832       0.03650398      -0.00150089       0.00279323      -0.00269405
H       -0.82287396      -2.14268607      -1.23292012       0.03461327       0.00186880      -0.00211389      -0.00057898
H       -2.36666454       2.60459317      -2.05537276       0.04342056      -0.00287729      -0.00332544       0.00271822
H       -2.24204760       2.37051843      -0.30852683       0.03894930      -0.00048777      -0.00565362      -0.00473195
H       -3.65570843       1.75500417      -1.20348087       0.03625003       0.00415369      -0.00187597       0.00172641
H       -1.35110610       0.56933967       1.29487705       0.02636427      -0.00449277       0.00234520      -0.00229578
H       -2.26603644      -0.80102652       1.90606880       0.03237292      -0.00299082       0.00362314      -0.00141503
H       -3.11427131       0.56268349       1.18959662       0.03061887       0.00237908       0.00710513      -0.00361814
H       -3.41545330      -1.94838590      -1.52946889       0.02946598      -0.00286044      -0.00205148       0.00097396
H       -4.26098500      -0.65912382      -0.67760554       0.03128973      -0.00360164       0.00623756       0.00281445
H       -3.75420060      -2.10363778       0.19480935       0.03104598      -0.00036286      -0.00129834       0.00105928
H        2.16836510       1.40730319      -1.29852374       0.04099466      -0.00007198       0.00480433      -0.00445957
H        4.32347274       2.44041875      -0.73978471       0.04116257      -0.00245353       0.00716799      -0.00240989
