29
Properties=species:S:1:pos:R:3:charge:R:1:forces:R:3 energy=-23975.80001952424 pbc="F F F"
C        3.61537018      -1.40573225      -0.23354328      -0.06217660      -0.00449304       0.00034853      -0.00312674
S        3.25938592       0.15771325       0.62926814      -0.09643762       0.00088116       0.00048872      -0.00041494
C        2.79029319       1.21193455      -0.78894311      -0.02713699      -0.00155681      -0.00095675      -0.00053223
C        1.40774249       0.93133486      -1.35772406      -0.04622198      -0.00057823      -0.00145413      -0.00070017
C        0.33317961       1.41762638      -0.39532772       0.16640346      -0.00186376      -0.00216980       0.00110090
O        0.33457883       2.60012070      -0.05575382      -0.31213626      -0.00374095      -0.00328487       0.00208698
N       -0.57658835       0.52453261       0.07727791      -0.06895694       0.00522119       0.00047241       0.00376161
C       -0.63918857      -0.87957843      -0.32686707       0.01409665      -0.00181010       0.00129908      -0.00022867
C       -1.90660686      -1.53860856       0.18957894      -0.03923328      -0.00264315      -0.00328593       0.00058300
C       -3.11672734      -0.65707719      -0.07899156      -0.04160515      -0.00434239      -0.00086711      -0.00185766
H       -3.20242514      -0.52196240      -1.15857670       0.02484221       0.00393362      -0.00095447      -0.00089932
C       -2.97119581       0.70762049       0.61321196      -0.04335203       0.00064061       0.00142726      -0.00401471
C       -1.54172111       0.95257382       1.08042878       0.00886076       0.00192844       0.00025393      -0.00028272
H        3.94478181      -2.11386430       0.52136232       0.03983122       0.00274597       0.00262937       0.00203831
H        4.41089064      -1.27914779      -0.96394973       0.03554310       0.00098072      -0.00179450      -0.00276640
H        2.73209496      -1.80969598      -0.72138147       0.03315153      -0.00112888       0.00141811      -0.00305115
H        3.54948690       1.10405586      -1.56105913       0.03568149      -0.00182724      -0.00253288      -0.00098994
H        2.82313571       2.23248662      -0.41992321       0.03938416       0.00022223       0.00204596       0.00219358
H        1.29229472       1.51865429      -2.27151092       0.04072725       0.00444699      -0.00417363       0.00213929
H        1.30835618      -0.11217946      -1.63728356       0.03429629       0.00201474       0.00221343      -0.00304760
H       -0.63534210      -0.93341843      -1.41653951       0.03284929      -0.00480905      -0.00653007      -0.00081844
H        0.24134321      -1.41853076       0.03068753       0.02831207       0.00035267       0.00825061       0.00436400
H       -2.01597006      -2.50645861      -0.29843768       0.03220142       0.00747899      -0.00467708      -0.00422500
H       -1.81784442      -1.74439712       1.25680792       0.02507749      -0.00178182       0.00517344       0.00170428
H       -4.02833539      -1.16048559       0.24171538       0.02981282      -0.00225552      -0.00180136      -0.00120266
H       -3.62991504       0.77640843       1.48009822       0.02951026       0.00350641       0.00073367      -0.00186106
H       -3.26728195       1.50665965      -0.06488747       0.02600963      -0.00202213       0.00543712      -0.00245822
H       -1.35508481       2.00288153       1.26842026       0.03461668      -0.00055835       0.00394912       0.00635604
H       -1.34725804       0.40969512       2.00970581       0.02604912       0.00105801      -0.00165950       0.00614968
