28
Properties=species:S:1:pos:R:3:charge:R:1:forces:R:3 energy=-23959.49692298863 pbc="F F F"
C       -3.35798600      -0.10381114       0.47434260      -0.04887924      -0.00120727       0.00189921       0.00018863
C       -2.33147951      -0.56599938       1.51392406      -0.04904322      -0.00811277       0.00096446       0.00118641
C       -0.97577144       0.08116707       1.29024000       0.00140313      -0.00238325      -0.00147282       0.00500583
N       -0.43649077      -0.28828041       0.00212478      -0.10979718       0.00267632       0.00068811       0.00344008
C       -1.40627995      -0.61792594      -1.02313456      -0.00622887      -0.00021859      -0.00153012      -0.00084039
C       -2.67704431       0.20457282      -0.86450147      -0.04899546      -0.00748182       0.00377490       0.00121358
C        0.80086790       0.29821860      -0.43896302       0.07451328      -0.00023025       0.00788675      -0.00506718
O        1.13001123       0.09434573      -1.63741698      -0.38533205       0.00133181      -0.00483362      -0.00102997
C        1.56381171       1.02240352       0.49121166      -0.21865384       0.00326784       0.00067441      -0.00145838
C        2.85863472       1.53062397       0.12547711      -0.06161668      -0.00454103       0.00494618      -0.00395226
H       -3.88287011       0.78262225       0.83712311       0.00463691       0.00516679       0.00088064       0.00011392
H       -2.68420402      -0.34139843       2.52243248       0.00785155      -0.00030315       0.00199472       0.00524289
H       -2.20425435      -1.64947697       1.46060585       0.01185328      -0.00320000       0.00157763      -0.00029516
H       -1.07022687       1.17536250       1.39213267       0.00270005      -0.00285935      -0.00185172       0.00059974
H       -0.28757353      -0.24127713       2.07332127       0.01136324       0.00419953      -0.00173991       0.00044685
H       -1.66515506      -1.68921334      -0.98975184      -0.00149827       0.00173596      -0.00486882      -0.00133355
H       -0.90425307      -0.43471615      -1.97025642       0.01353740       0.00143127      -0.00538904      -0.00404204
H       -3.36271557       0.02266593      -1.69586667       0.00802758      -0.00182369      -0.00790897      -0.00456293
H       -2.39846834       1.25965258      -0.90880821       0.01196148      -0.00269775       0.00808023      -0.00045007
H        1.27690667       1.09226302       1.53443694       0.00926560       0.00621061      -0.00581775       0.00267996
H        2.98742172       1.60165353      -0.94946767       0.01579338       0.00520536       0.00496554       0.00005711
H        3.14556042       2.46078603       0.60864035       0.00600906      -0.00000030      -0.00381348       0.00380668
H       -4.11625006      -0.88102600       0.34715933       0.00418971       0.00756463       0.00173410      -0.00049773
S        4.45640387       0.44183177       0.64920658      -0.22255836      -0.00834344      -0.00139291       0.00078326
C        3.96447209      -1.08515788      -0.19905522      -0.08621923      -0.00051809      -0.00101221      -0.00462075
H        2.93688021      -1.32604017       0.06560476       0.02530215       0.00166263      -0.00132843       0.00144485
H        4.01147133      -0.97140047      -1.28048992       0.01763546       0.00381449       0.00264901       0.00259020
H        4.62810120      -1.89425125       0.11304651       0.01277917      -0.00034667       0.00024420      -0.00064931
