28
Properties=species:S:1:pos:R:3:charge:R:1:forces:R:3 energy=-23959.499501101705 pbc="F F F"
C       -1.74595974      -0.88757819       1.45285080      -0.09322491      -0.00283487      -0.00115649       0.00044132
C       -1.26880268      -0.95475937       0.00845935       0.03144842      -0.00114096       0.00082044      -0.00316027
N       -0.15439165      -0.04325671      -0.20802819      -0.12851089      -0.00257354       0.00418668      -0.00338172
C       -0.73541619       1.27503570      -0.47438043      -0.00607374      -0.00354019       0.00504906      -0.00218005
C       -2.17187500       1.03345704      -0.99982576      -0.05335338       0.00043619       0.00532191       0.00403902
C       -2.32600862      -0.49129411      -1.00167901      -0.05839143      -0.00108944       0.00402246      -0.00038955
C        0.84457970      -0.50560786      -1.16361786       0.08137652       0.00264345      -0.00475978       0.00068494
O        0.63955823      -1.58555109      -1.76837871      -0.39724827       0.00257281      -0.00745161      -0.00010622
C        1.99490857       0.29350374      -1.25856861      -0.20218210       0.00294508      -0.00366749       0.00156544
C        2.40742255       1.25427745      -0.28762574      -0.06011227       0.00029869       0.00289053      -0.00222836
H       -2.10767149       0.11160493       1.69779405       0.01541348       0.00214663       0.00252401       0.00154961
H       -0.92136089      -1.11536868       2.12563619       0.01754972      -0.00349352      -0.00872667       0.00015001
H       -0.90768800      -1.95305151      -0.23142462       0.01155552       0.00252311      -0.00106188      -0.00326877
H       -0.75208276       1.88460045       0.43715732       0.01027004      -0.00116481      -0.00143538      -0.00117871
H       -0.10513787       1.80110297      -1.19271185       0.01822863       0.00047313      -0.00153825       0.00044290
H       -2.31341914       1.46306518      -1.99229061       0.00979580       0.00387560      -0.00587981       0.00233046
H       -2.90965757       1.50317199      -0.34510069       0.01135593      -0.00251661       0.00311394       0.00178311
H       -3.33956291      -0.81905589      -0.75457538       0.00945003       0.00062249       0.00183996       0.00232268
H       -2.06266979      -0.89752339      -1.97604885       0.01322143      -0.00298402      -0.00215776       0.00117237
H        2.72706652      -0.07100679      -1.97263465       0.00254286       0.00082254       0.00091396      -0.00740342
H        1.59906847       1.68367405       0.28895398       0.01914274       0.00121316      -0.00111036       0.00482888
H        3.07193388       2.03004952      -0.65441184       0.00521548       0.00459619       0.00200683      -0.00003793
H       -2.55573005      -1.59716792       1.64303822       0.01287687      -0.00354460      -0.00297625       0.00080339
S        3.61901148       0.57013965       1.22655127      -0.24412063      -0.00030110       0.00160500       0.00162200
C        2.53287877      -0.79030128       1.73725306      -0.08635516      -0.00042684       0.00366661       0.00089473
H        1.66704053      -0.42068677       2.28130685       0.02101180       0.00158051      -0.00088060      -0.00284329
H        3.09542945      -1.47431099       2.37208441       0.01460150      -0.00270438       0.00363798       0.00024938
H        2.17806432      -1.31897236       0.85589548       0.02451604       0.00156513       0.00120323       0.00129827
