31
Properties=species:S:1:pos:R:3:charge:R:1:forces:R:3 energy=-28994.138042969535 pbc="F F F"
C       -4.27409777       0.46347964      -0.51931554       0.05122823      -0.00025383       0.00573755      -0.00380665
N       -4.54317608       1.07474276      -1.67098200      -0.19577244      -0.00620563       0.00281625      -0.00587821
C       -3.49827168       1.25943777      -2.47878013       0.09731323       0.00069355      -0.00133443       0.00047508
H       -3.69371645       1.75493278      -3.42137211       0.04732765       0.00417045      -0.00176925       0.00419768
N       -2.23978195       0.89731515      -2.24999108      -0.18973368       0.00263433       0.00117162      -0.00152808
C       -1.99537945       0.28814942      -1.08577415       0.07091369       0.00291875      -0.00295001      -0.00233499
C       -3.00004349       0.04425934      -0.15650696      -0.01429165       0.00212275       0.00317422      -0.00153146
C       -2.69784756      -0.62933725       1.14274192      -0.03998772       0.00346188      -0.00200850       0.00358153
C       -1.42642809      -1.45069382       1.02848864       0.01512498       0.00731422      -0.00103582      -0.00200915
N       -0.35410106      -0.64275420       0.47535555      -0.06688779       0.00221447       0.00391914       0.00137910
C        0.78241435      -0.44298498       1.20646790       0.16282968       0.00465839      -0.00437296      -0.00242670
O        0.88794764      -0.85002475       2.35850054      -0.29102251      -0.00456662       0.00041886       0.00067519
C        1.91589874       0.30502120       0.52394795      -0.04207154      -0.00156794       0.00075182       0.00089641
C        3.16586671       0.32685981       1.38326868      -0.03034770      -0.00290588      -0.00034810       0.00307773
S        4.52754695       1.32999923       0.69507204      -0.09279901      -0.00447994      -0.00014184      -0.00745773
C        5.13642306       0.21571628      -0.60640602      -0.06709828      -0.00067955       0.00053836      -0.00150943
C       -0.57396882      -0.12674759      -0.86161860       0.01790100       0.00113126      -0.00438362       0.00143304
H       -5.11654573       0.29791081       0.14462588       0.04534347       0.00438207       0.00216054       0.00156820
H       -2.56455082       0.11842234       1.92860059       0.03762916       0.00036083       0.00273297       0.00315293
H       -3.53139740      -1.26212822       1.44534276       0.04530087      -0.00216542      -0.00117944       0.00326356
H       -1.59296968      -2.31385991       0.37832402       0.03523984      -0.00650451      -0.00258586       0.00186005
H       -1.09302601      -1.80714284       1.99502049       0.03997609       0.00045300      -0.00588117      -0.00235872
H        1.59143698       1.32353080       0.30449079       0.04113931      -0.00158134       0.00392238       0.00442419
H        2.12844152      -0.15056615      -0.44460174       0.03866607       0.00029101      -0.00446288       0.00362824
H        2.94426608       0.77028516       2.34882983       0.04369103      -0.00002979       0.00348462       0.00424711
H        3.51797571      -0.68524968       1.57304470       0.03593463       0.00334365      -0.00006061      -0.00174218
H        5.44742315      -0.74200274      -0.19450222       0.03978171      -0.00271535       0.00090573       0.00014085
H        6.00047510       0.69912002      -1.05234836       0.04443211       0.00040270       0.00174123       0.00085306
H        4.39358857       0.05691070      -1.38396916       0.03959191      -0.00002530       0.00157831      -0.00121499
H       -0.31620779      -0.87324982      -1.62168098       0.03770047      -0.00254039       0.00205885      -0.00429454
H        0.06750128       0.72821539      -1.05419919       0.04294718      -0.00433081      -0.00459777      -0.00076002
