70
Properties=species:S:1:pos:R:3:charge:R:1:forces:R:3 energy=-56011.50391427398 pbc="F F F"
N        3.66193948       0.52031011      -0.33196069      -0.13176268      -0.00068634       0.00605113       0.00052312
C        3.43311070      -0.39304491       0.78552174       0.02229528      -0.00130437       0.00048166      -0.00486298
C        3.94665847       0.32327394       2.03114266      -0.04749900      -0.00260228      -0.00343545       0.00128811
C        5.05893310       1.23868106       1.47562385      -0.05136698      -0.00232810      -0.00067146       0.00197914
C        5.00856871       1.03466169      -0.05588107       0.00455426       0.00099714      -0.00245257      -0.00324019
C        2.02175743      -0.95871939       0.84557601       0.17541350      -0.00606941       0.00633146      -0.00261396
O        1.41668653      -1.18820257       1.87987519      -0.28511915       0.00015146      -0.00540274      -0.00025447
N        1.60772291      -1.37518734      -0.40559351      -0.10013643      -0.00132202      -0.00580308      -0.00388649
C        0.33989983      -1.79536951      -0.77724046       0.01213850      -0.00643180       0.00429295       0.00013443
C        0.20558091      -2.48763906      -2.01174812       0.05575316      -0.00731369      -0.00015687       0.00406314
C       -0.99735078      -3.04847193      -2.36880507      -0.08093031      -0.00182418      -0.00683622       0.00324238
C       -2.13192772      -2.88599401      -1.55755410       0.03668913      -0.00057996       0.00353399       0.00253348
N       -3.26185704      -3.58802987      -1.87631831      -0.22073834       0.00437268       0.00129043      -0.00014915
C       -4.31089816      -3.40529954      -1.11032226       0.00287918       0.00305406      -0.00287123      -0.00317791
C       -4.39738015      -2.50530815      -0.02814407      -0.06832516       0.00556882       0.00048319      -0.00376690
C       -3.25112005      -1.72455812       0.27075352       0.06801529       0.00208543      -0.00100601       0.00392930
C       -2.04853093      -2.01297901      -0.43858244      -0.02837264      -0.00156109      -0.00063173       0.00537719
C       -0.78759206      -1.54770117      -0.02886412      -0.04433813      -0.00550801       0.00288063      -0.00064761
N       -3.29808052      -0.76034474       1.22581815      -0.10391884      -0.00398549       0.00490993      -0.00655949
C       -2.57727132       0.45106485       1.23182462       0.03403524       0.00249718      -0.00323128      -0.00108972
C       -2.12061096       0.93924765       2.44919918      -0.06685592      -0.00099675      -0.00270371       0.00119181
C       -1.39450461       2.11971353       2.52183392      -0.01019170       0.00275343      -0.00265642       0.00062080
C       -1.16921980       2.84319658       1.35901211      -0.04794175      -0.00175574       0.00409015       0.00133401
C       -1.63928088       2.37436671       0.14664909      -0.03625963       0.00440536      -0.00434241      -0.00165822
C       -2.33768377       1.18205902       0.07457612      -0.05179163      -0.00504087      -0.00202064      -0.00252395
C       -0.77659741       2.55872668       3.81625757      -0.04674852       0.00176772      -0.00098717       0.00086384
C        0.68609328       2.13529335       3.91522013      -0.08573777       0.00179211       0.00096007       0.00050522
C       -5.62458047      -2.36732357       0.75181532       0.15387262       0.00493465      -0.00426881       0.00180039
O       -5.68974577      -1.79676696       1.85424365      -0.32946903      -0.00954836       0.00026791      -0.00172422
N       -6.77049400      -2.94662591       0.23847502      -0.18391545      -0.00099107       0.00226448       0.00297139
O        1.33734464      -2.52767534      -2.77423589      -0.14485957      -0.00318025       0.00047655       0.00732712
C        1.21497638      -3.09253735      -4.06546006       0.01784006       0.00340066      -0.00040381       0.00269118
C        2.63907180       1.55081133      -0.44120942       0.09288536       0.00039822       0.00381217       0.00381235
O        1.68233792       1.49444304       0.37377371      -0.29603976       0.00073198       0.00442845       0.00617833
C        2.78571546       2.48823546      -1.46078072      -0.18360361      -0.00207468      -0.00271227      -0.00104450
C        1.75192247       3.45351491      -1.72747855      -0.04163763      -0.00029146       0.00120511       0.00186163
H        4.09108513      -1.25624875       0.60868870       0.02389284       0.00325571      -0.00157687       0.00141582
H        4.30011196      -0.38505754       2.77946114       0.02547839       0.00736907      -0.00069564      -0.00075463
H        3.13787732       0.89613834       2.47147821       0.02762096      -0.00043002      -0.00272534      -0.00038142
H        4.85470801       2.27990405       1.71897040       0.02352749       0.00449849       0.00433090      -0.00405019
H        6.04156189       0.99213685       1.87840154       0.02271080      -0.00040107       0.00136970       0.00292397
H        5.74519018       0.29463351      -0.38146304       0.02605432       0.00785313       0.00243020      -0.00461330
H        5.18529590       1.94691859      -0.61774435       0.02952556      -0.00039007      -0.00159059       0.00022555
H        2.25334403      -1.15650541      -1.15376231       0.11285436       0.00320115       0.00202717      -0.00440669
H       -1.11077633      -3.64131692      -3.26297629       0.03316800       0.00260030      -0.00210594      -0.00509462
H       -5.16769632      -4.03683038      -1.33026537       0.02970113       0.00068671      -0.00306705      -0.00363627
H       -0.66342413      -0.98235271       0.87881848       0.03385600      -0.00142171       0.00078742      -0.00477447
H       -4.11717705      -0.84808780       1.83052862       0.10758040       0.00685891       0.00304538       0.00287243
H       -2.30394465       0.36003146       3.34434833       0.03150568      -0.00725110       0.00353185       0.00422742
H       -0.58431371       3.75236628       1.39604550       0.03144486       0.00277191       0.00842313      -0.00382557
H       -1.41816128       2.91808847      -0.76170713       0.03032991       0.00192376      -0.00263929      -0.00523170
H       -2.68168641       0.80897657      -0.87904761       0.03247434      -0.00006505      -0.00172785      -0.00866920
H       -0.84698111       3.64475170       3.90345733       0.02393683       0.00145340      -0.00002806       0.00100901
H       -1.34231323       2.14266219       4.65117375       0.02425447      -0.00057750      -0.00452236      -0.00111189
H        0.77941285       1.05329953       3.85313161       0.02698048      -0.00339722       0.00455798      -0.00354136
H        1.13262244       2.47150123       4.85361218       0.02088201      -0.00033314      -0.00133774      -0.00238822
H        1.25894091       2.55180704       3.08909157       0.02485910       0.00200643      -0.00429526       0.00137159
H       -6.85650435      -2.99089822      -0.76273335       0.11841028       0.00167523       0.00294184      -0.00057888
H       -7.60742144      -2.65261752       0.71700765       0.11525829      -0.00273771       0.00228130       0.00506941
H        0.45590998      -2.57542699      -4.65611265       0.02931004      -0.00037962      -0.00181049       0.00227983
H        0.96506605      -4.15506007      -4.01578244       0.02918483      -0.00084528      -0.00252952      -0.00328747
H        2.18460030      -2.97217336      -4.53619667       0.03415963       0.00591420      -0.00099167      -0.00132577
H        3.59789782       2.38133859      -2.16651117       0.02595621       0.00065099      -0.00032031       0.00218585
H        2.10373413       4.37450909      -2.18145652       0.02648714       0.00145080       0.00344928       0.00417371
H        1.14226895       3.67000990      -0.85519803       0.02601755      -0.00145220      -0.00468181       0.00423328
S        0.39618277       2.97722250      -3.08598181      -0.16360919      -0.00268967       0.00133865      -0.00022187
C        0.24784815       1.20554162      -2.72926698      -0.06276474      -0.00063605       0.00156114       0.00221957
H        1.20155262       0.71828364      -2.90951359       0.02742593      -0.00251197      -0.00048308       0.00041898
H       -0.49882943       0.79724183      -3.40672200       0.03068386      -0.00298137       0.00450280       0.00384552
H       -0.05612755       1.01640662      -1.70267439       0.03203027       0.00081651      -0.00461755       0.00239383
