24
Properties=species:S:1:pos:R:3:charge:R:1:forces:R:3 energy=-15558.836823906273 pbc="F F F"
C        3.34400744       0.73468888      -0.99798208      -0.05701154      -0.00274297      -0.00042594      -0.00485093
C        2.09052458       0.61301984      -0.57988123      -0.04077231      -0.00031368      -0.00535049      -0.00237127
C        1.48608550      -0.73635169      -0.40417473       0.16880828       0.00105854      -0.00216551       0.00899613
O        2.13098237      -1.77033977      -0.55841932      -0.31113788       0.00174632      -0.00013482      -0.00976772
N        0.16060863      -0.76912380      -0.07368600      -0.08420794      -0.00438831       0.00060707      -0.00550116
C       -0.54370450      -2.03069223       0.11425541       0.00643513      -0.00065039       0.00054356      -0.00157370
C       -1.96130740      -1.67514825      -0.28932519      -0.04248315      -0.00000872      -0.00131548       0.00057394
C       -2.12320489      -0.26116505       0.25849511      -0.03715351      -0.00593055      -0.00491957      -0.00090650
C       -0.72956044       0.37146774       0.08479513       0.03665172      -0.00921206       0.00133737       0.00014051
C       -0.37338658       1.21291382       1.31937333       0.16975257       0.00384057      -0.00098392       0.00632125
O       -0.08935439       0.70238579       2.38869437      -0.31206396      -0.00226854       0.00120527       0.00671746
N       -0.39721340       2.55757198       1.12588824      -0.14273031      -0.00262028       0.00176441      -0.00292705
H       -0.75604857       2.97744441       0.28799549       0.14413990      -0.00143724      -0.00072222      -0.00375178
H        3.92746904      -0.14971497      -1.20389563       0.03946567       0.00449976       0.00493450       0.00294801
H        3.81135408       1.69862333      -1.14246520       0.04165481       0.00143214      -0.00185390       0.00619705
H        1.50675740       1.49516509      -0.35208747       0.03313783       0.00622047      -0.00398761      -0.00214081
H       -0.07067991      -2.79804759      -0.48945099       0.04064558      -0.00127147       0.00260180      -0.00529984
H       -0.49697679      -2.33969545       1.16251010       0.03361910       0.00111505       0.00512224       0.00064726
H       -2.70034940      -2.36724608       0.10843379       0.03639151       0.00453804       0.00145706       0.00463393
H       -2.05083770      -1.67462265      -1.37555570       0.02908466       0.00101030      -0.00548054       0.00178677
H       -2.36737493      -0.29546136       1.31873717       0.03093533       0.00139845       0.00199798       0.00024974
H       -2.89408878       0.31769498      -0.24481984       0.03847140       0.00175259       0.00161530      -0.00119486
H       -0.69885124       0.99550161      -0.81299723       0.03697840       0.00062492       0.00448175       0.00014051
H       -0.21767418       3.15790576       1.91241638       0.14138870       0.00160698      -0.00032821       0.00093303
