43
Properties=species:S:1:pos:R:3:charge:R:1:forces:R:3 energy=-52542.00015696111 pbc="F F F"
Cl      -1.23100606      -2.19887562       2.76766259      -0.06725829      -0.00354033       0.00207367      -0.00234544
C       -2.37059082      -1.42192517       1.69136996       0.02348294       0.00163862      -0.00427479       0.00048619
C       -3.61925140      -1.96424628       1.44499615       0.02491978       0.00076086      -0.00394142       0.00342863
C       -4.48409998      -1.31574178       0.56782257      -0.05939480       0.00439450      -0.00085525      -0.00063045
C       -4.10557822      -0.14618673      -0.05951260       0.06974863       0.00480187       0.00133750      -0.00177977
C       -2.83265342       0.41853109       0.18334143       0.03620851       0.00672389       0.00237666       0.00110482
C       -1.99034449      -0.23889225       1.06976605      -0.05142028       0.00209352      -0.00107148       0.00405620
N       -2.49514244       1.61081370      -0.43839309      -0.15018104       0.00417153       0.00265026      -0.00253507
C       -1.10684414       1.96652592      -0.56155053       0.00519701       0.00300099       0.00268166      -0.00340196
C       -0.31523582       0.97170222      -1.42374917       0.17161401      -0.00320509       0.00201377       0.00389542
O       -0.88900627       0.26866805      -2.24729562      -0.29749006       0.00408964       0.00100333       0.00312079
N        1.02912904       0.92894025      -1.21986086      -0.06997252      -0.00451532       0.00298729       0.00029907
C        1.72152322       1.81688148      -0.29412803       0.01298247      -0.00400672      -0.00324639      -0.00085837
C        3.21388704       1.61198131      -0.39746580       0.00855149      -0.00181910       0.00130997       0.00178514
N        3.55625904       0.22560032      -0.13077587      -0.08377037       0.00605030      -0.00012816      -0.00623967
C        2.67775943      -0.78813238      -0.70403695       0.00799201      -0.00103626      -0.00019045      -0.00278557
C        1.81220919      -0.15864856      -1.77754714       0.01402199      -0.00498063       0.00634352      -0.00230074
C        4.66318266      -0.04877159       0.62458252       0.17077713       0.00442016      -0.00017186      -0.00199715
O        5.41073348       0.84334209       1.01743250      -0.31786266       0.00150850       0.00115130       0.00447897
C        4.91405672      -1.47964604       0.94886428      -0.04346718      -0.00069860      -0.00143717       0.00059933
C        6.03564756      -1.84617968       1.55710325      -0.05809867      -0.00047289      -0.00026618       0.00053503
O       -4.87698619       0.53809523      -0.94994667      -0.13247044      -0.00106461       0.00199142      -0.00131821
C       -6.16728628       0.02917514      -1.24585940       0.02539832      -0.00390536      -0.00151813      -0.00087865
Cl      -4.15822005      -3.44739495       2.19522232      -0.06565069      -0.00279466      -0.00214913       0.00418033
H       -5.45192877      -1.75461336       0.38896749       0.04442134       0.00172740      -0.00046310       0.00237657
H       -1.00839863       0.15217130       1.28483515       0.03471237       0.00109511       0.00710385      -0.00065275
H       -2.98517121       1.71882745      -1.31169741       0.11422571      -0.00261580      -0.00088111       0.00000041
H       -1.04620469       2.95243243      -1.02693538       0.04538898       0.00306393       0.00206268       0.00039977
H       -0.67057611       2.07641803       0.42715249       0.03911916       0.00041978       0.00146136      -0.00530911
H        1.47945250       2.85597165      -0.51989055       0.04676411      -0.00140828      -0.00419745       0.00492111
H        1.40596892       1.62562092       0.73548673       0.03295086       0.00015359       0.00099623      -0.00145711
H        3.73464639       2.22169622       0.33217835       0.04302638      -0.00033783       0.00144225       0.00477126
H        3.56548096       1.92267611      -1.38581692       0.03087717      -0.00425602      -0.00175959      -0.00072470
H        2.03623732      -1.23668560       0.06274474       0.03502458      -0.00424554      -0.00382627      -0.00101406
H        3.26990360      -1.58792199      -1.14686190       0.04437518       0.00536835       0.00132258      -0.00296179
H        1.12199216      -0.88362417      -2.19242899       0.04435677       0.00294933      -0.00475325       0.00435164
H        2.44273714       0.20325757      -2.59333724       0.03249240      -0.00267869      -0.00137982      -0.00420696
H        4.17222445      -2.22743030       0.70504886       0.03740319      -0.00319232      -0.00231436       0.00112197
H        6.23551620      -2.87880852       1.80839776       0.04201169      -0.00189720      -0.00084104      -0.00513860
H        6.77966178      -1.10724439       1.82052077       0.03995525      -0.00282203       0.00082934       0.00581193
H       -6.11121024      -0.96427046      -1.69451334       0.03761066      -0.00243820      -0.00090757      -0.00112730
H       -6.60074942       0.72120170      -1.95992062       0.04380634       0.00009904      -0.00156694      -0.00381938
H       -6.79538999      -0.00693999      -0.35387194       0.03762063      -0.00059834      -0.00099644       0.00175822
