45
Properties=species:S:1:pos:R:3:charge:R:1:forces:R:3 energy=-37837.307673137395 pbc="F F F"
N        0.17145268      -0.28258318       0.04734298      -0.09334593       0.00070269      -0.00151124       0.00005989
C        1.03890423      -0.01374758       1.19208567       0.00440107      -0.00032869      -0.00016173       0.00044001
C        2.30670151      -0.82471746       1.07946557       0.00023891      -0.00011458      -0.00116472       0.00147435
N        3.02038730      -0.45954383      -0.11767639      -0.10279471      -0.00046530      -0.00257480      -0.00018747
C        2.22145535      -0.11954173      -1.26930250       0.00564003       0.00018167      -0.00373953      -0.00277872
C        0.84059548      -0.73407617      -1.16666232       0.00661895      -0.00115044      -0.00050696      -0.00061792
C        4.40772474      -0.74788403      -0.18659141       0.10084661      -0.00076195      -0.00099832      -0.00026413
O        4.90674469      -1.35747530       0.78918581      -0.35932848      -0.00210702       0.00017143      -0.00367278
C        5.11254838      -0.31284933      -1.33654265      -0.19444042       0.00083195       0.00260141      -0.00056489
C        6.49691549      -0.60694713      -1.50928717      -0.04631410       0.00177439      -0.00166067      -0.00008092
C       -1.16328446      -0.14423553       0.11201692       0.14561610       0.00159331      -0.00129217      -0.00043581
N       -1.87989644      -0.36955830      -1.01152831      -0.22385372       0.00402649       0.00071684      -0.00496922
C       -3.18978480      -0.20685138      -0.93256905       0.02330296       0.00269302       0.00208498      -0.00217413
C       -3.87750523       0.15487581       0.23231042      -0.04733104      -0.00073375      -0.00320439       0.00079046
C       -3.02958056       0.33648254       1.33228446       0.02333051       0.00490867       0.00278059      -0.00063138
N       -1.71252343       0.20981740       1.29563120      -0.22455037       0.00609810       0.00155777       0.00302659
C       -5.32475013       0.32290590       0.29005325      -0.00083488      -0.00680153      -0.00090874       0.00202077
C       -6.04803224       0.08264091       1.47115137      -0.05332622      -0.00465376       0.00551400       0.00506765
C       -7.42328753       0.23468411       1.52123655      -0.05487091      -0.00349445      -0.00369508      -0.00149755
C       -8.13292487       0.64579717       0.39948041      -0.06513395       0.00154517       0.00115868       0.00129225
C       -7.43709748       0.89543155      -0.77717676      -0.05489231      -0.00319363       0.00121275       0.00223796
C       -6.06346862       0.73178075      -0.83421335      -0.05335497      -0.00606929      -0.00178355       0.00113167
H        1.29859312       1.05089615       1.23527054       0.02269649      -0.00182149      -0.00088149       0.00000528
H        0.49179917      -0.24907300       2.10101581       0.03340097      -0.00095132       0.00277816      -0.00055116
H        2.06513267      -1.89950516       1.12374210       0.01711048      -0.00361134      -0.00055036      -0.00766181
H        2.96614373      -0.63470964       1.92112671       0.02965233       0.00262869      -0.00028076       0.00171131
H        2.12100939       0.96949930      -1.41079207       0.02191678      -0.00248050      -0.00400115       0.00051209
H        2.70853313      -0.50368969      -2.16205602       0.03120774       0.00706338      -0.00323714      -0.00143338
H        0.22612509      -0.46178527      -2.01931309       0.03363485       0.00338312      -0.00216151      -0.00409993
H        0.93766510      -1.82739275      -1.16990832       0.02337283      -0.00583029       0.00099024       0.00100865
H        4.66891673       0.41217504      -2.01112988       0.02220428      -0.00060435       0.00220499      -0.00056513
H        6.83622032      -0.68060662      -2.53625054       0.02226231       0.00423280       0.00397862      -0.00062532
H        6.84513333      -1.44187215      -0.91318532       0.02744125       0.00220060      -0.00338795       0.00010815
H       -3.73481830      -0.40228283      -1.84999661       0.02575119      -0.00430520       0.00060843       0.00087534
H       -3.43835240       0.62668930       2.29450109       0.02560837       0.00197798       0.00606008      -0.00280601
H       -5.52237262      -0.25779859       2.35297263       0.02447386       0.00062972      -0.00199633      -0.00061318
H       -7.94518711       0.02670736       2.44670481       0.02215176       0.00227706       0.00159098      -0.00121008
H       -9.20820606       0.77006137       0.44185194       0.02360758       0.00668552      -0.00285845      -0.00153163
H       -7.96825091       1.22291497      -1.66192968       0.02217091       0.00362123       0.00224196       0.00225561
H       -5.54365398       0.95389677      -1.75644736       0.02451847      -0.00110191      -0.00127112       0.00397906
S        7.82033816       0.83073419      -0.95249339      -0.19001880      -0.00049201      -0.00288629       0.00294160
C        7.34415075       0.97814842       0.79288577      -0.08418267      -0.00070853       0.00271622       0.00229084
H        7.64700468       0.10280301       1.36461477       0.02672201      -0.00457310       0.00718980       0.00372554
H        6.26424491       1.08451374       0.87445911       0.03149943       0.00204635      -0.00279285      -0.00070988
H        7.82921914       1.86285384       1.20717454       0.02717437      -0.00474951       0.00134978       0.00272461
