46
Properties=species:S:1:pos:R:3:charge:R:1:forces:R:3 energy=-37853.18001867112 pbc="F F F"
C        3.46641363       0.54929989       0.60175990       0.04940785      -0.00156186      -0.00282177       0.00153678
N        2.17671682       0.77091237       0.80848598      -0.20127122      -0.00051027       0.00207376       0.00471761
C        1.32162135       0.21574428      -0.07291979       0.15418655       0.00334229      -0.00789906       0.00438389
N       -0.00111574       0.41892581       0.13136976      -0.08752749       0.00478043      -0.00014822       0.00042695
C       -0.47211539       1.18017931       1.27542588       0.00719476       0.00144331      -0.00217091      -0.00138355
C       -1.86764056       1.69283592       1.00670061       0.00897902       0.00300973       0.00077480      -0.00028305
N       -2.78572547       0.59104519       0.74885211      -0.07256819      -0.00191665       0.00468018       0.00646804
C       -4.02196397       0.60424181       1.32820997       0.17207253      -0.00149965       0.00099597       0.00515957
O       -4.37563777       1.49704184       2.08996352      -0.29880598       0.00030483      -0.00002344      -0.00060730
C       -4.93184384      -0.57135392       1.01103341      -0.04197815      -0.00248168      -0.00207436      -0.00143741
C       -6.35101222      -0.37742403       1.50301807      -0.02955988      -0.00111586      -0.00196692       0.00015954
S       -7.38048108       0.73345024       0.47641927      -0.09672254      -0.00059449      -0.00488345      -0.00269118
C       -7.65148673      -0.34194681      -0.96488268      -0.06628089      -0.00088061       0.00128577       0.00070750
C       -2.21844368      -0.57218941       0.07624079       0.01255937      -0.00372337       0.00456677       0.00348617
C       -1.00505916      -0.16871775      -0.73216977       0.01037971       0.00273363       0.00436728       0.00042002
N        1.68574954      -0.52496331      -1.13803189      -0.20223203      -0.00379384      -0.00077337      -0.00707378
C        2.98622928      -0.69484273      -1.32296556       0.04901189      -0.00223928      -0.00504596       0.00000494
C        3.96897577      -0.18545514      -0.47320850      -0.02292542      -0.00021558       0.00289552      -0.00332396
C        5.39918575      -0.40760759      -0.69219343       0.00058613       0.00594634      -0.00144315       0.00024354
C        6.25938001      -0.66200876       0.37972863      -0.03856774       0.00495724       0.00090766       0.00591028
C        7.60935816      -0.88976012       0.16958452      -0.04057201       0.00494190      -0.00187327       0.00005019
C        8.13430023      -0.85191741      -1.11506615      -0.04226924       0.00179422       0.00106723       0.00011486
C        7.29411984      -0.58926762      -2.18856220      -0.04060658       0.00101472      -0.00114049       0.00022804
C        5.94132472      -0.37627192      -1.98034937      -0.03845197      -0.00022385      -0.00366611      -0.00334412
H        4.14236708       1.00309104       1.31922699       0.04326082       0.00054516      -0.00278606      -0.00477095
H       -0.46443978       0.56253693       2.18006524       0.03290174       0.00270232       0.00519024       0.00437596
H        0.21065247       2.00498894       1.45428157       0.04254062      -0.00033819      -0.00273198      -0.00425836
H       -1.84519445       2.37980759       0.15482735       0.03199247       0.00020669      -0.00252197      -0.00005210
H       -2.24966203       2.24230744       1.85892076       0.04175704      -0.00122580       0.00111296      -0.00528824
H       -4.92817796      -0.77983137      -0.05628780       0.03576745      -0.00276653       0.00160250      -0.00282252
H       -4.50647555      -1.46134617       1.48745968       0.04379616      -0.00216466      -0.00108553      -0.00300085
H       -6.85556874      -1.33915813       1.57190522       0.03712267      -0.00149021      -0.00036475       0.00338453
H       -6.33628509       0.07289319       2.49039411       0.04019170      -0.00055700      -0.00309522       0.00086852
H       -8.32531625       0.19044935      -1.62999837       0.04181110       0.00304276      -0.00020542      -0.00241554
H       -8.11923273      -1.28189276      -0.67811538       0.03664575      -0.00019954       0.00145876       0.00045301
H       -6.72930508      -0.54356282      -1.50524395       0.03684105      -0.00104711       0.00192611       0.00257382
H       -1.92633140      -1.34538294       0.79785762       0.03290358       0.00220205      -0.00330562       0.00098281
H       -2.95576548      -1.01344682      -0.58805522       0.04477966      -0.00615908      -0.00203860       0.00013820
H       -0.57483370      -1.03416513      -1.22319370       0.04218308       0.00011779       0.00406866      -0.00361796
H       -1.30557509       0.53051545      -1.52069238       0.03374504       0.00026957       0.00477532       0.00004090
H        3.26412314      -1.29511629      -2.18290234       0.04324512       0.00279291       0.00356373      -0.00212203
H        5.85929228      -0.70853369       1.38324959       0.03781820      -0.00699312       0.00369346       0.00538769
H        8.25199444      -1.09926690       1.01400243       0.03946612       0.00153704       0.00159745       0.00261934
H        9.18947909      -1.02581920      -1.27812973       0.03988522       0.00101440       0.00224187      -0.00047000
H        7.69152317      -0.54982737      -3.19389272       0.03949715      -0.00282754       0.00170194       0.00122464
H        5.29806302      -0.15723040      -2.82150766       0.03780990      -0.00217443      -0.00248267      -0.00710318
