45
Properties=species:S:1:pos:R:3:charge:R:1:forces:R:3 energy=-37837.43110121549 pbc="F F F"
N       -0.50114769       0.43317110      -0.26551757      -0.08790063       0.00051975      -0.00133671       0.00106493
C       -1.07121593       1.30689018      -1.27504170      -0.00064613      -0.00168199      -0.00066426      -0.00156699
C       -1.98457442       0.51085188      -2.20604440      -0.00566136       0.00023572       0.00101703       0.00040188
N       -2.97606950      -0.26616799      -1.49810752      -0.11930782       0.00223427       0.00087413       0.00362046
C       -2.37331517      -1.12217730      -0.50221836      -0.00251353       0.00199020      -0.00012055       0.00252181
C       -1.49797113      -0.33112394       0.46654206      -0.00173341       0.00227616      -0.00395738       0.00515478
C       -4.21240219       0.41722138      -1.17409296       0.09248951      -0.00365027      -0.00206690       0.00017831
O       -4.29095881       1.64099052      -1.44914710      -0.35348043      -0.00394924       0.00279069      -0.00158490
C       -5.23847520      -0.37265104      -0.62903440      -0.19497648      -0.00271446       0.00191512      -0.00071988
C       -6.50110274       0.18975962      -0.24971950      -0.04395273      -0.00190239      -0.00407861       0.00016187
C        0.81716409       0.24466064      -0.10857055       0.15346515      -0.00074611      -0.00381551      -0.00023063
N        1.22524801      -0.60489336       0.86232066      -0.22240756      -0.00132087      -0.00130552       0.00586187
C        2.52550495      -0.76472508       1.01564359       0.02365597       0.00093015      -0.00455271      -0.00463598
C        3.50188307      -0.11209741       0.25208721      -0.04789809       0.00072012       0.00265481       0.00149676
C        2.95748318       0.73837957      -0.71848429       0.02384615      -0.00271498       0.00354804       0.00242668
N        1.66585478       0.92076145      -0.91665554      -0.22208782      -0.00304830       0.00689017       0.00451196
C        4.93453524      -0.30081032       0.44631896      -0.00120324       0.00345687       0.00027228       0.00162591
C        5.45838408      -1.51257053       0.92887662      -0.05324947       0.00468151       0.00012705       0.00017907
C        6.82002985      -1.69697056       1.09641435      -0.05491272       0.00645100       0.00189840      -0.00057077
C        7.71536111      -0.67458893       0.80688911      -0.06506941      -0.00023410       0.00364171      -0.00275497
C        7.21824379       0.53639528       0.34085013      -0.05488967      -0.00102443       0.00308843       0.00452559
C        5.85803215       0.71909758       0.15873608      -0.05317745       0.00184250      -0.00276978      -0.00292232
H       -0.26049602       1.77835632      -1.82416485       0.03331214      -0.00146057       0.00440709       0.00483916
H       -1.65777430       2.08180223      -0.78088786       0.02773616      -0.00462417      -0.00111920      -0.00472062
H       -1.36960852      -0.16237896      -2.81422161       0.01903111      -0.00040441       0.00387823       0.00135230
H       -2.51148931       1.19620300      -2.86145874       0.02875725       0.00001431      -0.00471924      -0.00315990
H       -1.76360506      -1.88533583      -0.99802694       0.02176398      -0.00018675      -0.00151604       0.00116355
H       -3.14483956      -1.63375336       0.06043375       0.03221022      -0.00335187       0.00166462      -0.00188387
H       -0.99488441      -0.98158946       1.17610418       0.03417248       0.00273454      -0.00565628       0.00665558
H       -2.13652534       0.36214529       1.01830145       0.02582539       0.00217594       0.00084819      -0.00091548
H       -5.10048073      -1.43785419      -0.48073532       0.02078142       0.00102757       0.00459498       0.00023915
H       -7.35459966      -0.47134978      -0.36145344       0.02316383      -0.00443703       0.00317163      -0.00553764
H       -6.70079851       1.15685611      -0.70022762       0.02748270      -0.00231330      -0.00687011       0.00559982
H        2.81939651      -1.43853993       1.81404833       0.02588618      -0.00164636      -0.00124925      -0.00533408
H        3.61096107       1.28487257      -1.39090004       0.02580883      -0.00340200       0.00068699       0.00310987
H        4.78517726      -2.33103029       1.14495616       0.02453252       0.00069513       0.00205369      -0.00681759
H        7.18344957      -2.65135826       1.45542491       0.02225287       0.00532325      -0.00019088       0.00016794
H        8.78037005      -0.81847510       0.94164600       0.02371102      -0.00408562      -0.00045621       0.00267932
H        7.89514626       1.35144553       0.11812308       0.02222966       0.00162813      -0.00484514       0.00044197
H        5.49522460       1.67935754      -0.18250058       0.02456244       0.00158315      -0.00736410      -0.00223979
S       -6.73043017       0.58060370       1.68683951      -0.17489566       0.00149564       0.00393770      -0.00209497
C       -5.43511478       1.84044180       1.85945177      -0.08005358      -0.00205087       0.00304823      -0.00276029
H       -4.51272935       1.47948020       1.41201180       0.02950185       0.00112203       0.00032671      -0.00662575
H       -5.27908336       2.03026835       2.92160490       0.02712324       0.00549341      -0.00038701       0.00255932
H       -5.71706779       2.77023514       1.36742900       0.02671518       0.00231662       0.00170442      -0.00546333
