42
Properties=species:S:1:pos:R:3:charge:R:1:forces:R:3 energy=-34369.528784312315 pbc="F F F"
N        2.30700932      -0.02000689      -0.56425053      -0.12302573       0.00318635       0.00220129      -0.00118529
C        0.88576335       0.09429093      -0.94565270       0.07010388       0.00141094       0.00219392       0.00233800
C        0.07465253      -0.72996097       0.10746176       0.05852078      -0.00233003       0.00124952      -0.00003762
O        0.48262292      -2.07362255       0.13592408      -0.24852508      -0.00224006       0.00814028      -0.00528868
C       -1.41575321      -0.68752281      -0.11883100       0.00689618      -0.00068963      -0.00437257       0.00280330
C       -2.18430383       0.33822560       0.41223729      -0.05679916       0.00320326      -0.00008567      -0.00317465
C       -3.55293502       0.40465937       0.17160705       0.08170670       0.00338996       0.00237441       0.00074115
C       -4.17840191      -0.57636391      -0.58911970      -0.07324649       0.00185771       0.00131909       0.00208827
C       -3.41051933      -1.62562719      -1.08818730      -0.05137414       0.00046463       0.00256622      -0.00529269
C       -2.05101871      -1.69061525      -0.85110181      -0.04878515       0.00033509       0.00043125      -0.00106893
O       -4.19885759       1.48292377       0.72952741      -0.15824334      -0.00018525       0.00403343       0.00083115
C       -5.57272880       1.62496860       0.45110694       0.01366876      -0.00203137       0.00112553      -0.00043127
C        0.45245734       1.55657058      -0.90566956      -0.09150715      -0.00294111      -0.00107583       0.00042839
C        0.67947387      -0.48197811      -2.34025115      -0.09485413      -0.00075824      -0.00149175       0.00045335
C        3.31468860       0.58294644      -1.22795165       0.16661918       0.00534482       0.00211355      -0.00466982
O        3.15456848       1.33319560      -2.20906924      -0.35804635      -0.00089926      -0.00202442       0.00252450
C        4.70633837       0.34438675      -0.76962117      -0.04688796       0.00129933       0.00349810      -0.00592122
C        5.17459625      -0.61319102       0.02667225      -0.08064377       0.00609085      -0.00223341       0.00289930
H        2.53679812      -0.54559355       0.29059551       0.07979044      -0.00143104       0.00187079       0.00076164
H        0.27860177      -0.25214463       1.07214923       0.01798529      -0.00021836      -0.00597984      -0.00192734
H        1.17446474      -2.11823328       0.85802239       0.09378201       0.00021461      -0.00109837       0.00424533
H       -1.73785347       1.11362904       1.01999815       0.03044653       0.00172437      -0.00143169      -0.00051088
H       -5.23822411      -0.54300889      -0.79154649       0.02815311       0.00005130      -0.00073389      -0.00272397
H       -3.89211292      -2.40109566      -1.67182119       0.02423255      -0.00270257      -0.00096827       0.00032621
H       -1.45726299      -2.51586877      -1.21159504       0.02770258       0.00295533       0.00080904       0.00184539
H       -5.89317536       2.53088476       0.95736735       0.02746168      -0.00283996       0.00155593       0.00719403
H       -5.76104173       1.72998774      -0.62113329       0.02452493       0.00194444      -0.00785009      -0.00423119
H       -6.15413187       0.77925917       0.82902823       0.02456811      -0.00134373       0.00099717       0.00396932
H       -0.59222041       1.65286282      -1.18908962       0.02513461      -0.00087827       0.00004887      -0.00263530
H        0.58279643       1.96734066       0.09532897       0.02103033      -0.00318368      -0.00138438      -0.00106164
H        1.05709669       2.13790290      -1.59292217       0.02242285      -0.00088941       0.00011906       0.00699758
H        0.94716991      -1.53439083      -2.35326580       0.01890326      -0.00319590      -0.00667157       0.00121469
H        1.29768763       0.05288547      -3.05336855       0.02231217       0.00235716      -0.00167822      -0.00179452
H       -0.36138588      -0.38757718      -2.64228936       0.02389451      -0.00501719       0.00311567      -0.00223350
H        5.39689859       1.04021462      -1.22915496       0.02104549       0.00028610      -0.00136243       0.00098400
H        6.23975107      -0.66867391       0.22561422       0.02385355      -0.00036166       0.00357931       0.00626283
H        4.54977161      -1.34212706       0.52072919       0.02428073      -0.00090940      -0.00505819      -0.00175872
S        2.64459112      -1.62970780       2.34648631      -0.49910268      -0.00428099      -0.00755008       0.00067709
C        2.45066693       0.12932366       2.79735851      -0.11581989       0.00373001       0.00468494      -0.00119445
H        3.01107534       0.77163638       2.11261924       0.02313200       0.00187213       0.00412535      -0.00038365
H        2.82694451       0.31569200       3.80560675       0.02155397      -0.00200305      -0.00045546       0.00002177
H        1.40166874       0.43754612       2.77785977       0.02313490      -0.00038866       0.00135448      -0.00208097
