43
Properties=species:S:1:pos:R:3:charge:R:1:forces:R:3 energy=-34384.973941540244 pbc="F F F"
O       -0.47679927      -1.49924496      -0.86843744      -0.21433093       0.00270744       0.00189580      -0.00450562
C       -0.85023511      -0.18443317      -1.29397613       0.05926553      -0.00468927      -0.00237431      -0.00213875
C       -2.25826774       0.15330347      -0.88153459       0.00232596      -0.00289168       0.00312763      -0.00101493
C       -3.08898809       0.85186354      -1.74622554      -0.04872747      -0.00102139       0.00675881       0.00040275
C       -4.38867608       1.15443274      -1.36093224      -0.03830811      -0.00157121       0.00181226       0.00193820
C       -4.86752791       0.76306632      -0.12664396      -0.05418890      -0.00013568      -0.00163996      -0.00113332
C       -4.04074748       0.05288763       0.74378083       0.07581268       0.00274031       0.00330719      -0.00163684
O       -4.59384392      -0.28941911       1.93860998      -0.14396545       0.00167324      -0.00235135      -0.00200405
C       -3.78859236      -0.98897685       2.87267496       0.01995560      -0.00039844       0.00111642       0.00051626
C       -2.74013961      -0.25510230       0.36123953      -0.05859652       0.00115420       0.00215931      -0.00053355
C        0.23046054       0.79000708      -0.76451473       0.07006455      -0.00443718      -0.00192860       0.00241063
N        1.49013481       0.20543317      -1.24811356      -0.12232126      -0.00104210      -0.00248822      -0.00125235
C        2.72841048       0.73026906      -1.09738819       0.16426080       0.00059722       0.00353096      -0.00526644
O        2.97747284       1.84224068      -0.64086311      -0.31386080      -0.00356261       0.00230235       0.00143005
C        3.85303498      -0.19527568      -1.51347630      -0.04384546       0.00258451      -0.00334492       0.00255060
C        4.60870203      -0.68634127      -0.29098181      -0.02720720      -0.00113766      -0.00519498       0.00818685
S        3.55748431      -1.83557627       0.67467503      -0.08271465      -0.00281753       0.00275439      -0.00568721
C        4.65877830      -2.12926437       2.09487759      -0.06666100       0.00048372       0.00102234      -0.00183300
C        0.02230465       2.16771070      -1.37310639      -0.08614812       0.00021586      -0.00104053       0.00124596
C        0.26276872       0.87390425       0.75694903      -0.09031467       0.00103794      -0.00126136       0.00419056
H       -1.23127049      -2.07284192      -1.04377660       0.16027977       0.00583801      -0.00040907      -0.00083756
H       -0.79927947      -0.12830590      -2.38913623       0.02617551       0.00133363       0.00397264      -0.00134447
H       -2.72627574       1.16392398      -2.71612003       0.03867299       0.00557375      -0.00265567       0.00135987
H       -5.03208184       1.70567738      -2.03368828       0.03875130      -0.00212477      -0.00193461       0.00170325
H       -5.87477700       0.99220430       0.19070110       0.04034262      -0.00102987       0.00143006      -0.00040467
H       -3.47284660      -1.95882871       2.48326248       0.03453197       0.00133236       0.00000519       0.00333424
H       -2.90730002      -0.41036710       3.15576632       0.03393150       0.00000484       0.00217465       0.00042412
H       -4.41055504      -1.14179809       3.74784544       0.03944231      -0.00230802      -0.00076425       0.00028277
H       -2.08604535      -0.80931638       1.01386335       0.03811439      -0.00196299      -0.00473880      -0.00000470
H        1.43946923      -0.79535013      -1.35864512       0.10853668      -0.00417665      -0.00167770      -0.00467587
H        3.49039030      -1.03931033      -2.10044128       0.03822595       0.00053325      -0.00416461      -0.00098948
H        4.53030699       0.37977948      -2.14410644       0.04216828      -0.00137321       0.00036450       0.00026432
H        5.51874050      -1.20596258      -0.58539012       0.03792278       0.00008007       0.00221058       0.00252131
H        4.87495560       0.16257039       0.33607603       0.03550342       0.00323007       0.00190898      -0.00035005
H        4.14014698      -2.82507206       2.74791046       0.04073421      -0.00239567       0.00252074       0.00322718
H        4.85065787      -1.20986391       2.64326313       0.03749900       0.00187034       0.00418674      -0.00108304
H        5.59983416      -2.57683029       1.78328341       0.03681010       0.00264784      -0.00292706      -0.00220633
H        0.82210903       2.83058258      -1.06278382       0.03049816       0.00235355      -0.00123756       0.00216020
H        0.02661133       2.11541472      -2.46062286       0.02657559      -0.00145191      -0.00404750      -0.00073239
H       -0.92826483       2.58745819      -1.05189933       0.03022558       0.00235294      -0.00197775       0.00440418
H       -0.64580120       1.32670179       1.14697683       0.02836697      -0.00219691      -0.00162947      -0.00174976
H        0.38142640      -0.11471165       1.19198841       0.02492081       0.00101076      -0.00381607       0.00087489
H        1.11045203       1.48111379       1.05586732       0.03127556       0.00136843       0.00504314      -0.00204336
