28
Properties=species:S:1:pos:R:3:charge:R:1:forces:R:3 energy=-24969.82876845895 pbc="F F F"
N       -0.70294679       1.28316036       0.06502505      -0.18038535      -0.00024624       0.00133415      -0.00274722
C       -1.64370037       0.32052671      -0.52446423       0.06730764      -0.00453646      -0.00102796       0.00323055
C       -1.18601121      -1.12967924      -0.26336709       0.02067222       0.00051805       0.00266422       0.00001645
O       -0.86112846      -1.36400289       1.09429557      -0.27049312       0.00292281      -0.00012528       0.00536519
C       -1.75637892       0.55278487      -2.02597042      -0.09462409      -0.00127021      -0.00207633       0.00332469
C       -2.99024692       0.54481091       0.15006129      -0.08675337      -0.00248016       0.00286087       0.00007631
C        0.69730658       0.97207454      -0.02349578       0.08651344       0.00467846      -0.00508121       0.00251681
O        1.17743123       0.69568537      -1.15473724      -0.36862257      -0.00343702      -0.00555535      -0.00519701
C        1.39665684       0.98193577       1.18954383      -0.22224897       0.00145411      -0.00352646       0.00458624
C        2.81378053       0.75867564       1.25023542      -0.05590456       0.00336821      -0.00492457       0.00137574
H       -0.95697783       1.42749647       1.03047556       0.08414428      -0.00309907      -0.00102714      -0.00350971
H       -0.34145222      -1.35675572      -0.91791003       0.01467577      -0.00023980      -0.00289563      -0.00321663
H       -0.01387267      -0.90018376       1.25552753       0.12203845       0.00361565      -0.00684160      -0.00320866
H       -0.76872453       0.49968769      -2.47314175       0.01505347      -0.00077633       0.00405469      -0.00484956
H       -2.16640670       1.54500731      -2.21743583       0.00920037      -0.00076200       0.00190167       0.00489982
H       -2.41471335      -0.18820429      -2.48708777       0.01101882       0.00142204      -0.00388500      -0.00344503
H       -2.93096970       0.29687354       1.20952683       0.01691017      -0.00293644       0.00059284       0.00071457
H       -3.29223207       1.58737744       0.04996898       0.01253742       0.00206429       0.00613117      -0.00271378
H       -3.76231491      -0.07908543      -0.30250821       0.01396406      -0.00380566       0.00489699      -0.00161514
H        0.86361516       1.19161658       2.11454729       0.01022449      -0.00451116       0.00067287       0.00620094
H        3.31500559       1.26227801       2.07096122       0.00959330       0.00277738       0.00052454      -0.00405174
H        3.30861985       0.97049133       0.30631990       0.01742502       0.00025811      -0.00389753      -0.00064485
H       -2.00275340      -1.81199460      -0.51109414       0.00350620       0.00687985      -0.00262891       0.00196024
S        3.46604791      -1.10458524       1.59145894      -0.21161817      -0.00396050       0.00372807       0.00336216
C        2.79587650      -1.89662802       0.09625125      -0.08342801       0.00040814       0.00740922       0.00251407
H        2.00588163      -2.60386338       0.34813341       0.02170439      -0.00142696       0.00063239       0.00146892
H        3.58348629      -2.41618606      -0.45201193       0.01391313       0.00446044       0.00281046      -0.00123962
H        2.36664591      -1.11913003      -0.53492532       0.02367555      -0.00133972       0.00327891      -0.00517331
