29
Properties=species:S:1:pos:R:3:charge:R:1:forces:R:3 energy=-24985.622447261514 pbc="F F F"
O       -4.13160395      -0.19281525       0.03102061      -0.23227137       0.00515040      -0.00204930      -0.00684314
C       -2.78265669      -0.46461332      -0.34396713       0.02910716       0.00219331       0.00178718      -0.00105327
H       -2.39614782      -1.34914473       0.16290834       0.02991063      -0.00109907       0.00472747      -0.00542200
C       -1.92323055       0.74375993       0.03447285       0.07683406      -0.00148421      -0.00154745       0.00297134
N       -0.54279805       0.50105396      -0.42058582      -0.11204997      -0.00323027      -0.00113428       0.00038124
C        0.28465706      -0.49044160      -0.00538529       0.16442515      -0.00258792       0.00330695       0.00224637
O       -0.04623079      -1.36000070       0.79343353      -0.30383384       0.00074465      -0.00146922      -0.00437342
C        1.68175537      -0.43443072      -0.60965224      -0.04213852      -0.00025482       0.00401934       0.00047332
C        2.46168135      -1.70609021      -0.35546689      -0.02667173      -0.00238671      -0.00293569       0.00152029
S        4.18427650      -1.65454926      -0.96592191      -0.09855455       0.00503865       0.00225218      -0.00093411
C        4.94523738      -0.61680381       0.32038935      -0.06731966      -0.00132430      -0.00190541      -0.00141314
C       -1.95602929       0.98089116       1.54032071      -0.08607496       0.00055342      -0.00053630       0.00130682
C       -2.40991714       1.98113392      -0.70906722      -0.07555971       0.00191986      -0.00487274       0.00072623
H       -4.63141034      -1.00691841      -0.07598859       0.16090667      -0.00288530       0.00352063       0.00293937
H       -2.70485414      -0.62241889      -1.42492363       0.02392959      -0.00151001      -0.00280606       0.00387548
H       -0.17851750       1.17578809      -1.07049214       0.12914276       0.00235606      -0.00830742      -0.00010655
H        1.61823934      -0.22870997      -1.67996247       0.03961953      -0.00200830       0.00910956      -0.00027136
H        2.20281998       0.42093419      -0.17289823       0.03795055       0.00231003       0.00406792       0.00152016
H        2.00084509      -2.54606888      -0.86995996       0.03830284      -0.00790112      -0.00015476      -0.00072682
H        2.45523115      -1.94190040       0.70505396       0.03306329      -0.00172737       0.00265388       0.00501903
H        4.81268805      -1.05287072       1.30835993       0.03563710       0.00442144       0.00167169       0.00283789
H        6.00756311      -0.57195746       0.09885766       0.03921006      -0.00113255      -0.00276097      -0.00101663
H        4.55077985       0.39663702       0.31387350       0.03656658      -0.00141733      -0.00107938      -0.00273195
H       -1.58012790       0.11606515       2.07780346       0.02704778      -0.00004753       0.00076224       0.00088120
H       -1.33806442       1.84051981       1.79572450       0.02674022       0.00018406       0.00036134      -0.00460573
H       -2.97645372       1.17453847       1.86141250       0.02788192       0.00329195      -0.00076197      -0.00084202
H       -2.37507224       1.83613245      -1.78955662       0.02914188       0.00116117      -0.00101434       0.00077499
H       -3.43914219       2.19546646      -0.43762484       0.02943233       0.00516326      -0.00154984      -0.00007374
H       -1.80207991       2.84998843      -0.45581841       0.02962419      -0.00349107      -0.00335531       0.00293977
