49
Properties=species:S:1:pos:R:3:charge:R:1:forces:R:3 energy=-41415.37796764628 pbc="F F F"
N       -0.82457419      -1.38043990      -0.18626232       0.00575461       0.00267300       0.00674938       0.00116706
N       -1.95126969      -0.94034087      -0.78660034      -0.18135178      -0.00041747      -0.00299318       0.00024902
C       -2.48085966       0.01806869      -0.02059401       0.02307844      -0.00415803      -0.00362294      -0.00212558
C       -1.67157328       0.19056429       1.13991911      -0.04356037      -0.00581616       0.00073910      -0.00177665
C       -0.63238802      -0.75417101       1.00022368       0.10320686      -0.00167920       0.00246110       0.00455281
N        0.31773745      -0.98158053       1.90148021      -0.18567972       0.00543331       0.00249763       0.00068859
C        0.27725217      -0.13733922       2.92684033       0.07470295       0.00259277       0.00141932      -0.00025075
N       -0.63738363       0.82063727       3.17599284      -0.23632970      -0.00151236      -0.00511296      -0.00490734
C       -1.61736429       0.97513268       2.28749380       0.02338354      -0.00354854      -0.00643557      -0.00046607
C       -3.68708724       0.71428716      -0.43709938      -0.01057021       0.00349807       0.00422737      -0.00018586
C       -4.58413120       0.11536587      -1.33333326      -0.03970076       0.00583968       0.00180062       0.00095771
C       -5.75729926       0.75158229      -1.68904930      -0.05427572       0.00367534      -0.00180674       0.00043756
C       -6.06410692       2.01295509      -1.18937111      -0.06165249      -0.00282677      -0.00343568       0.00139931
C       -5.16622672       2.63266302      -0.33001581      -0.05103054      -0.00352418       0.00026951       0.00224708
C       -3.99379791       1.99723179       0.03728887      -0.04455945       0.00037273       0.00311806       0.00241943
C        0.05647532      -2.21230930      -1.01082095       0.04361592      -0.00112803       0.00348245      -0.00529407
C        1.05823223      -1.34405313      -1.78614658      -0.00708726       0.00217826      -0.00160279      -0.00350770
N        2.22849498      -0.99761258      -1.02863949      -0.11129291      -0.00296228      -0.00306475       0.00363064
C        2.92975592      -2.17373021      -0.57858952       0.00428249       0.00087233       0.00028363      -0.00015522
C        2.08827520      -3.00153226       0.37672038      -0.05370136      -0.00505481       0.00180014      -0.00487133
C        0.74682518      -3.35507630      -0.26183775      -0.04452564      -0.00767444       0.00135165      -0.00256546
C        2.15720634       0.20027976      -0.24544537       0.10911413       0.00034583      -0.00246378      -0.00209224
O        1.23486473       0.99849932      -0.55114812      -0.33458039       0.00085327      -0.00405011      -0.00295406
C        3.09882748       0.41940043       0.78868540      -0.17403309       0.00034932       0.00059614      -0.00368430
C        3.15233675       1.65797357       1.47849758      -0.03266635       0.00723076       0.00155863      -0.00374567
H        1.08964343      -0.21394204       3.64067379       0.02444796       0.00137045      -0.00042293      -0.00516848
H       -4.34318702      -0.85597158      -1.74156675       0.02571792       0.00001732       0.00032932      -0.00165015
H       -6.44395331       0.25979030      -2.36771968       0.02419468      -0.00029269       0.00031048       0.00090465
H       -5.37765204       3.62315506       0.05353631       0.02456186      -0.00514124      -0.00027265       0.00141590
H       -3.28494380       2.51326424       0.66725581       0.02775090       0.00082905       0.00552601       0.00217121
H       -0.64617940      -2.63365471      -1.72737276       0.02652369       0.00192861      -0.00961153      -0.00141040
H        0.58324057      -0.43010000      -2.12685046       0.02312985       0.00031672      -0.00320183       0.00033464
H        1.36848510      -1.91992913      -2.66487437       0.01844374      -0.00144443       0.00096614      -0.00445389
H        3.18444559      -2.77363397      -1.46090504       0.01989779       0.00363063      -0.00289638       0.00292565
H        3.86968553      -1.88736956      -0.12402583       0.02733449       0.00198968      -0.00407853       0.00385871
H        2.61072379      -3.92441646       0.64942625       0.02343246      -0.00464701       0.00571611       0.00327639
H        1.92170418      -2.41758895       1.27925497       0.01983367       0.00754742      -0.00255616      -0.00201155
H        0.06473649      -3.75106868       0.49025933       0.02538007      -0.00199946      -0.00525470       0.00471639
H        0.91570521      -4.14770423      -0.99756979       0.02192445      -0.00341919      -0.00374811       0.00251337
H        3.79902461      -0.34175511       1.10534363       0.02505769      -0.00387362       0.00066654       0.00899396
H        3.29693798       1.59330499       2.55423318       0.02632465      -0.00312896       0.00110399       0.00434251
H        2.35496061       2.35093423       1.23219371       0.03384829       0.00578724       0.00095270       0.00294441
H       -6.98613651       2.50433605      -1.47135596       0.02616831      -0.00243456       0.00430084      -0.00227928
H       -2.36155207       1.72962844       2.51641743       0.03099942       0.00497434      -0.00303738      -0.00065923
S        4.82590712       2.81220806       1.14528103      -0.20037797      -0.00188325       0.00488302       0.00218454
C        4.81507079       2.90131188      -0.67317712      -0.08563430       0.00016524       0.00450387       0.00254550
H        4.20806916       3.72959299      -1.04239558       0.02856136      -0.00077762       0.00612648      -0.00016992
H        4.40883551       1.96948664      -1.06839626       0.03290861       0.00070101       0.00198605      -0.00089826
H        5.83819548       3.02284327      -1.02863495       0.02902921       0.00417089      -0.00005693      -0.00359257
