50
Properties=species:S:1:pos:R:3:charge:R:1:forces:R:3 energy=-41431.50080823998 pbc="F F F"
C        1.95265961      -3.69088632      -1.78415567       0.10009260       0.00173885       0.00148244      -0.00193026
N        3.29220472      -3.70440115      -1.64131326      -0.20242132       0.00055007       0.00164160       0.00419379
C        3.86990110      -2.62906188      -1.11484997       0.05485740       0.00123041       0.00325960      -0.00063924
H        4.94545567      -2.67545646      -0.99120000       0.04768473       0.00186323       0.00004137      -0.00431657
C        3.11255973      -1.52545359      -0.72939503      -0.03584317       0.00081425      -0.00250213       0.00560863
C        3.27555728      -0.22553194      -0.15000126       0.04340271      -0.00130314       0.00034404      -0.00159299
C        4.49818095       0.47862257       0.22463279      -0.00243819      -0.00141821      -0.00372485       0.00595156
C        5.71744974       0.18223102      -0.39244443      -0.03591341      -0.00233278       0.00355745      -0.00360377
C        6.88126226       0.82226327      -0.00304534      -0.03492270       0.00067131      -0.00010267      -0.00268719
C        6.85043106       1.77732626       1.00277107      -0.03793789       0.00165094      -0.00066659      -0.00104925
H        7.75938869       2.27464314       1.31229984       0.04296765       0.00112781      -0.00074507       0.00125562
C        5.64025598       2.09495030       1.60546935      -0.03797892       0.00011637       0.00266392      -0.00105751
C        4.47345698       1.46349463       1.21575209      -0.03136560      -0.00020257       0.00252178      -0.00260706
N        2.08268432       0.33577495       0.02229677      -0.15318848      -0.00173437      -0.00335881       0.00042586
N        1.14625521      -0.53913893      -0.43312081       0.01630469      -0.00202084       0.00032836      -0.00430679
C       -0.25677537      -0.18162404      -0.48800718       0.04336301      -0.00255721       0.00281902      -0.00625390
C       -0.68654609       0.56060615       0.77237058       0.00311807      -0.00116716      -0.00065367      -0.00173948
N       -2.08979295       0.90715049       0.65449783      -0.07506482      -0.00287450      -0.00203135       0.00323337
C       -3.02020407       0.07727322       1.21666912       0.16646118       0.00056448      -0.00282941      -0.00098022
O       -2.69086659      -0.89280134       1.89109799      -0.29233852      -0.00032869       0.00215524      -0.00067001
C       -4.48427304       0.42010205       1.00135032      -0.04434883      -0.00264012       0.00071819       0.00008676
C       -5.39740324      -0.48271566       1.80438875      -0.03016044      -0.00045153       0.00014159       0.00053651
S       -7.16720659      -0.04238837       1.68482292      -0.09241150      -0.00210982       0.00313385       0.00286619
C       -7.52651005      -0.58858967      -0.01086299      -0.06627616      -0.00163924      -0.00078706      -0.00045185
C       -2.37439851       1.79674672      -0.46400363       0.01588165      -0.00046596      -0.00125988      -0.00028658
C       -2.00093570       1.11282177      -1.77057356      -0.03820306       0.00525179      -0.00241469      -0.00100910
C       -0.55411481       0.65095469      -1.73320040      -0.04145077      -0.00023539       0.00154771      -0.00417363
C        1.71899472      -1.66782867      -0.90891286       0.10417386       0.00013116      -0.00087413       0.00557974
N        1.10758456      -2.72556884      -1.44669226      -0.20124398       0.00293890      -0.00079880       0.00311587
H        1.51141807      -4.57708052      -2.22410404       0.04657441      -0.00019690       0.00232281      -0.00331315
H        5.75090022      -0.52486276      -1.20871259       0.03874085      -0.00130160      -0.00348254       0.00248215
H        7.81537297       0.57720697      -0.49073905       0.04233235       0.00367869      -0.00119836      -0.00257023
H        5.60617140       2.84389997       2.38546451       0.04222890       0.00166037      -0.00000685       0.00319277
H        3.53287798       1.72727386       1.67769464       0.03747632       0.00050972      -0.00157061       0.00262753
H       -0.78647988      -1.13175982      -0.54285541       0.03863956       0.00227274      -0.00194343       0.00020028
H       -0.10191315       1.47139555       0.88551023       0.03503400       0.00013436      -0.00183364       0.00049713
H       -0.54539203      -0.05312164       1.65370502       0.04152519      -0.00109859       0.00313746      -0.00257143
H       -4.70715269       0.33281587      -0.06506535       0.03782884       0.00153237       0.00102691       0.00140759
H       -4.65889489       1.46647192       1.25274264       0.03911164       0.00043205       0.00315248       0.00281332
H       -5.16340523      -0.41191051       2.86280195       0.04349286      -0.00048530       0.00004616      -0.00083391
H       -5.25857548      -1.52187630       1.51634985       0.03584838       0.00021908      -0.00081551      -0.00025457
H       -8.59187176      -0.44615843      -0.16450333       0.04433263      -0.00066475      -0.00296884      -0.00104304
H       -6.99172446       0.00391045      -0.74934519       0.03925668      -0.00247311      -0.00157712      -0.00241623
H       -7.29193036      -1.64228954      -0.14613372       0.03954029       0.00062378      -0.00040172       0.00001687
H       -1.78028890       2.70459855      -0.33484508       0.03816158       0.00174266       0.00146834      -0.00159326
H       -3.41377534       2.09917517      -0.44691286       0.04138063      -0.00074829       0.00320577       0.00295859
H       -2.15238719       1.79512709      -2.60820277       0.03870814       0.00067835      -0.00460048       0.00357886
H       -2.66360935       0.25975756      -1.93505600       0.02960212      -0.00122645       0.00420779      -0.00096017
H        0.10610919       1.52119900      -1.73609905       0.02892126       0.00094982      -0.00214644      -0.00097957
H       -0.31395783       0.06713116      -2.62011562       0.03646345      -0.00140459       0.00037098       0.00326124
