27
Properties=species:S:1:pos:R:3:charge:R:1:forces:R:3 energy=-26436.860880668733 pbc="F F F"
C        3.35560813      -1.47850903       0.86685312      -0.08266957       0.00133200       0.00104626      -0.00073254
C        2.71657531      -0.71147377       1.74745258      -0.05401173      -0.00129994      -0.00077799      -0.00194554
C        1.29682343      -0.28567691       1.72534022       0.16500208       0.00002012      -0.00251009      -0.00044760
O        0.76785815       0.08259765       2.78423939      -0.35939461       0.00006878      -0.00364022      -0.00142952
N        0.66248365      -0.31882874       0.52257668      -0.09550223      -0.00001778      -0.00340026      -0.00026569
C       -0.70094982      -0.12344993       0.30064151       0.03845009       0.00140550      -0.00060351       0.00015113
C       -1.68314998      -0.22652248       1.29281446      -0.05851055       0.00163667      -0.00068259      -0.00314538
C       -3.02488487      -0.09314946       0.97242571      -0.07003591       0.00022385       0.00702821       0.00288503
C       -3.44212497       0.15551875      -0.33023425       0.02662243      -0.00022266       0.00046357       0.00198861
C       -2.46220125       0.28413143      -1.31142493      -0.07264052      -0.00043249       0.00300315       0.00233009
C       -1.12269277       0.14805797      -1.00640430      -0.05641825       0.00181607      -0.00345306       0.00003710
N       -4.80933677       0.34627591      -0.63868465      -0.22438610      -0.00009977      -0.00233103      -0.00022624
H        4.39860310      -1.73486259       1.02404542       0.01964902       0.00365684       0.00435975       0.00038103
H        2.89355752      -1.84713485      -0.03831891       0.02306101       0.00189871      -0.00012324       0.00326058
H        3.22213071      -0.37872351       2.64622225       0.01869763      -0.00031020      -0.00032199      -0.00202298
H        1.25926806      -0.37408517      -0.35377474       0.08070975      -0.00059592      -0.00564243       0.00106344
H       -1.38929525      -0.40117395       2.31374557       0.02587504      -0.00008216       0.00227224       0.00080319
H       -3.76372300      -0.17363897       1.76344474       0.02162096      -0.00023950       0.00052045      -0.00320191
H       -2.75615126       0.49965789      -2.33343599       0.02181245       0.00024794       0.00435345       0.00035655
H       -0.37302832       0.24232206      -1.78258960       0.02619181      -0.00035603       0.00120301       0.00018069
H       -5.40480738      -0.18804736      -0.02290420       0.10622995       0.00000937       0.00080407      -0.00024791
H       -5.01129547       0.07284506      -1.58916202       0.10600814       0.00158827      -0.00002707      -0.00217440
S        2.25775915      -0.34269756      -2.23181244      -0.54637426       0.00280875      -0.00360222       0.00173292
C        3.13316333       1.17092062      -1.68164782      -0.12431410       0.00155124       0.00273678       0.00376618
H        3.64080598       1.65219885      -2.52227343       0.01695303      -0.00641853       0.00011014       0.00279799
H        3.88790455       0.93404845      -0.92848056       0.02429389      -0.00817338       0.00308443       0.00053850
H        2.44705941       1.90704180      -1.24929103       0.02308052      -0.00001564      -0.00386979      -0.00643274
