26
Properties=species:S:1:pos:R:3:charge:R:1:forces:R:3 energy=-24946.904460796275 pbc="F F F"
C       -2.94732088       0.74064209       1.99984695      -0.04025298       0.00203940      -0.00061102       0.00321276
C       -1.77732281       0.78413080       1.26503468      -0.05411647      -0.00196853       0.00390156      -0.00162535
C       -1.31278621      -0.35476047       0.60058857       0.04206481       0.00224832      -0.00089921       0.00509833
N       -0.12171610      -0.22538487      -0.12639342      -0.10258144       0.00200773       0.00067980       0.00174402
C        0.57800460      -1.17259786      -0.81603620       0.17570561       0.00011174      -0.00223733       0.00034628
O        0.27386443      -2.35577345      -0.86710274      -0.28905320       0.00113153      -0.00334734       0.00224339
C        1.81492050      -0.63721557      -1.53209106      -0.04132017       0.00112731       0.00150630      -0.00188176
C        2.87397960      -0.01829730      -0.62421161      -0.02398521       0.00003651       0.00400859       0.00253793
S        2.52164740       1.65783733       0.02264590      -0.05694474       0.00131945      -0.00228948       0.00093225
C        2.64116037       2.62718265      -1.50925173      -0.06224829      -0.00097964       0.00173170      -0.00210784
C       -2.04109128      -1.54138976       0.68803575      -0.04599527      -0.00078384      -0.00115699      -0.00338539
C       -3.21158572      -1.56857081       1.42982177      -0.04139612      -0.00081506      -0.00065765      -0.00169191
C       -3.67427731      -0.43841113       2.08755179      -0.04966721      -0.00173389       0.00296431      -0.00255439
H       -4.59002737      -0.47433571       2.66121647       0.04097165       0.00289208      -0.00049501       0.00101282
H       -3.29184503       1.63217622       2.50730666       0.04128204      -0.00244871       0.00114521       0.00042108
H       -1.21532915       1.70913019       1.20628701       0.04173914       0.00551324       0.00136274      -0.00237849
H        0.32024275       0.68592712      -0.07146936       0.11163134      -0.00237161       0.00468013       0.00292215
H        2.24840011      -1.48805953      -2.05000318       0.04222197      -0.00345087      -0.00153522      -0.00464558
H        1.51676326       0.08424893      -2.29348032       0.03843721      -0.00293852       0.00495711       0.00049034
H        3.82473864       0.03422957      -1.15047996       0.03988561       0.00037022      -0.00334893       0.00313265
H        3.02528799      -0.64013463       0.25458731       0.04010427      -0.00131280       0.00020088      -0.00135188
H        1.85766881       2.36566895      -2.21481570       0.03685218      -0.00222594      -0.00457589      -0.00334119
H        2.52171429       3.66762816      -1.22443137       0.04289090      -0.00267617       0.00087008       0.00152350
H        3.61422763       2.50069502      -1.97607633       0.03750265       0.00399197       0.00033890       0.00094044
H       -1.68559160      -2.42257429       0.18234553       0.03631434       0.00025717      -0.00660796       0.00291896
H       -3.76869326      -2.49435073       1.49213566       0.03995734       0.00065913      -0.00058512      -0.00451346
