64
Properties=species:S:1:pos:R:3:charge:R:1:forces:R:3 energy=-64295.01854784274 pbc="F F F"
C        2.14736973      -1.00667868      -2.25722181       0.03736051       0.00065155       0.00094453       0.00063068
N        1.68842614      -0.67520389      -1.06003417      -0.18659112      -0.00072912      -0.00089067       0.00065952
C        2.58530804      -0.12469049      -0.24502527       0.16402528       0.00011443       0.00227620      -0.00315326
N        2.23519354       0.25782159       1.02079944      -0.13105527       0.00506313       0.00243613      -0.00304474
C        1.02012139       0.15599131       1.69835357       0.03482889       0.00353114      -0.00488145      -0.00199404
C       -0.15718696      -0.31933457       1.15814194      -0.06229223       0.00159942      -0.00209234      -0.00197022
C       -1.31951129      -0.38263513       1.93544194       0.05349352       0.00117988      -0.00305524       0.00088108
N       -2.47042198      -0.87021559       1.29220398      -0.09254421       0.00182850      -0.00448875      -0.00030314
C       -3.63665158      -1.28252817       1.86280665       0.19273344       0.00274220       0.00087412      -0.00198785
O       -3.86945126      -1.26609164       3.05420209      -0.31552899      -0.00091758       0.00049794       0.00381479
C       -4.66526407      -1.78236334       0.85752959      -0.03310547       0.00285143       0.00120687       0.00280409
C       -5.11324773      -0.70199309      -0.13728478       0.00637859       0.00337760       0.00075421       0.00812717
S       -3.99238220      -0.50094550      -1.55427258      -0.07857777      -0.00415481       0.00343739      -0.00122330
C       -4.13194874      -2.09850842      -2.38851701      -0.05445965       0.00104600      -0.00536146      -0.00364278
C       -6.59152058      -0.92854919      -0.51186887       0.01758922       0.00311788      -0.00205852       0.00340915
N       -7.29033977       0.08091031      -1.27026523      -0.16070606      -0.00565470      -0.00163389       0.00235591
C       -7.13624676       0.06081551      -2.70632783      -0.02232720      -0.00115500       0.00090275       0.00068548
C       -7.20149066       1.41308737      -0.71562251      -0.01754682      -0.00205459       0.00010396      -0.00330266
C       -1.31001799       0.03488685       3.24985004      -0.04574914       0.00077335      -0.00327878       0.00120615
C       -0.12405902       0.52012134       3.79288912      -0.05217440       0.00120144       0.00039809       0.00022364
C        1.02685480       0.58383789       3.04297642       0.05671782       0.00150187       0.00270088      -0.00118066
O        2.23900461       1.04963781       3.48828812      -0.14483063       0.00332994      -0.00212109       0.00486084
C        2.33927358       1.39808029       4.85835194       0.02624590       0.00054944      -0.00173340       0.00307345
N        3.86359388       0.12084425      -0.52481203      -0.18969780       0.00037202      -0.00170133       0.00194945
C        4.35222194      -0.26715100      -1.70638474       0.05892866      -0.00447802      -0.00190062      -0.00053340
C        5.76661245      -0.08991606      -1.92899583      -0.04785983      -0.00540879      -0.00347582      -0.00438485
C        6.64833615      -0.74873343      -2.80656714      -0.00339165       0.00177443      -0.00160508       0.00077666
N        7.90317547      -0.36841526      -2.66745495      -0.17996630       0.00064539      -0.00132865       0.00172433
N        7.86277285       0.56235700      -1.68666834       0.01304740      -0.00582623      -0.00212543       0.00119109
C        8.97172466       1.21043355      -1.23138526       0.02653720      -0.00600385       0.00060239      -0.00401454
C        8.83411999       2.13095965      -0.24990972      -0.04175578       0.00297027      -0.00084328      -0.00273602
C        7.54587402       2.40557331       0.28576627      -0.02570875       0.00583950       0.00059278      -0.00114637
C        6.44760200       1.74915080      -0.17391668      -0.03736855       0.00644859      -0.00388561       0.00193272
C        6.60153356       0.77718158      -1.19885230       0.03219970      -0.00681819      -0.00402485      -0.00087967
C        3.45823690      -0.82335805      -2.64318974      -0.00159219      -0.00412436      -0.00246325       0.00018697
Cl       3.89038084      -1.23808948      -4.28052960      -0.05201659       0.00036306       0.00713373      -0.00004308
H        1.44029012      -1.44127324      -2.95427092       0.05404203       0.00144632       0.00374989       0.00524573
H        2.99848488       0.63569001       1.55780135       0.10531139       0.00424352       0.00528611      -0.00432338
H       -0.16173254      -0.64210348       0.12921580       0.03077539       0.00070055       0.00205269      -0.00575409
H       -2.40086914      -0.92685218       0.28737125       0.11149482       0.00097240       0.00023459       0.00684986
H       -5.51119276      -2.11576627       1.45096224       0.04423159      -0.00393625      -0.00508526      -0.00695745
H       -4.26492838      -2.64568722       0.32765083       0.04312104      -0.00564414       0.00066916      -0.00383490
H       -5.05493642       0.25909589       0.37363305       0.03485007      -0.00706915       0.00562505       0.00164678
H       -3.49434303      -2.05134172      -3.26768332       0.04472844      -0.00463781      -0.00029974      -0.00119677
H       -3.79429261      -2.91461923      -1.75809019       0.04213893      -0.00264700      -0.00090400      -0.00319516
H       -5.15154337      -2.27993014      -2.71308810       0.03990207       0.00709386      -0.00031122       0.00065085
H       -7.11724817      -1.01322674       0.44151822       0.03021910      -0.00026820       0.00660615      -0.00139665
H       -6.69072154      -1.89459118      -1.01016296       0.03015190      -0.00251057       0.00407537       0.00036317
H       -7.91980131       0.67378847      -3.15095061       0.03172621      -0.00477356      -0.00392403      -0.00515044
H       -7.26991022      -0.95597165      -3.07000412       0.03177979       0.00254457       0.00127221       0.00372430
H       -6.16750985       0.43595526      -3.05290174       0.02162661       0.00631277      -0.00137248       0.00004314
H       -7.39214234       1.38154431       0.35735314       0.03297060       0.00163559       0.00063450      -0.00564977
H       -6.22393882       1.88657465      -0.87045884       0.03016145       0.00210850       0.00114022       0.00150397
H       -7.95520399       2.04875955      -1.17876393       0.03268548      -0.00551244      -0.00123164      -0.00103045
H       -2.20090372      -0.01275569       3.84677581       0.03517923      -0.00235798      -0.00091407      -0.00044998
H       -0.12897125       0.84657596       4.81942632       0.04780445       0.00327035       0.00247686       0.00114110
H        3.37295704       1.68779009       5.01426709       0.04466218      -0.00149083       0.00490569       0.00323506
H        2.10024357       0.54886091       5.50022302       0.04200389      -0.00189610       0.00226568       0.00311298
H        1.68745009       2.23827974       5.10198848       0.04279118      -0.00101668      -0.00473204      -0.00276269
H        6.40224040      -1.50288457      -3.52971192       0.04485878       0.00614330       0.00054768       0.00617802
H        9.89410265       0.92326510      -1.70801459       0.05377830      -0.00158526       0.00911059       0.00130105
H        9.71006437       2.64494818       0.11214308       0.05785469       0.00005109       0.00119079      -0.00003373
H        7.44818285       3.14457761       1.06695432       0.05501173      -0.00346134       0.00194303      -0.00070784
H        5.45807480       1.93212749       0.20865891       0.04089888       0.00673740      -0.00492473       0.00249347
