31
Properties=species:S:1:pos:R:3:charge:R:1:forces:R:3 energy=-17743.747197303823 pbc="F F F"
C        0.62350712       0.63294293      -0.25403485      -0.05019004       0.00458386       0.00115564       0.00062895
C       -0.72376558       0.03767357      -0.45868827       0.18099365       0.00553169       0.00502640       0.00040798
O       -0.90642578      -0.94531778      -1.14880568      -0.30386868      -0.00255151      -0.00904626      -0.00197356
N       -1.73140742       0.69608253       0.20445900      -0.10393278       0.00038932      -0.00078461      -0.00291971
C       -3.10516635       0.36810711       0.24933290       0.04520924       0.00274212      -0.00149404       0.00288183
C       -3.90817029       1.08543593       1.13684091      -0.04981872       0.00030065      -0.00061392      -0.00063638
C       -5.26560246       0.82937922       1.22747380      -0.03871335       0.00062182       0.00378421       0.00066988
C       -5.84380930      -0.14638804       0.42852900      -0.04279316       0.00198684       0.00279131       0.00046454
H       -6.90232925      -0.34969117       0.49218147       0.04608246       0.00192389       0.00049139       0.00119772
C       -5.04431321      -0.85720630      -0.45219958      -0.04068115      -0.00070823      -0.00118070      -0.00113596
H       -5.48015611      -1.62086281      -1.08112041       0.04520008      -0.00580661      -0.00370107      -0.00269536
C       -3.68163823      -0.61457470      -0.54951336      -0.05334853       0.00095850       0.00132076       0.00016272
C        1.69057799       0.04238355      -0.77164119      -0.03314007      -0.00241329      -0.00097702       0.00548479
C        3.08452378       0.54814893      -0.61239883       0.00962858      -0.00498432       0.00286158      -0.00417206
N        3.91562609      -0.31847232       0.21713467      -0.18537723      -0.00471438       0.00292198      -0.00511084
C        4.09698353      -1.63307747      -0.37402594      -0.01723902      -0.00010952      -0.00243442      -0.00010875
C        5.19849892       0.31053655       0.46825819      -0.01681403      -0.00003627      -0.00026305      -0.00033172
H        0.71058320       1.54564608       0.32585561       0.05167577      -0.00175878       0.00228719       0.00569860
H       -1.46556338       1.48485098       0.76617766       0.15079556      -0.00281172      -0.00244925       0.00554872
H       -3.46019162       1.84788600       1.76158010       0.04820181      -0.00075504      -0.00108680      -0.00441383
H       -5.86695157       1.39598441       1.92560609       0.04674776      -0.00117740       0.00255287      -0.00087218
H       -3.06592720      -1.17538616      -1.23041320       0.03036345      -0.00264780      -0.00017584      -0.00067136
H        1.51165145      -0.85873617      -1.34284140       0.03293183       0.00042380       0.00320521       0.00085170
H        3.52805425       0.66764520      -1.61339318       0.03191132      -0.00001284       0.00332638       0.00180952
H        3.04868424       1.53425288      -0.14977788       0.03076709      -0.00148799       0.00096553      -0.00077343
H        3.14301115      -2.14728092      -0.45369674       0.02707159       0.00094857      -0.00793838      -0.00113613
H        4.54846939      -1.58615484      -1.37447613       0.03259976       0.00341474      -0.00037025      -0.00311019
H        4.74357160      -2.22345979       0.27093791       0.03163034       0.00483067       0.00059676       0.00348796
H        5.77696051      -0.31316110       1.14619071       0.03139457       0.00251549      -0.00568419       0.00535129
H        5.78569339       0.46140851      -0.44863374       0.03186476       0.00292637       0.00032998      -0.00691238
H        5.04071632       1.27897326       0.93825163       0.03084702      -0.00212234       0.00458191       0.00232746
