37
Properties=species:S:1:pos:R:3:charge:R:1:forces:R:3 energy=-29684.745597941357 pbc="F F F"
C        4.95374899       1.35261401      -0.63014297      -0.04156736       0.00063535       0.00197194       0.00022550
C        3.67302862       0.94703269      -0.96940018      -0.04866126       0.00251331      -0.00041597      -0.00094588
C        2.99716147       0.01616941      -0.18377557       0.04659690       0.00418621      -0.00227621      -0.00151783
N        1.71766298      -0.39670871      -0.60060102      -0.09987501      -0.00033788       0.00187720       0.00079748
C        0.69735653      -0.81782941       0.20866302       0.19983578       0.00090570      -0.00098234       0.00517345
O        0.77182712      -0.86932044       1.42070808      -0.30142418      -0.00478697       0.00248271      -0.00560432
C       -0.58515541      -1.14751595      -0.51130548      -0.04234377       0.00001046      -0.00020729      -0.00217297
C       -1.49056922       0.09114139      -0.43983678      -0.01001968      -0.00015608       0.00071345       0.00215527
S       -0.94838002       1.35593204      -1.64431614      -0.10122853       0.00175513      -0.00223914       0.00068198
C       -0.41780867       2.70475572      -0.56864344      -0.06132888      -0.00211222      -0.00148061      -0.00103439
C       -2.96063880      -0.23043125      -0.69725158       0.01339815       0.00172973       0.00045464       0.00093603
N       -3.44800207      -1.31057038       0.14754117      -0.17687151      -0.00282259       0.00776219       0.00213495
C       -3.39435169      -1.00304394       1.57035824      -0.01836162      -0.00161359      -0.00077491      -0.00001480
C       -4.79153721      -1.69970535      -0.23560320      -0.01778210       0.00312917       0.00051961       0.00043119
C        3.60536578      -0.49314022       0.95826656      -0.05245687       0.00029691       0.00072823       0.00254671
C        4.89126645      -0.08937445       1.28026552      -0.04298977       0.00114091       0.00033727       0.00051944
H        5.36172406      -0.50332678       2.16099183       0.04463754       0.00122900       0.00299771       0.00196055
C        5.57247797       0.83001818       0.49551957      -0.04591075      -0.00010689      -0.00063320      -0.00182944
H        6.57423531       1.13551866       0.75957740       0.04470587      -0.00281657       0.00510552      -0.00055878
H        5.46217296       2.07882512      -1.24914265       0.04605968       0.00230994      -0.00413596      -0.00430162
H        3.19102510       1.35776197      -1.84674859       0.04360957      -0.00165485      -0.00427433      -0.00062174
H        1.47721728      -0.14549445      -1.54400294       0.12808278       0.00146423       0.00133579      -0.00048951
H       -0.42952210      -1.44233939      -1.54726065       0.04020957      -0.00074549       0.00156676      -0.00563789
H       -1.06840076      -1.96625512       0.01645037       0.03022506       0.00119028       0.00014645      -0.00006588
H       -1.38428845       0.51617616       0.55644703       0.03828151      -0.00016732       0.00254126       0.00203067
H        0.44248833       2.42780334       0.03599803       0.03516708      -0.00449900      -0.00153182       0.00051519
H       -1.23098379       3.03636745       0.07081748       0.04141068       0.00091629      -0.00045515       0.00209277
H       -0.12918469       3.52186616      -1.22400897       0.04310025       0.00221442       0.00142027       0.00433720
H       -3.06589673      -0.53269871      -1.74154814       0.02351118       0.00090187       0.00200981       0.00239690
H       -3.55893320       0.68062752      -0.55441831       0.02731238       0.00040307      -0.00532898      -0.00250317
H       -2.36542123      -0.86644279       1.89914332       0.02853707      -0.00356112      -0.00817064      -0.00321760
H       -3.80942669      -1.83970637       2.12832118       0.03067392      -0.00250504       0.00252422      -0.00068275
H       -3.96265522      -0.09592135       1.82272652       0.03110775       0.00463989      -0.00206543      -0.00179552
H       -4.80467449      -1.96444855      -1.29114893       0.02941682      -0.00436640       0.00041491       0.00054866
H       -5.52988053      -0.90136406      -0.06997324       0.03046707       0.00200888      -0.00379846      -0.00087855
H       -5.09197653      -2.57348585       0.33941421       0.03006979      -0.00210712       0.00351538       0.00129039
H        3.07515288      -1.19129256       1.58152295       0.03440475       0.00077823      -0.00165531       0.00309768
