25
Properties=species:S:1:pos:R:3:charge:R:1:forces:R:3 energy=-24950.586849469924 pbc="F F F"
O        0.67013940       1.21692081      -0.66475717      -0.37609378       0.00422929       0.00352875       0.00094592
C        0.77296056      -0.03092264      -0.73070791       0.09462149       0.00710278       0.00210913       0.00301272
C        1.80567831      -0.76682206      -1.28591516      -0.24131262      -0.00233712      -0.00228317      -0.00856328
C        2.98743728      -0.09081156      -1.85967464      -0.05648574      -0.00039462       0.00088999       0.00044185
N       -0.28312844      -0.83474384      -0.15043073      -0.14143892       0.00169414      -0.00125362       0.00478579
C       -1.50404811      -0.44556155       0.34138574       0.05924626       0.00017650      -0.00133432       0.00686637
C       -1.96259322       0.88155157       0.32220474      -0.06316368       0.00443359       0.00196340       0.00498021
C       -3.20734689       1.19150538       0.84312942      -0.05287791       0.00026403       0.00318655      -0.00399960
C       -4.03654817       0.22100389       1.39588193      -0.08360581       0.00199298       0.00399284      -0.00298685
C       -3.58949463      -1.09334786       1.41626760      -0.05702498      -0.00257153       0.00356333       0.00384090
C       -2.34828602      -1.42179597       0.89838798      -0.07674259      -0.00344138      -0.00346615       0.00344792
H        1.83749902      -1.84995766      -1.22120599       0.01458878      -0.00593433      -0.00373099       0.00482912
H        2.75138691       0.94204385      -2.11629885       0.00859353      -0.00354628      -0.00001967       0.00064876
H        3.38455479      -0.58813384      -2.74614086       0.00069659       0.00263953       0.00285499       0.00444966
H       -0.12569914      -1.82365389      -0.19637037       0.11426266      -0.00084505      -0.00459286       0.00289240
H       -1.31761179       1.63097656      -0.10192994       0.01390293       0.00439684       0.00118120       0.00241407
H       -3.53390562       2.22397695       0.81498869       0.01535776      -0.00263435       0.00164564      -0.00050410
H       -4.20808377      -1.87478274       1.84075098       0.01615302       0.00220565      -0.00263160      -0.00387357
H       -2.00470833      -2.44856259       0.92168977       0.01951994       0.00081921      -0.00447818      -0.00579955
H       -5.00346218       0.48317953       1.80084881       0.01667835       0.00250766      -0.00278666      -0.00500193
S        4.49033244       0.02233515      -0.75314044      -0.18982023      -0.00083115       0.00701333      -0.00682604
C        3.72473040       0.96735184       0.56735820      -0.08685744      -0.00531661      -0.00255476       0.00192908
H        3.36761938       1.91930292       0.18535862       0.01871166       0.00467522      -0.00751346      -0.00047750
H        4.45432013       1.13010415       1.36021116       0.00831279      -0.00275377       0.00591206      -0.00291686
H        2.86507386       0.42126393       0.94402034       0.02476924      -0.00653140      -0.00119576      -0.00453549
