23
Properties=species:S:1:pos:R:3:charge:R:1:forces:R:3 energy=-14095.934643464607 pbc="F F F"
C        3.96963960       0.14886692      -0.13408469      -0.06074918      -0.00462253      -0.00237625      -0.00224963
C        3.17498434      -0.81479677      -0.57697268      -0.04609825      -0.00285503      -0.00160322      -0.00276181
C        1.80136780      -0.62817176      -1.13739911       0.16869044       0.00333538       0.00425670      -0.00527641
O        1.30438200      -1.49716014      -1.83137441      -0.33806795       0.00391090      -0.00167576      -0.00046750
N        1.16577046       0.53900345      -0.83777029      -0.11143786       0.00018737       0.00277871       0.00403806
C       -0.22353120       0.75225299      -1.21974503       0.01900261       0.00336327      -0.00178665       0.00024236
C       -1.18962691       0.36173930      -0.12693190      -0.00567651       0.00361271       0.00075606      -0.00472630
C       -1.85862538       1.32371047       0.61918233      -0.03827149       0.00866939       0.00274069      -0.00217044
C       -2.70962047       0.95237155       1.65160042      -0.03517120       0.00608878       0.00125239      -0.00210769
C       -2.90473477      -0.38983443       1.94084979      -0.03916527       0.00107927      -0.00162977       0.00060095
C       -2.24854063      -1.35461070       1.18957962      -0.03644984       0.00644428      -0.00398704       0.00391475
C       -1.39583801      -0.98328376       0.16180111      -0.04008549       0.00349309       0.00256021       0.00349047
H        3.69639450       1.19477961      -0.17194130       0.04242186      -0.00625972      -0.00467358       0.00126953
H        4.94992218      -0.07734179       0.25908162       0.05182111      -0.00715086       0.00221747      -0.00096901
H        3.50774024      -1.84470834      -0.60069208       0.04511550      -0.00249581      -0.00127529      -0.00152308
H        1.50223664       1.05585770      -0.04547930       0.12518707      -0.00451177       0.00284793       0.00421812
H       -0.35496173       1.80319044      -1.47216048       0.04371616      -0.00467026      -0.00535461       0.00049958
H       -0.40750079       0.16231015      -2.11369131       0.03339683       0.00473026       0.00447592      -0.00042629
H       -1.71704678       2.37191285       0.39259310       0.04570811       0.00119148       0.00659739       0.00270150
H       -3.21772810       1.71056669       2.23091678       0.04771321      -0.00405028       0.00172680      -0.00495426
H       -3.56237703      -0.68241024       2.74573559       0.04625800      -0.00605025      -0.00220167      -0.00092161
H       -2.39775364      -2.40323320       1.40299691       0.04800526      -0.00105922      -0.00622235       0.00067383
H       -0.89092747      -1.73785057      -0.42444178       0.03413681      -0.00238045       0.00057594       0.00690461
