25
Properties=species:S:1:pos:R:3:charge:R:1:forces:R:3 energy=-24950.587829086184 pbc="F F F"
O        0.79988423       1.24587838      -0.47537224      -0.37505233       0.00123698      -0.00352938      -0.00272779
C        0.71290281       0.03520413      -0.79048361       0.09460810      -0.00614486      -0.00319337       0.00146074
C        1.57172978      -0.69202209      -1.59666210      -0.24217235       0.00117276      -0.00097374       0.00902163
C        2.79445499      -0.06611962      -2.13965382      -0.05631030      -0.00170195       0.00035244      -0.00200178
N       -0.38706287      -0.73441933      -0.24485028      -0.14223514      -0.00300259      -0.00186677       0.00329931
C       -1.51270264      -0.29341454       0.40657932       0.05924764      -0.00336115       0.00338650      -0.00181574
C       -2.47304906      -1.23865211       0.80633757      -0.07630981       0.00027587      -0.00041004      -0.00180788
C       -3.62389929      -0.85983507       1.47604462      -0.05713747      -0.00037126      -0.00440653      -0.00026384
C       -3.86185724       0.47626013       1.76926981      -0.08352102      -0.00105742      -0.00384699       0.00217619
C       -2.91797637       1.41755554       1.37236872      -0.05274030      -0.00082472      -0.00187784      -0.00118730
C       -1.75934410       1.05610917       0.70643768      -0.06360795       0.00389962       0.00407026       0.00230287
H        1.45120876      -1.76061553      -1.74632415       0.01461254      -0.00227864       0.00387353       0.00259536
H        2.69180444       1.01885522      -2.16050751       0.00835179      -0.00222489       0.00006415      -0.00307011
H        3.05324250      -0.41244765      -3.14114166       0.00069672       0.00324055       0.00123509      -0.00419441
H       -0.39433768      -1.69880895      -0.51946799       0.11422175      -0.00034131      -0.00026456      -0.00177706
H       -2.29312997      -2.28294084       0.58236601       0.01955633      -0.00141215      -0.00098154      -0.00052912
H       -4.33691825      -1.62052106       1.76965195       0.01617438      -0.00473016       0.00069515       0.00267272
H       -4.75681922       0.77573781       2.29514902       0.01670324      -0.00662342       0.00353451      -0.00598347
H       -3.08327588       2.46692841       1.58493173       0.01541919       0.00220623      -0.00374758       0.00582140
H       -1.02357066       1.78076788       0.40486670       0.01419380       0.00539017       0.00389935      -0.00470421
S        4.37260477      -0.37751171      -1.18384390      -0.19007859      -0.00159051       0.00192509      -0.00365439
C        3.83016097       0.32974754       0.37429216      -0.08674048       0.00356170      -0.00077408       0.00631246
H        3.56702382       1.37465461       0.23914024       0.01892062       0.00822281      -0.00555302       0.00000282
H        2.93717625      -0.19056602       0.70784961       0.02480367       0.00303160       0.00173068      -0.00185913
H        4.62856608       0.23259500       1.10903111       0.00838710       0.00342682       0.00665912      -0.00008963
