26
Properties=species:S:1:pos:R:3:charge:R:1:forces:R:3 energy=-24966.462118546493 pbc="F F F"
C       -3.92520785      -0.38735242      -0.83436393      -0.04288047      -0.00032361       0.00147364      -0.00197809
C       -2.55187428      -0.50780185      -0.68258980      -0.05505023       0.00254950      -0.00388805       0.00086409
C       -1.89580982       0.28699235       0.25398555       0.04351518       0.00812314      -0.00127158      -0.00069849
N       -0.50531395       0.23557659       0.47013402      -0.09705286       0.00449987       0.00047563      -0.00389605
C        0.41839735      -0.59455970      -0.11211737       0.20193845       0.00090562       0.00002266       0.00065799
O        0.14593782      -1.44972947      -0.92812141      -0.29857624      -0.00136411      -0.00167619       0.00232107
C        1.84043574      -0.34039216       0.36682692      -0.03840756      -0.00419397       0.00118731       0.00111415
C        2.81936783      -1.33049511      -0.24463383      -0.03565589      -0.00453706       0.00351321       0.00274918
S        4.52128810      -1.11131549       0.32231445      -0.13012218      -0.00447464       0.00206397      -0.00201261
C        4.94433893       0.38346647      -0.58784289      -0.06184782      -0.00126121       0.00084479      -0.00000526
C       -2.63345821       1.18851114       1.02145692      -0.05196846       0.00727323      -0.00383205      -0.00115663
C       -4.00296839       1.29717475       0.85952721      -0.04166605       0.00297525       0.00203875       0.00279717
C       -4.66003163       0.50702268      -0.07259972      -0.04578349      -0.00117216       0.00006783      -0.00161342
H       -5.72862008       0.58828074      -0.20219705       0.04482998      -0.00876014       0.00134577      -0.00104293
H       -4.42074068      -1.00983376      -1.56590964       0.04404589      -0.00384525      -0.00372777      -0.00223482
H       -1.98856458      -1.20575929      -1.27679438       0.03028155       0.00131484       0.00128724      -0.00060054
H       -0.16292625       0.89101214       1.15141297       0.15139383       0.00176219       0.00060867      -0.00099898
H        2.11801506       0.68599057       0.11110084       0.04422351       0.00491331      -0.00235633      -0.00242316
H        1.87107433      -0.41185016       1.45589245       0.04405087       0.00107138      -0.00396570       0.00028905
H        2.78870649      -1.26262039      -1.32848250       0.03829595      -0.00027275      -0.00114670       0.00380212
H        2.52617646      -2.34359812       0.01912211       0.03780559       0.00370097       0.00067997      -0.00371325
H        5.99883121       0.57910928      -0.41411198       0.04133831      -0.00113308       0.00077886       0.00302646
H        4.78715541       0.24457627      -1.65475952       0.04142357       0.00050197      -0.00084780      -0.00063885
H        4.37103413       1.24014960      -0.24631134       0.04250233      -0.00322178       0.00040041      -0.00009384
H       -2.12674054       1.80767781       1.75075659       0.04789948      -0.00126708       0.00229871       0.00128973
H       -4.55346881       2.00305721       1.46607212       0.04546672      -0.00376481       0.00362447       0.00419547
