24
Properties=species:S:1:pos:R:3:charge:R:1:forces:R:3 energy=-25387.647953394007 pbc="F F F"
O        0.24191370      -1.42897167      -0.16346952      -0.36668378       0.00923034      -0.00288233      -0.00199175
C        0.74066786      -0.35836377      -0.59071106       0.09872840      -0.00331306       0.00149222      -0.00456093
C        1.99695044      -0.16711372      -1.13763773      -0.23552409      -0.00067455       0.00470147       0.00386486
C        2.95738549      -1.28931305      -1.20723531      -0.05265809      -0.00135382       0.00005272       0.00176148
N       -0.05975804       0.84596369      -0.49633818      -0.13728203       0.00453006       0.00274327      -0.00261463
C       -1.36948001       0.98954630      -0.15985348       0.11125225       0.00419100      -0.00048556      -0.00461459
N       -1.83438093       2.25322280      -0.20460400      -0.25366110       0.00085008      -0.00137990       0.00359645
C       -3.10974116       2.45783313       0.11982106       0.00419747      -0.00104366      -0.00095244      -0.00366358
C       -3.99398297       1.46672577       0.49431590      -0.09013253      -0.00452929      -0.00238953      -0.00154450
C       -3.50242748       0.15998161       0.53278465      -0.02637704       0.00373114      -0.00461502       0.00700572
C       -2.19236874      -0.09333495       0.21067471      -0.06397973       0.00269283       0.00142627      -0.00457902
H        2.36878232       0.81635189      -1.40406613       0.01891306      -0.00372001       0.00311646      -0.00328097
H        3.57986479      -1.27310011      -2.10289617       0.00449166       0.00291494       0.00117839      -0.00026678
H        2.43635282      -2.24535862      -1.16200310       0.01084899      -0.00690726      -0.00075437      -0.00306598
H        0.38604231       1.69236170      -0.80284034       0.10173114       0.00260607       0.00359730      -0.00407956
H       -3.43740264       3.49079901       0.07270395       0.00782824      -0.00265660       0.00334223      -0.00037008
H       -5.01859601       1.70059780       0.74450962       0.02736048      -0.00607359       0.00649349       0.00002365
H       -4.14527060      -0.66254857       0.81658219       0.02221725      -0.00803368      -0.00241534       0.00367731
H       -1.75667762      -1.07697004       0.22598301       0.02324552       0.00122048      -0.00027355       0.00490194
S        4.21593558      -1.35684850       0.16789191      -0.17969450       0.00159075      -0.00287743       0.00358561
C        3.05235679      -1.47264461       1.52996142      -0.08283452       0.00270926      -0.00364774       0.00130005
H        2.38896862      -0.61353441       1.50624384       0.02596607      -0.00086392      -0.00273705       0.00231356
H        3.60375787      -1.50663042       2.46876713       0.01155240       0.00117096      -0.00225771      -0.00004144
H        2.43828141      -2.36187890       1.42417041       0.02048513       0.00173133      -0.00047597       0.00264306
