26
Properties=species:S:1:pos:R:3:charge:R:1:forces:R:3 energy=-15166.779710537123 pbc="F F F"
O        0.58919856      -1.36104358      -0.25274192      -0.28892198      -0.00071188       0.00086653       0.00141850
C        0.56545624      -0.14559813      -0.19660195       0.17732401       0.00057204       0.00120678      -0.00192558
C        1.76553771       0.72846726      -0.23706793      -0.07482971      -0.00194904       0.00134045       0.00559005
C        3.04046330       0.33192490      -0.27281372       0.01721446      -0.00305204       0.00057671      -0.00864476
C        3.50066382      -1.08985091      -0.27127960      -0.07673770       0.00024644       0.00109017       0.00151370
C        4.13954009       1.35212385      -0.31517431      -0.06984374       0.00027750       0.00289784       0.00291653
N       -0.60823839       0.56776824      -0.08795029      -0.10883774       0.00397002       0.00008019       0.00255531
C       -1.92931566       0.08089462      -0.00327213       0.04496103       0.00332694      -0.00148536       0.00029510
C       -2.94423137       1.01400651       0.21147513      -0.05002304       0.00468636       0.00092022      -0.00098004
C       -4.26606247       0.61440282       0.30496919      -0.03889450      -0.00026929       0.00140832      -0.00274239
C       -4.59751683      -0.72666668       0.17878265      -0.04300069      -0.00290064      -0.00388421      -0.00013200
C       -3.58924589      -1.65234693      -0.03804810      -0.04064778       0.00287038       0.00022227      -0.00392275
C       -2.26071991      -1.26538458      -0.13038346      -0.05353191       0.00273985       0.00092470       0.00202928
H        1.56799980       1.79475134      -0.23272373       0.04346864       0.00212237       0.00109281      -0.00198344
H        4.09880699      -1.27772840      -1.16480468       0.03595458      -0.00024170       0.00222485       0.00201249
H        4.14286228      -1.25969109       0.59485669       0.03598467       0.00442173      -0.00080360      -0.00057403
H        2.66884341      -1.77781722      -0.24386721       0.01876830       0.00291495      -0.00136726      -0.00067393
H        4.75379758       1.20554139      -1.20444155       0.03595435      -0.00257750      -0.00168179      -0.00027081
H        4.79245891       1.23338638       0.55024254       0.03589600       0.00763957      -0.00480163       0.00306633
H        3.75021689       2.36775207      -0.32169891       0.03605580      -0.00393227       0.00455892      -0.00324883
H       -0.51921575       1.56493251      -0.02306989       0.14831412      -0.00751487      -0.00177545      -0.00177382
H       -2.69170814       2.06270711       0.30546046       0.04757434       0.00565162       0.00146237       0.00547560
H       -5.03363909       1.35642496       0.47696230       0.04670537      -0.00171848       0.00196695      -0.00381560
H       -5.62661779      -1.04485242       0.24788173       0.04605906      -0.00832897       0.00008135       0.00379409
H       -3.83081790      -2.70135371      -0.13853371       0.04525466      -0.00598563       0.00019717      -0.00089831
H       -1.48348208      -1.98946144      -0.29764034       0.02977935      -0.00225760      -0.00731877       0.00091937
