31
Properties=species:S:1:pos:R:3:charge:R:1:forces:R:3 energy=-27091.494538115472 pbc="F F F"
O        0.10563033      -1.23039560      -0.33938648      -0.37054312      -0.00065630      -0.00177741       0.00298105
C        0.12340855      -0.03500986       0.05194931       0.08942701      -0.00093372       0.00115496      -0.00158797
C       -0.86977543       0.90959617      -0.06061341      -0.23515999      -0.00184881       0.00167353       0.00053759
C       -2.18924028       0.55006517      -0.72072204       0.03076164      -0.00256222      -0.00231289      -0.00358540
C       -1.99492259       0.12357212      -2.18217556      -0.08975954       0.00023445      -0.00121220      -0.00389406
C       -2.90728076      -0.58184693       0.02729158      -0.08965357      -0.00245089      -0.00098946      -0.00027909
N        1.32275398       0.44179742       0.71694809      -0.14545846       0.00174328       0.00413848      -0.00052361
C        2.53566956      -0.17516047       0.88683147       0.05293193       0.00073321      -0.00434474       0.00524206
C        2.80785093      -1.48704269       0.46463972      -0.06606672       0.00048145      -0.00405961       0.00156080
C        4.05822060      -2.03841346       0.68342586      -0.05342362       0.00376699       0.00113981      -0.00090052
C        5.07433834      -1.33055874       1.31602726      -0.08303775       0.00269289      -0.00248521       0.00418904
C        4.81046871      -0.03388349       1.73677570      -0.05800305       0.00208207      -0.00089267      -0.00143259
C        3.56703377       0.53470309       1.52691255      -0.07825711       0.00095213       0.00137174      -0.00058782
H       -0.75038220       1.92004822       0.31841844      -0.00002951      -0.00065130       0.00477801       0.00186182
H       -1.53645661       0.92936315      -2.75590290       0.00682202      -0.00485658       0.00475087       0.00005110
H       -2.94305301      -0.15434683      -2.64745328       0.01651113      -0.00043561      -0.00134265      -0.00208492
H       -1.32782955      -0.73433453      -2.19102419       0.01391590       0.00262350       0.00022352       0.00109654
H       -3.10743226      -0.28970086       1.05847940       0.00689833      -0.00447564       0.00584911      -0.00189882
H       -2.24866928      -1.44653420       0.03120699       0.01361087       0.00333051       0.00350663       0.00133460
H       -3.84769439      -0.84915927      -0.45923651       0.01651150      -0.00153449      -0.00377596      -0.00074046
H        1.27892015       1.40200477       1.00495919       0.11503085      -0.00292326       0.00323013       0.00152177
H        2.01833222      -2.03185090      -0.02417730       0.01451214      -0.00727058       0.00369513      -0.00155342
H        4.23903552      -3.05250133       0.34809153       0.01660403       0.00041909       0.00079177      -0.00239550
H        6.04456556      -1.77722408       1.47762436       0.01802051       0.00331064      -0.00316184       0.00037833
H        5.57728324       0.54634751       2.23546104       0.01744937      -0.00060110      -0.00192244      -0.00376631
H        3.37216388       1.54676196       1.86044518       0.02054466       0.00322527       0.00090600       0.00156268
S       -3.20828478       2.09164756      -0.65050420      -0.16398810       0.00429852      -0.00352092       0.00283218
C       -4.75324384       1.61260178      -1.44162100      -0.07401060       0.00346898       0.00066190       0.00245148
H       -5.25579999       0.81199736      -0.90729490       0.02242662       0.00008065      -0.00070804      -0.00289303
H       -4.60880665       1.31082800      -2.47468609       0.02244148       0.00154459      -0.00110489       0.00340853
H       -5.39110716       2.49419312      -1.42428713       0.01296254      -0.00378724      -0.00426036      -0.00288623
