64
Properties=species:S:1:pos:R:3:charge:R:1:forces:R:3 energy=-66081.31272313576 pbc="F F F"
F       -5.65972237      -6.76751358       2.08930155      -0.13042498      -0.00076452      -0.00105541       0.00059115
C       -5.20462323      -5.55353186       1.72389487       0.06324837      -0.00147410      -0.00039289      -0.00121607
C       -6.07364674      -4.47937899       1.66086591       0.00352680      -0.00109582       0.00019623      -0.00060761
Cl      -7.74832220      -4.72140975       2.05839654      -0.11484358      -0.00127140      -0.00147867       0.00054396
C       -5.62580259      -3.22373227       1.28747802      -0.06275579      -0.00046388       0.00243248       0.00156392
C       -4.28381957      -3.04716936       0.96546748       0.04698130       0.00020693      -0.00043524      -0.00335636
N       -3.75178997      -1.83025445       0.54720272      -0.10419387       0.00035388       0.00127402       0.00154907
C       -4.26479076      -0.56056594       0.62099071       0.12072687      -0.00048041       0.00123285       0.00500784
N       -5.50175713      -0.33897989       0.99638427      -0.22968419      -0.00326392      -0.00027087       0.00015114
C       -5.88107445       0.96099013       1.05094303       0.07964971      -0.00279783       0.00044716      -0.00111837
N       -5.18310583       2.02058116       0.78347721      -0.25375849      -0.00075533      -0.00059134       0.00130142
C       -3.88904066       1.80105348       0.38917193       0.04376892      -0.00151967      -0.00001511      -0.00706218
C       -3.37796234       0.50254839       0.26765799      -0.02695976       0.00072886       0.00049552       0.00022180
C       -2.05268904       0.28750497      -0.16477341      -0.04843137       0.00290249       0.00004042       0.00097083
C       -1.24344627       1.34800530      -0.48468925       0.03445596       0.00401418       0.00027781       0.00484097
N        0.01517120       1.24000012      -0.99629318      -0.12686032       0.00193432      -0.00030553       0.00008067
C        0.94739140       0.14708079      -0.81517584       0.13077119      -0.00104695       0.00011856      -0.00183356
C        2.20203027       0.39229970      -1.33408390      -0.15760385      -0.00018899       0.00144286      -0.00261558
C        3.30170392      -0.56860056      -1.02933844      -0.01404952      -0.00147955      -0.00059448       0.00097026
C        3.96290201      -1.03323744      -2.32278564       0.00442907      -0.00038369      -0.00051201      -0.00015349
N        5.18843248      -1.80643736      -2.16231786      -0.15309201       0.00004878       0.00082190      -0.00096332
C        5.82770856      -2.05544512      -3.43624589      -0.01871260       0.00341667      -0.00218839      -0.00058674
C        4.96526278      -3.05029013      -1.44737467      -0.02667919      -0.00123093       0.00058198       0.00086258
O        0.55027798      -0.87826461      -0.21580414      -0.34929681      -0.00254531       0.00209161       0.00236221
C       -1.74742444       2.66307903      -0.29086232       0.05613817       0.00232552       0.00098175       0.00269854
O       -0.87144024       3.69246760      -0.55475125      -0.16320662       0.00027021       0.00284676       0.00079681
C       -0.33722253       4.36938765       0.60086703       0.07320126      -0.00050164       0.00075988      -0.00108132
C        0.61174640       5.44851511       0.08473953       0.02154901      -0.00226718      -0.00029657      -0.00090912
O        1.93550298       5.02814599       0.36409230      -0.23831815      -0.00149379       0.00106599       0.00424049
C        1.91982606       3.67288308       0.82976756       0.03184356      -0.00059508       0.00074030       0.00000270
C        0.55065670       3.47655770       1.46379611      -0.04662958      -0.00269271       0.00179549       0.00036063
C       -3.03762480       2.88758045       0.11067701      -0.08644173       0.00215746       0.00017089       0.00349451
C       -3.41513053      -4.13614552       1.03692930      -0.05491176       0.00276440       0.00028367       0.00268421
C       -3.87097981      -5.38489907       1.41352088      -0.05009328       0.00067747       0.00005986       0.00283898
H       -6.29618509      -2.38460656       1.24534561       0.02110006      -0.00381088      -0.00037803      -0.00374943
H       -2.77815674      -1.82037426       0.29285005       0.11355241       0.00030957      -0.00469866       0.00113211
H       -6.90669484       1.11959275       1.36400115       0.02344327      -0.00314351       0.00282807      -0.00170167
H       -1.62025528      -0.69605459      -0.24749695       0.03153713       0.00108709      -0.00125302      -0.00038502
H        0.43414768       2.09842433      -1.30109632       0.11531456       0.00164433      -0.00271365       0.00188629
H        2.44677238       1.22587159      -1.97709176       0.04120135       0.00006460       0.00204172      -0.00286686
H        2.87298501      -1.41810210      -0.50111412       0.02253068      -0.00017044      -0.00101301       0.00097980
H        4.18154811      -0.14300245      -2.91648077       0.02467765       0.00335663      -0.00467056       0.00097696
H        3.21557228      -1.61587412      -2.88157509       0.02443570       0.00171793      -0.00085413       0.00067087
H        5.22041012      -2.67899086      -4.11305977       0.02255075      -0.00200984       0.00147016      -0.00185183
H        6.02862028      -1.11006985      -3.94066135       0.02351312       0.00127640       0.00067100      -0.00013067
H        6.78221683      -2.55858814      -3.27428737       0.02060276       0.00379501      -0.00559243      -0.00059029
H        5.91436483      -3.56807286      -1.30821093       0.02256002       0.00189255       0.00139549      -0.00163421
H        4.55143693      -2.84128458      -0.46511916       0.01804891      -0.00287581       0.00109674       0.00303300
H        4.27080470      -3.72686504      -1.97118183       0.02456941      -0.00361612      -0.00032409      -0.00070752
H       -1.17833246       4.79340878       1.15290931       0.03319440       0.00334372      -0.00035992       0.00181129
H        0.47765436       5.57545356      -0.99030175       0.01688416      -0.00292479      -0.00058624      -0.00365079
H        0.43921988       6.40470298       0.58461468       0.02682743      -0.00038360       0.00230185       0.00038518
H        2.74313880       3.55019933       1.52850043       0.03225689       0.00091500      -0.00227661      -0.00191145
H        2.07416706       2.98359344      -0.00261601       0.02770724       0.00379946      -0.00056829       0.00057293
H        0.24050687       2.43597978       1.46720520       0.03207398       0.00127600       0.00072087      -0.00230528
H        0.55938526       3.84688710       2.48975518       0.03458209       0.00257105       0.00140887       0.00106478
H       -3.42146199       3.89222680       0.21405249       0.03124573      -0.00526901      -0.00078362       0.00173632
H       -2.37098011      -3.99409168       0.79682311       0.04039866       0.00381815      -0.00327775      -0.00476444
H       -3.20410978      -6.23239255       1.47143096       0.04307767       0.00064465      -0.00185052      -0.00079110
S        4.52789148       0.10984636       0.19664985      -0.14279929       0.00179807       0.00081550      -0.00003901
C        5.33686214       1.35183946      -0.82367847      -0.07305267      -0.00068380       0.00239459      -0.00226030
H        5.98335675       1.94732346      -0.18245363       0.02982103      -0.00243628      -0.00255318      -0.00234109
H        5.94292352       0.87411362      -1.58778032       0.02661509      -0.00125993       0.00273419      -0.00068818
H        4.60487950       2.00321202      -1.29808797       0.03818053       0.00178516       0.00185266       0.00148865
