59
Properties=species:S:1:pos:R:3:charge:R:1:forces:R:3 energy=-54155.748527250056 pbc="F F F"
F       -7.25398918       6.08317780       0.33739280      -0.10913506       0.00065178      -0.00495506      -0.00159507
C       -6.43524222       5.02118003       0.30447905       0.08283025       0.00130127      -0.00343315      -0.00256248
C       -5.06597514       5.20988808       0.40791814       0.01188891       0.00048946       0.00115920       0.00745318
Cl      -4.43125580       6.81237994       0.57805023      -0.07011367      -0.00043844       0.00388809      -0.00129659
C       -4.21777328       4.11857747       0.37694211      -0.04073989      -0.00031812       0.00021492      -0.00406425
C       -4.73343065       2.83009396       0.23985443       0.06360132      -0.00140914       0.00017904       0.00650879
N       -3.79252508       1.79226975       0.20855308      -0.09774303       0.00199564      -0.00074555      -0.00527423
C       -3.93492929       0.43662805       0.20710370       0.13385907      -0.00084256      -0.00278038      -0.00052527
N       -5.12697047      -0.11364172       0.16647103      -0.20019054      -0.00207136       0.00036136      -0.00041506
C       -5.16769837      -1.46533854       0.17729824       0.10444745      -0.00248141      -0.00066193      -0.00341758
N       -4.17024369      -2.29746872       0.22532458      -0.21578935      -0.00048903       0.00119492       0.00790446
C       -2.92385842      -1.74467668       0.27234712       0.04756012       0.00154742      -0.00217197       0.00115381
C       -2.73875428      -0.35839573       0.25107356      -0.01838382       0.00247402      -0.00226022      -0.00162412
C       -1.43716704       0.18532976       0.27515851      -0.03197939       0.00274572      -0.00010744       0.00283073
C       -0.34134518      -0.62947803       0.34515448       0.05133135       0.00310315       0.00009691      -0.00087505
N        0.99015970      -0.20627173       0.34954249      -0.10224044       0.00349303       0.00064416      -0.00084370
C        1.46420113       1.08052001       0.43725423       0.18031630      -0.00108748       0.00304589       0.00838438
C        2.94491452       1.20196759       0.45166339      -0.05721484       0.00062615      -0.00067755      -0.00471313
C        3.78915186       0.34955325      -0.10817768      -0.03187160       0.00273777      -0.00164110       0.00051970
C        5.27623032       0.48163870      -0.07307563       0.01594637       0.00214515      -0.00041880      -0.00189302
N        5.73539917       1.80744710       0.29249941      -0.16230065       0.00067031      -0.00147982       0.00389470
C        5.56551254       2.76237314      -0.79099388      -0.01340996      -0.00017786       0.00250155       0.00115029
C        7.10439977       1.78415263       0.76903790      -0.01260026       0.00227210      -0.00136392      -0.00032049
O        0.74615587       2.05846686       0.51822648      -0.31457692      -0.00145683       0.00364709       0.00163578
C       -0.53575315      -2.03934170       0.40624816       0.07874291      -0.00096271       0.00105661       0.00069640
O        0.62103632      -2.75660429       0.52105554      -0.13888910      -0.00478663      -0.00186620       0.00218670
C        0.53860196      -4.18988667       0.56321735       0.07282178      -0.00116510      -0.00005910      -0.00096222
C        1.94505890      -4.67904417       0.85537022       0.03346058       0.00088373       0.00003470       0.00103509
O        2.59568500      -4.67522404      -0.40007326      -0.21890841      -0.00366083      -0.00372071      -0.00343907
C        1.64791460      -5.23117222      -1.30636306       0.04167869      -0.00437147      -0.00052038      -0.00267916
C        0.25729312      -4.77972827      -0.81978570      -0.03923826      -0.00061886      -0.00029969      -0.00175822
C       -1.79021398      -2.58209268       0.34731098      -0.06325848       0.00028703       0.00146110       0.00024727
C       -6.10703928       2.64857793       0.13551407      -0.03793292      -0.00092079       0.00008145      -0.00695259
C       -6.94947642       3.75036663       0.16948375      -0.04028699      -0.00186726      -0.00203207       0.00663182
H       -3.15380036       4.28554960       0.46127921       0.05217236      -0.00017200       0.00015081      -0.00012832
H       -2.83844897       2.09050031       0.25753037       0.12486532       0.00109353      -0.00166286      -0.00027477
H       -6.16220001      -1.89760366       0.14205904       0.04341024      -0.00537373       0.00310202      -0.00076108
H       -1.29222836       1.25254901       0.23908738       0.03506208       0.00105261       0.00090286      -0.00189571
H        1.66259096      -0.94968698       0.40533797       0.11455603       0.00159956      -0.00043162       0.00523419
H        3.29569812       2.10672554       0.92342640       0.02828487      -0.00404507      -0.00149216      -0.00414652
H        3.40919561      -0.52115195      -0.63099802       0.04206811      -0.00206073       0.00217910      -0.00006092
H        5.64937061      -0.25647605       0.64476977       0.03237619      -0.00262815       0.00122750      -0.00200892
H        5.67886912       0.18041150      -1.05056006       0.03339249       0.00192090      -0.00347162      -0.00111602
H        5.83023799       3.75446855      -0.43577967       0.03417521       0.00020455       0.00560719       0.00609406
H        6.19137464       2.52279475      -1.66137387       0.03345885       0.00109162       0.00282004      -0.00622442
H        4.52759425       2.78301498      -1.11553383       0.02568363      -0.00347198       0.00003927      -0.00225553
H        7.16902552       1.14369635       1.64536423       0.03245436       0.00106102      -0.00098032      -0.00286245
H        7.39838813       2.78963163       1.06056474       0.03288254       0.00413849      -0.00372543       0.00106896
H        7.81822533       1.41207094       0.01922704       0.03370791      -0.00134193      -0.00036729      -0.00175673
H       -0.17631036      -4.47495466       1.33303208       0.04659587      -0.00252176      -0.00088439      -0.00326512
H        2.47522323      -4.02213792       1.53727409       0.03244923       0.00340128      -0.00122099       0.00712055
H        1.91407978      -5.69533982       1.26307360       0.03788848      -0.00037047      -0.00286252       0.00121589
H        1.87943344      -4.87615972      -2.30785948       0.03625651       0.00266382      -0.00042389       0.00460248
H        1.72218970      -6.32309609      -1.29129694       0.03486257       0.00080981       0.00593980      -0.00281321
H       -0.17324431      -4.03078274      -1.48014358       0.03256153       0.00758796       0.00080874       0.00058124
H       -0.42360593      -5.62678531      -0.76167447       0.04772592      -0.00122584       0.00418515      -0.00142935
H       -1.93916604      -3.64893889       0.35005642       0.04272313      -0.00220727       0.00297713       0.00266446
H       -6.49647442       1.65268509       0.03074330       0.03025103       0.00187235      -0.00033003       0.00078830
H       -8.01939228       3.62856854       0.09336815       0.05845410      -0.00137584      -0.00045949      -0.00539265
