20
Properties=species:S:1:pos:R:3:charge:R:1:forces:R:3 energy=-13025.455770826644 pbc="F F F"
C        3.73035040      -0.41676511      -0.26152652      -0.05839303      -0.00198922       0.00404161      -0.00296052
C        3.16088483       0.62633803       0.32381076      -0.04356342      -0.00039595       0.00076371       0.00359735
C        1.70483883       0.95524191       0.34500347       0.17291054      -0.00027940       0.00235777       0.00270467
O        1.34672371       2.10475089       0.50227453      -0.31818312      -0.00023648       0.00317089       0.00193282
N        0.86100424      -0.11030761       0.20270770      -0.09521343       0.00064992       0.00118486      -0.00542553
C       -0.55009002      -0.09312525       0.19628875       0.04876180      -0.00081124       0.00159928       0.00137675
C       -1.20471484      -1.32260482       0.25628077      -0.04661839       0.00130195      -0.00069925       0.00030201
C       -2.58706773      -1.38787441       0.22321545      -0.03570088       0.00098260      -0.00307353       0.00016262
C       -3.33639304      -0.22398169       0.12816548      -0.04000697       0.00144022      -0.00305124      -0.00284684
H       -4.41458162      -0.26850955       0.09720264       0.04713981       0.00194109      -0.00035937       0.00667621
C       -2.68174795       0.99702011       0.07149336      -0.03800624      -0.00133984      -0.00066698       0.00027312
H       -3.25222909       1.91259385      -0.00040982       0.04637647       0.00282609       0.00145832      -0.00305913
C       -1.29808120       1.07716438       0.10646125      -0.05042584      -0.00106192       0.00154469      -0.00407289
H        4.79925292      -0.56190009      -0.21629253       0.05244489      -0.00416869      -0.00750973       0.00151307
H        3.17914767      -1.15048992      -0.83533166       0.04295071       0.00136742       0.00171337      -0.00244446
H        3.75942863       1.38152216       0.81149598       0.04625735       0.00163198       0.00072840       0.00171440
H        1.28567322      -1.01802428       0.24168773       0.14145879      -0.00261185      -0.00176656      -0.00059068
H       -0.61899137      -2.23064704       0.32692552       0.04872539       0.00143827      -0.00174747       0.00159840
H       -3.07495515      -2.35211787       0.27107996       0.04789006      -0.00351696      -0.00135249      -0.00027190
H       -0.79735279       2.02857144       0.06628717       0.03119543       0.00283221       0.00166409      -0.00017948
