36
Properties=species:S:1:pos:R:3:charge:R:1:forces:R:3 energy=-21899.865291807077 pbc="F F F"
C       -0.42288763      -1.56506765       1.51357389      -0.07232724      -0.00177351       0.00376948       0.00300101
C       -0.33041126      -0.34887981       0.99395814      -0.02016882      -0.00094767       0.00130540       0.00032269
C        0.98542494       0.26401794       0.61153163       0.18486583       0.00326844      -0.00133910      -0.00213712
O        1.16965918       1.45973635       0.73066394      -0.30393288      -0.00031754      -0.00223828      -0.00151501
N        1.91228771      -0.61061672       0.11544805      -0.09764726       0.00571145      -0.00234312       0.00506255
C        3.22353323      -0.33965970      -0.32396546       0.04813387       0.00393096      -0.00854135      -0.00163086
C        3.84447944       0.89507154      -0.15879492      -0.05144172      -0.00403167      -0.00439467      -0.00079452
C        5.14574291       1.06097643      -0.60783728      -0.03980724      -0.00367176       0.00009212       0.00087010
C        5.83881254       0.02666935      -1.21808033      -0.04230399       0.00301656       0.00199425       0.00271738
H        6.85095846       0.17597289      -1.56289987       0.04626168       0.00239922       0.00095306      -0.00063303
C        5.21542484      -1.20236053      -1.37880360      -0.03816904       0.00193563       0.00076699       0.00112151
H        5.73703937      -2.02482541      -1.85013656       0.04706410      -0.00369230       0.00537870       0.00100133
C        3.91782597      -1.38380582      -0.93341794      -0.04869032       0.00312272       0.00027442      -0.00421576
C       -1.50860516       0.56872898       0.82338102       0.00911099      -0.00467136      -0.00315781      -0.00237697
N       -2.74393719      -0.19562727       0.73151207      -0.15334067      -0.00449702      -0.00021462       0.00275715
C       -2.93494094      -0.81198154      -0.58076843       0.00790565       0.00082789      -0.00240079       0.00586590
C       -3.45258615       0.16530714      -1.63415794       0.03638398       0.00511055      -0.00230096       0.00129595
O       -4.63536575       0.81773390      -1.20351177      -0.22074078       0.00360249      -0.00121957       0.00282592
C       -4.42169840       1.50326070       0.02092684       0.03654426      -0.00200968      -0.00180890       0.00174889
C       -3.94612105       0.54120343       1.10153988       0.00924410      -0.00104187       0.00144098      -0.00362239
H        0.45767501      -2.13095916       1.77805376       0.04415361      -0.00193225       0.00074762      -0.00069518
H       -1.38499199      -2.00764689       1.71069698       0.03169100      -0.00134089       0.00427213      -0.00149337
H        1.59041333      -1.54665078      -0.04931791       0.14044610       0.00228875       0.00109170      -0.00104340
H        3.31089024       1.70258620       0.31120045       0.03175873      -0.00355415      -0.00225425      -0.00169933
H        5.62040014       2.02310890      -0.47456677       0.04557182      -0.00182215       0.00202005       0.00131612
H        3.42950718      -2.34257551      -1.05203442       0.04815029      -0.00534332       0.00404436      -0.00284615
H       -1.54031798       1.24279208       1.67985795       0.03583723       0.00057313      -0.00393751      -0.00095517
H       -1.33689015       1.20422879      -0.05070901       0.03326105       0.00472904       0.00165944       0.00373424
H       -1.99440460      -1.24425920      -0.91985948       0.02935101      -0.00280590      -0.00237832       0.00428351
H       -3.65636126      -1.62288418      -0.46861047       0.02992531      -0.00231969       0.00275735      -0.00057321
H       -3.70366883      -0.36680726      -2.55028052       0.03514362      -0.00171615       0.00201353      -0.00260209
H       -2.68985110       0.91420318      -1.87072664       0.02785030       0.00018043       0.00214861      -0.00690855
H       -3.69018493       2.30525197      -0.12439404       0.03042445      -0.00322065      -0.00378598       0.00176950
H       -5.37066382       1.95461572       0.30263746       0.03505334       0.00248581       0.00499271      -0.00252004
H       -4.73437786      -0.18653725       1.29710430       0.02832681       0.00528394       0.00256295       0.00458404
H       -3.75816008       1.07861797       2.02918520       0.03611078       0.00224263      -0.00197099      -0.00601582
