56
Properties=species:S:1:pos:R:3:charge:R:1:forces:R:3 energy=-52074.46955733399 pbc="F F F"
F       -6.89750443       5.24739851      -0.44829765      -0.10812113      -0.00332849      -0.00208681      -0.00280705
C       -6.01410804       4.28986569      -0.14031464       0.08264004      -0.00071897       0.00134162       0.00145204
C       -5.28456676       4.38473023       1.03655999       0.00979947      -0.00123114       0.00068742       0.00438348
Cl      -5.53147131       5.73225373       2.09219142      -0.06878886       0.00317132      -0.00257120       0.00057959
C       -4.36810820       3.39733861       1.35461702      -0.04136096      -0.00032167      -0.00132114      -0.00053233
C       -4.17481185       2.32931999       0.49119932       0.06500076       0.00286886       0.00047100       0.00120425
N       -3.17949159       1.36909089       0.80645436      -0.09808439       0.00211258      -0.00355779      -0.00122956
C       -3.34368834      -0.00237881       0.83157780       0.07340128       0.00086873      -0.00331790       0.00271846
C       -4.55942112      -0.63006065       1.06533780       0.00128700      -0.00276322      -0.00073673       0.00009079
C       -5.73503984       0.09111406       1.45744637       0.08517560      -0.00398945       0.00209504       0.00276081
N       -6.68990412       0.64306661       1.78091569      -0.24918079      -0.00320130       0.00175565      -0.00183194
C       -4.62199468      -2.03796218       1.01171988       0.05754749       0.00137840       0.00007472      -0.00106891
N       -3.60949374      -2.81974644       0.78782642      -0.20491323       0.00186851       0.00116520      -0.00742917
C       -2.39699660      -2.23259345       0.59659177       0.04442404       0.00171161       0.00027389      -0.00245251
C       -2.20500294      -0.84092771       0.61032298      -0.01195882       0.00227021      -0.00144516       0.00154019
C       -0.91072681      -0.30877064       0.37780114      -0.03663334       0.00049121       0.00030991      -0.00070849
C        0.16142292      -1.12676002       0.16855704       0.04630508      -0.00003211      -0.00140727       0.00154799
N        1.47306150      -0.71328845      -0.06859230      -0.10625629       0.00093683      -0.00347776       0.00282781
C        2.00454018       0.53803991       0.14476098       0.17974558      -0.00356022       0.00238890      -0.00296210
C        3.42705382       0.69717312      -0.24619651      -0.05787851       0.00068103      -0.00201240       0.00272488
C        4.03907906      -0.01272275      -1.18043438      -0.03196690       0.00224544      -0.00016120       0.00311331
C        5.47127397       0.14865101      -1.57137243       0.01578875       0.00278195       0.00453815       0.00202924
N        6.07569154       1.36841913      -1.07558926      -0.16218081       0.00457403       0.00252503      -0.00157658
C        7.52068019       1.26173477      -1.01560943      -0.01246172       0.00200731      -0.00061821      -0.00276778
C        5.66034923       2.53808577      -1.83424168      -0.01319200      -0.00210069      -0.00061297      -0.00000438
O        1.37509759       1.45419552       0.63325062      -0.31848890       0.00062660       0.00276897      -0.00001255
C       -0.03948769      -2.53983113       0.15003557       0.07253627      -0.00250350      -0.00037010      -0.00081791
O        1.09082495      -3.26102491      -0.10977731      -0.13262652      -0.00266005       0.00118761       0.00333691
C        1.01740183      -4.69315977      -0.09421079       0.05979456       0.00036760       0.00218975       0.00106516
C        0.99633470      -5.25200717       1.31264020      -0.06446558      -0.00246119       0.00331595       0.00164443
C       -1.27723748      -3.06996658       0.36409211      -0.06729159      -0.00114251       0.00129242      -0.00254322
C       -4.91006583       2.24008183      -0.67897601      -0.03398937      -0.00231762      -0.00159956       0.00061887
C       -5.83629782       3.22105966      -0.99360612      -0.04089049       0.00019926       0.00366581       0.00237563
H       -3.81527078       3.45751302       2.27984156       0.05370169      -0.00219505       0.00240783      -0.00207898
H       -2.40059509       1.73173690       1.32042111       0.14057711       0.00284756      -0.00083978       0.00191449
H       -5.57784999      -2.52082215       1.17771108       0.05249820       0.00185004       0.00220186      -0.00237432
H       -0.77859762       0.75865568       0.34418326       0.03462530       0.00243484       0.00038699      -0.00319078
H        2.11395978      -1.46183728      -0.25761562       0.12476355       0.00220249      -0.00319620      -0.00307454
H        3.92838324       1.50318759       0.26650554       0.02836428      -0.00163586       0.00034596       0.00301874
H        3.48616745      -0.78002542      -1.71140267       0.04424501       0.00196878       0.00034704       0.00014736
H        5.54580346       0.08430653      -2.66646975       0.03332705      -0.00224283       0.00239962       0.00280789
H        6.01154924      -0.72103361      -1.18276988       0.03235899      -0.00133811      -0.00068429      -0.00652261
H        7.98163377       1.07066253      -1.99594239       0.03368759       0.00163147      -0.00224165      -0.00088215
H        7.79342383       0.44750488      -0.34870960       0.03248228       0.00241781       0.00053128      -0.00294170
H        7.93153160       2.18394012      -0.61180343       0.03296550      -0.00056787      -0.00433000       0.00024264
H        6.05423927       3.43010254      -1.35441838       0.03415080      -0.00342363      -0.00217037      -0.00011512
H        4.57513144       2.61152307      -1.85129314       0.02589289      -0.00321003      -0.00449443       0.00243372
H        6.01724815       2.51172069      -2.87295988       0.03341651      -0.00061564      -0.00121590       0.00182274
H        1.91482816      -5.00750183      -0.62078377       0.03899422       0.00018483      -0.00031778      -0.00142672
H        0.15455412      -5.02147452      -0.67357915       0.03789441       0.00032807       0.00129053       0.00208926
H        1.00323502      -6.33960148       1.28557789       0.04244724       0.00575070       0.00444631      -0.00191858
H        0.11094056      -4.93349332       1.85412951       0.02958846      -0.00347149       0.00533974       0.00194837
H        1.87136170      -4.91321710       1.85987243       0.03666934      -0.00031833      -0.00433040       0.00249284
H       -1.44981255      -4.13096466       0.36712072       0.03969222      -0.00013645       0.00263635       0.00045932
H       -4.75366813       1.40492454      -1.34099197       0.04453046       0.00036987      -0.00303282      -0.00273055
H       -6.42304137       3.16957411      -1.89744256       0.06041119      -0.00166198      -0.00223046       0.00060948
