44
Properties=species:S:1:pos:R:3:charge:R:1:forces:R:3 energy=-38878.10745564172 pbc="F F F"
O        1.48431733      -2.34369401       0.22980279      -0.37747288      -0.00277507       0.00072402       0.00228302
C        2.67280669      -1.98591107       0.40521852       0.09875786       0.00007676      -0.00065158       0.00180672
C        3.76213288      -2.77328606       0.73260578      -0.21482719       0.00010893      -0.00018862       0.00362489
C        5.10159718      -2.24663421       1.07768924      -0.04083858       0.00161448       0.00026333      -0.00138180
N        3.00717695      -0.58538251       0.25542451      -0.13028494      -0.00149786      -0.00027620      -0.00091295
C        2.17687447       0.46035523      -0.02314720       0.05061855      -0.00304322      -0.00092264      -0.00037043
C        0.80850233       0.32411623      -0.06779829      -0.06757212      -0.00504155       0.00039669       0.00415344
C       -0.00200450       1.42732869      -0.35277096      -0.02036873      -0.00080218       0.00400259       0.00279414
C        0.53851843       2.69841399      -0.57979291       0.03599228       0.00214555       0.00161707      -0.00182135
C        1.93835682       2.82725106      -0.52886518      -0.05408465       0.00238329       0.00102754       0.00106645
C        2.72874732       1.74103871      -0.26124482      -0.07076010       0.00054633      -0.00085209      -0.00250538
N       -0.26568581       3.78224486      -0.84445325      -0.25459015       0.00032608      -0.00027094       0.00029201
C       -1.53771362       3.54090716      -0.87288018       0.07736114       0.00122188      -0.00311305      -0.00766704
N       -2.18739071       2.36017605      -0.68008092      -0.23137090      -0.00379887       0.00255257       0.00149189
C       -1.43304690       1.31946412      -0.43332728       0.12046219      -0.00083630       0.00481961       0.00646363
N       -1.95253681       0.06803661      -0.24079586      -0.10168777       0.00326602       0.00123881      -0.00355070
C       -3.27099654      -0.38027611      -0.19462720       0.05026301       0.00442691      -0.00014653      -0.00366058
C       -3.46672203      -1.74814740      -0.01208432      -0.06916157      -0.00351225       0.00120389       0.00082757
C       -4.74688863      -2.26345812       0.05806104      -0.05252681      -0.00320957      -0.00106691      -0.00029527
C       -5.84853228      -1.42904481      -0.05372815      -0.07290578      -0.00099685       0.00164659      -0.00057294
C       -5.66405182      -0.06522918      -0.24137731      -0.00669775       0.00453516       0.00006394       0.00411323
C       -6.85656364       0.84411000      -0.38857615      -0.07850882       0.00519811      -0.00332205       0.00099805
C       -4.37792594       0.45911202      -0.31279081      -0.07240109       0.00388988      -0.00119533       0.00373593
H        3.58449308      -3.83382625       0.79014651       0.01718492       0.00426626      -0.00149685      -0.00074666
H        5.69404299      -2.99479334       1.59981159       0.02246607      -0.00117226      -0.00044110       0.00079401
H        5.06997096      -1.36240250       1.71904312       0.02861224      -0.00158514      -0.00061977       0.00146952
H        3.99619717      -0.40588824       0.18919226       0.09392943       0.00144929      -0.00146640       0.00194317
H        0.42078535      -0.66186171       0.12186197       0.03221991      -0.00133574      -0.00372078      -0.00160723
H        2.37225059       3.80139325      -0.70658301       0.02619833      -0.00123024       0.00339608       0.00179789
H        3.80541086       1.84335509      -0.22400515       0.03829760       0.00167840      -0.00086693      -0.00389470
H       -2.18688834       4.38536537      -1.08032069       0.02015545       0.00304606      -0.00100824       0.00274477
H       -1.22878098      -0.63104593      -0.10498163       0.10917773       0.00027874      -0.00321264      -0.00360199
H       -2.60745599      -2.39736600       0.07449848       0.03808051      -0.00489166       0.00020215      -0.00092995
H       -4.88283954      -3.32701129       0.20139367       0.03175528       0.00018585      -0.00372739       0.00063691
H       -6.84947126      -1.83492141       0.00671789       0.02751864      -0.00244334       0.00592283      -0.00444961
H       -7.68120237       0.50396345       0.23799824       0.02482356       0.00265803       0.00154012      -0.00412069
H       -6.59873570       1.86424809      -0.10881818       0.02516277      -0.00533529      -0.00335323      -0.00070998
H       -7.20500888       0.85736920      -1.42310532       0.02265850       0.00248554       0.00043860       0.00442393
H       -4.21233536       1.51362373      -0.45622935       0.01932872      -0.00356348      -0.00329779      -0.00121091
S        6.19549961      -1.72550870      -0.34833092      -0.12412934      -0.00139714      -0.00013823      -0.00106269
C        7.25231776      -0.59058441       0.57926279      -0.06169228      -0.00025920       0.00092166      -0.00076099
H        8.09304953      -0.27984144      -0.03604223       0.02441308      -0.00084914       0.00164935      -0.00535516
H        6.69271634       0.29093997       0.88171418       0.03739267      -0.00415689       0.00537288       0.00120503
H        7.62831795      -1.08385805       1.47016301       0.02904362       0.00794555      -0.00364528       0.00252287
