23
1 (SP=-630.181545049113,U=-629.99165771,H=-629.9907135,G=-630.0432562)
C   2.33942435123110     -0.56602735420847      0.09870557284990
O   2.52106696239204     -1.75839658992164      0.24407389642266
C   0.99279796957114      0.07507082293113      0.06785267236255
C   -0.10183383062944     -0.71305423213786      0.12063941873413
O   3.31777503144306      0.32223471305417     -0.06302369425612
C   4.66365119552303     -0.20625303716991     -0.07665665839723
H   4.77650578884973     -0.90775249725614     -0.90469664235728
H   5.30931557898416      0.65843369700055     -0.21629868991245
H   4.87883841610186     -0.69764368254252      0.87333515165311
C   -1.52166521460121     -0.37235802590794      0.06504560330675
C   -2.40977381924730     -1.42192661801666     -0.22008348127096
C   -2.03810711039294      0.90827154550742      0.31730489058693
C   -3.77724292403468     -1.18990639366827     -0.30311808705705
H   -2.01450585775008     -2.41959467823017     -0.38840962919588
C   -3.40791127671624      1.13146619060715      0.25447763848265
H   -1.38408946359883      1.72658102043709      0.59095850139395
C   -4.27785726732415      0.08886378791165     -0.06597065412998
H   -4.45188363798752     -2.00648374619542     -0.53971596103691
H   -3.79971322982741      2.12232515333162      0.46145456716254
H   -5.34687709234316      0.27216848079120     -0.11777416004042
H   0.11021686148550     -1.77815221643702      0.17859154603587
C   0.95803848826050      1.49818614680903     -0.08590218378234
N   0.95712008061081      2.64599751331101     -0.21729961755444