16
14_adduct (SP=-686.275619432178,U=-686.13226807,H=-686.13132387,G=-686.17357492)
N   -2.57029286521069     -0.51601780444426     -0.81026857365901
C   -1.80841661810711      0.18370616017947      0.04500048647756
C   -0.96068124757171     -0.62684783142565      1.00466046666065
C   0.47078744814656     -0.11111532040203      1.09040639356469
O   -1.81195142309087      1.42335410243675      0.06898160025628
S   1.33587441370295     -0.37771504738152     -0.48554546345960
C   2.90382328389480      0.42417306388024     -0.07755192625068
H   -1.42776183176609     -0.53139142196144      1.99088234929136
H   0.47674238315035      0.95722799795113      1.31887183499953
H   1.00507387060015     -0.63986222449448      1.88303483640387
H   2.74920530577048      1.48253262206128      0.14445567750166
H   3.37807333074579     -0.06700341405317      0.77527600195281
H   3.55930073122907      0.33570242417541     -0.94631854834200
H   -3.18633455609466     -0.02765475608062     -1.44518720770149
H   -2.54952335550222     -1.52451778172669     -0.81936102799000
H   -0.98074886989682     -1.68558076871440      0.73362310029436