30
15_adduct (SP=-1103.321659869739,U=-1103.066829,H=-1103.06588479,G=-1103.12483496)
N   -2.89529043190893     -0.37084354718262     -0.03302421998645
C   -2.01759714178879      0.49516523953940      0.53685526181977
C   -1.02337797475871     -0.12432744238797      1.49828479642867
C   0.40685004018585      0.27425854373931      1.14676410265604
O   -2.02308990275311      1.70665203147680      0.30951770910737
S   0.87593703195024     -0.43830007548680     -0.45912443930198
C   2.41674990829548      0.46658693896422     -0.73175903715656
H   -2.89123742384412     -1.32279785856442      0.30853285912610
H   0.48944361142337      1.36165167264695      1.08093579399192
H   1.09288782720021     -0.08214593232089      1.91790038186854
H   2.22690705160254      1.54025630080757     -0.79743383971393
H   3.13162754296591      0.26479488636834      0.06911848373137
H   2.83948115260588      0.12205776420528     -1.67785834961113
C   -3.94743676937893     -0.02212513769276     -0.91615654196942
C   -5.14491838969501     -0.68396096422077     -0.82893770719877
C   -6.18606165127311     -0.36387662651786     -1.73342960900441
C   -6.00732540424887      0.63558782728350     -2.71114632295264
C   -4.75367911377072      1.29048846622393     -2.79250741180897
C   -3.74678640592678      0.96158512573536     -1.92503840826002
H   -5.30595936569290     -1.44839433524429     -0.07419956960728
H   -2.78107229347783      1.44316345340694     -2.00964464193999
H   -1.26293738935427      0.26377624845042      2.49358549142877
H   -1.13032895101277     -1.21182006621680      1.52927362742524
N   -7.01749216730778      0.95783944018383     -3.57880035840516
C   -8.13552463068113      0.29167958992400     -3.44879837952453
N   -8.41639199595842     -0.69170924067354     -2.54623601290272
H   -8.94208342080243      0.53945754686311     -4.13274628538991
C   -7.45059393679739     -1.00187223932147     -1.71188103280674
H   -7.64711424493938     -1.78270929418252     -0.97997747499147
H   -4.59936516085800      2.04019168419374     -3.56149886505166