41
16_adduct (SP=-1276.740731383606,U=-1276.3777775,H=-1276.37683329,G=-1276.44600491)
N   -3.46846177151033      0.09078325683887      0.24927863224045
C   -2.33700572610069      0.76236497508226      0.58636253504603
C   -1.61083829710965      0.24794789598993      1.80911200938957
H   -1.74532766839943      1.00671760267903      2.58554082646949
C   -0.11679498492161      0.06783094530077      1.54995513059642
O   -1.93657536083151      1.74919480703589     -0.03574574055014
S   0.09509559685334     -1.29460935977388      0.35167257221472
C   1.72741149615711     -0.89231886432102     -0.31702888475405
H   -2.05752587258563     -0.68127481364754      2.17516555205786
H   0.27169074879525      0.96295198792454      1.06063673336264
C   0.66609629535007     -0.22826490256849      2.82967081033388
H   1.72372867587947      0.10727959888357     -0.75710304464965
H   2.50047368042408     -0.95953709918832      0.45025131142348
H   1.94398528917314     -1.62301668179821     -1.09935638872592
C   -4.29901486810528      0.41405233780883     -0.85468505488974
C   -4.77996262782842     -0.58561958707702     -1.65774256531742
C   -5.65259245259301     -0.25779812880487     -2.72498827292736
C   -6.01199232487682      1.08127681172847     -2.97598355110989
C   -5.50160748926771      2.09611811747779     -2.12677624267957
C   -4.67767222781187      1.76616503127606     -1.08482319972208
H   -4.50463522100340     -1.62214695819896     -1.48550219957664
H   -4.31255958250208      2.53677785744929     -0.41709789131028
H   -3.63040285331142     -0.80038895809965      0.69906064954762
H   1.72669455850991     -0.37296782849178      2.56179429903382
H   0.30481624722497     -1.17127442611966      3.25140791083744
N   0.54442945905345      0.80620956668607      3.86409658855184
C   1.04031236760471      2.09122862577587      3.37133133603077
C   1.34092829935375      0.39555511759869      5.02025992877869
H   0.98114014395096     -0.56573709315680      5.39773898086449
H   1.24623162837577      1.13653155244557      5.81853279207044
H   2.41092970160047      0.29082331775410      4.77085474982213
H   0.38904596905934      2.48636434676299      2.58829294541011
H   2.06476985647137      2.01256527626784      2.96771688188171
H   1.04972895953512      2.81364006451354      4.19168376108494
H   -5.79009934380986      3.12720196268636     -2.30217922961875
N   -6.84904276253148      1.40062205449767     -4.01228365894692
C   -7.28182524781694      0.40562855168763     -4.74299773210519
N   -6.99468697133971     -0.91924156703364     -4.59631375188134
H   -7.94730359815994      0.64957855615798     -5.56610980284581
C   -6.19372694140686     -1.22873558870879     -3.60173507360208
H   -5.94614477954855     -2.27899836132098     -3.46095465183573