40
16_carbanion (SP=-1276.223899613215,U=-1275.87533897,H=-1275.87439476,G=-1275.94409203)
N   -3.64834402321087      0.77924255513770      0.76572806208812
C   -2.25917956589018      1.14129522729741      0.64836551078679
C   -1.34316751862587      0.19350738396160      1.01480929351436
C   0.11835103801670      0.47904421326894      1.12769535197477
O   -2.02513512197759      2.35111562454314      0.26045034934982
S   0.94267445340302      0.06639015210608     -0.47400169936844
C   2.59199361438766      0.78534147595602     -0.24620112088696
H   -1.68994961862310     -0.80393742704770      1.27346477158231
H   0.28395146838059      1.55251226257152      1.25424148486117
C   0.80723528536250     -0.30207874423453      2.24978827906113
H   2.50668369740248      1.79488820966054      0.16507559103751
H   3.22357670973752      0.17708751175749      0.40340442150448
H   3.06152625526541      0.85106312484390     -1.23070261188002
C   -4.54443165691185      0.87297703436503     -0.30237619742927
C   -5.87677531668625      0.56583345828752     -0.10987225240943
C   -6.78942964789848      0.64055456407922     -1.18657834265658
C   -6.36394746569451      1.04414857083850     -2.46909071490715
C   -4.99051223859156      1.33633224690978     -2.65793693037646
C   -4.11120506807827      1.24948043307551     -1.61165918596098
H   -6.23536710941411      0.26520238134259      0.87092466772135
H   -3.06172103776647      1.46279849620892     -1.77577003575030
H   -3.82318736791817     -0.01439154238820      1.36708316329010
H   1.88690585133356     -0.07590563477267      2.23434699225896
H   0.69826754788016     -1.37183516082882      2.04326297026252
N   0.27539785254460     -0.04524393399711      3.59626526802421
C   0.40748024139023      1.37083777515416      3.93712498994367
C   1.05304848830793     -0.83913495237667      4.54707617394690
H   0.97129234129590     -1.90133798621080      4.29978149055060
H   0.66824503018658     -0.69127497444978      5.55981215075229
H   2.12255490542599     -0.56514652000100      4.54035692640115
H   -0.25119368551200      1.98041890013395      3.31438682432892
H   1.44310133629357      1.73258032715761      3.81199036795634
H   0.11583979811106      1.52178856739188      4.97999465697834
H   -4.64378366800348      1.62100809340355     -3.64651679215918
N   -7.24937096461146      1.13764961081994     -3.51054254898820
C   -8.49554479333727      0.83870112612889     -3.24980318981569
N   -9.01738559605216      0.43851602892105     -2.05454104348045
H   -9.20607105032203      0.91185441772365     -4.06821697487082
C   -8.16941208864599      0.34556237018738     -1.05500618776846
H   -8.56163531095376      0.02745673307376     -0.09087392946742