40
18_TS (SP=-1276.208157097691,U=-1275.86044242,H=-1275.85949822,G=-1275.92913607)
N   -3.39474741628927      0.11720404587893     -0.00492229621772
C   -2.08248248279143      0.57696941439156      0.12539932003602
C   -1.31432540012380     -0.10669299746699      1.12012765705949
C   0.00526974339236      0.22626777831857      1.36095610933613
O   -1.66310702590009      1.51231254823446     -0.59112866381301
S   1.56297089203690     -0.77838294334901     -0.23993894475050
C   2.94635346241527      0.35388636882168      0.10945992160676
H   -1.76627587753820     -0.95182895468536      1.63357226050889
H   0.36128900418018      1.17367524890620      0.96919326753509
C   0.70581509154417     -0.29177300512974      2.59899866262893
H   2.56743956462165      1.31026895041020      0.49187126834146
H   3.63511505969181     -0.05653524086073      0.85440757945045
H   3.51810530824558      0.56760169665310     -0.79848637536853
C   -4.39732495929659      0.52230873302628     -0.87704355001879
C   -5.67066272014367     -0.11083077725385     -0.68354154227726
C   -6.73477289010940      0.19447233364574     -1.47638736136659
C   -6.59294534642831      1.15748801406598     -2.51331175484979
C   -5.34099933248167      1.77926795008190     -2.71143252621246
C   -4.23994053909139      1.45575719659577     -1.88543408602651
N   -5.18471331972557      2.70790779010442     -3.70989513155561
C   -6.24097451048906      2.97379464263686     -4.43813575291679
N   -7.48621286010031      2.43805819816922     -4.32957205896176
C   -7.63827179759095      1.54172107642643     -3.37275488112787
H   -5.77034231158363     -0.84358039121771      0.11216422745431
H   -7.69682058846033     -0.28581083068938     -1.32413750298013
H   -3.29356500804837      1.94494566552402     -2.05633692542821
H   -6.11845315595684      3.71052183428369     -5.22765649762979
H   -8.62293269522418      1.09238278541942     -3.25849740784079
H   -3.65729475400516     -0.61581439225940      0.63999417910502
H   1.79125553287818     -0.15247952621282      2.49759643480266
H   0.51544274629841     -1.36385312999314      2.69253156949991
N   0.23949941189952      0.36081547002824      3.83939548698423
C   0.55150371005926      1.79018350912882      3.79416767623625
C   0.95881417751001     -0.24353145373392      4.96085775856427
H   0.74319184325923     -1.31450734742233      5.00918616706132
H   0.63608438950851      0.21523772635473      5.89934474960227
H   2.05124683199674     -0.11449699551174      4.87071545104665
H   -0.02481748378507      2.28276973648041      3.00750119681896
H   1.62400811911168      1.97236852060091      3.60737898938102
H   0.28499758651408      2.25337075159848      4.74779332628190