21
2 (SP=-570.990570943936,U=-570.81792143,H=-570.81697722,G=-570.86591224)
C   2.75998750332620     -0.66474041082891      0.12003258989921
O   2.83504052154611     -1.87221136272165      0.36998450687627
C   1.42147534753252      0.02056588018758      0.03895065620203
C   0.30443670890867     -0.72453391886984      0.16031080113057
C   -1.10724443004383     -0.34780105943614      0.08397338676370
C   -2.02630361766145     -1.39011721710342     -0.11518872857676
C   -1.58780448589428      0.96123892019353      0.24163208148918
C   -3.38798687872813     -1.12758417066851     -0.20564420057746
H   -1.66010663990396     -2.40842457229459     -0.21014034293854
C   -2.95198185630179      1.21720315651544      0.17296216987048
H   -0.91045412274948      1.78014311058237      0.44870307128174
C   -3.85278089409118      0.17812272518661     -0.06083958678421
H   -4.08625709327973     -1.94133474398599     -0.37379031080382
H   -3.31458517638689      2.23130823199850      0.30842593706952
H   -4.91714763922944      0.38572464143565     -0.11668128096985
N   3.84446941260356      0.09397686622714     -0.10129049127966
H   4.75417558674374     -0.34337304335608     -0.05734008661443
H   3.79182259508719      1.08156093631037     -0.30297477274823
H   0.48713667323728     -1.78654375857413      0.30596558727637
C   1.40881506584666      1.42565727222991     -0.23453375218407
N   1.45531241943822      2.55611151697221     -0.47138523438202