18
20_carbanion (SP=-725.091837596543,U=-724.93362085,H=-724.93267664,G=-724.97910282)
N   -3.03667900064847 	-0.39115371396538 	-0.48246357457306
C   -1.73269852850514  	0.18558012309170 	-0.40388679606054
C   -0.94850475792309 	-0.13341488411670  	0.68344067611390
C   0.47881590941515  	0.28453630959895  	0.78083669906973
O   -1.38700282806100  	0.94718478989416 	-1.39087489202965
S   1.62233881141206 	-0.98786477098172  	0.08903500385611
C   3.20990664534870 	-0.17637771775219  	0.40305251713273
H   -1.34538994593029 	-0.80266739395246  	1.44351967826109
H   0.66268934039685  	1.20904744215664  	0.22667800024518
H   0.78876879028716  	0.44332435255774  	1.81845572757400
H   3.26943788798537  	0.77936788405089 	-0.12437359439214
H   3.35721844656273 	-0.00995429408109  	1.47348790895886
H   4.00651381825671 	-0.82811908810519  	0.03684419651715
C   -4.09727964068849  	0.50177257695003 	-0.95112665501335
H   -3.28840151749932 	-0.79221509769122  	0.41334652935283
H   -3.92625631673483  	0.78492598994624 	-1.99069045016594
H   -5.05239712206645 	-0.02597612406663 	-0.90049009791113
H   -4.17807999160763  	1.42100361646622 	-0.35279087693579