18
20_TS (SP=-725.073220992461,U=-724.91569609,H=-724.91475188,G=-724.96008648)
N   -3.17344438441652 	-0.18431125942295 	-0.10954869041333
C   -1.88098611129200  	0.27852855885097 	-0.05254484430124
C   -1.03691424441634 	-0.27848473884981  	0.96644015006910
C   0.29969107011968  	0.07716598352140  	1.06487558393277
O   -1.50177609665404  	1.14302994137788 	-0.89315232560092
S   1.85992076762014 	-1.07529084122555 	-0.30404263489017
C   3.17180743242354  	0.12097265113431  	0.09730011063183
H   -1.44057894928968 	-1.08530871029166  	1.57311857650652
H   0.62614355900812  	1.00748691256851  	0.61170871316766
H   0.85408451395124 	-0.21642791632528  	1.94943898918501
H   2.96901310517877  	1.09896678836122 	-0.35169993496220
H   3.25676825046015  	0.25728034182481  	1.18153223992824
H   4.14186017858164 	-0.22312617100423 	-0.27237783290408
C   -4.18848909851188  	0.51827348906927 	-0.87874992663697
H   -3.49315395830076 	-0.69886465249467  	0.69785770900849
H   -3.92925428395203  	0.53268462765119 	-1.93948742304974
H   -4.32318860922324  	1.55284508692277 	-0.54107667073686
H   -5.13550314128676 	-0.01142009166819 	-0.76559178893410