23
24 (SP=-518.012547129081,U=-517.81096076,H=-517.81001655,G=-517.85864802)
N   -3.27961660781725 	-0.01481343550750  	0.16712917447211
C   -1.97939264076993  	0.07585106991047 	-0.21068167564087
C   -0.95704706454753 	-0.41422084446952  	0.76336493645357
C   0.29562336112969  	0.03150441978822  	0.70803030128082
O   -1.64124994454805  	0.53454001561103 	-1.31315302777926
H   0.60607802076065  	0.76192937311127 	-0.03389679952527
H   1.04316301728972 	-0.32062045675886  	1.41264570389914
C   -4.31580167895460  	0.38939842138467 	-0.74123343940585
C   -5.27425777021025 	-0.53962040419087 	-1.13923298696339
C   -6.30849376836354 	-0.14789482555810 	-1.98687964029675
C   -6.37994031663359  	1.16608584671548 	-2.44362819075979
C   -5.41777116520194  	2.09178382078011 	-2.04163913303553
C   -4.38872252483476  	1.70826152525225 	-1.18632201005831
H   -5.21309118357980 	-1.56323813089284 	-0.78205059680318
H   -7.05492047519640 	-0.87448475884138 	-2.29318747052611
H   -3.64468109472499  	2.42769601745675 	-0.86150150071352
H   -5.47124543230488  	3.11945964711758 	-2.38807667196415
H   -7.18409404545695  	1.46968347687740 	-3.10701853717387
H   -1.25412139864229 	-1.13378170067639  	1.51788716544081
C   -3.70053127261292 	-0.59426882511639  	1.45314063165363
H   -3.56754821235469 	-1.67901286615713  	1.47030636336660
H   -3.14420795981018 	-0.14244791449854  	2.27546240228949
H   -4.75612984261546 	-0.36678947133772  	1.59353500178968