24
25 (SP=-593.271824658462,U=-593.06498823,H=-593.06404402,G=-593.11472755)
N   -3.16528046299823  	0.45861332421633  	0.29460284861522
C   -1.88569227118396  	0.27616850573297 	-0.11598246035653
C   -0.98648611619143 	-0.27725518192457  	0.93866363310580
C   0.30554428332152 	-0.48645696257168  	0.70294260430922
O   -1.49292488995020  	0.54189124026698 	-1.25757244107158
H   0.74522722450301 	-0.25962707306702 	-0.26443822764915
H   0.95632505984086 	-0.88902364223956  	1.47318760536777
C   -4.24868824055651  	0.89975277449817 	-0.51497263710226
C   -5.48689707083753  	0.28614232443831 	-0.36262687281112
C   -6.59140084298387  	0.70710049362788 	-1.10330452617123
C   -6.44524067445687  	1.74993609618919 	-2.01544355855456
C   -5.20271866934063  	2.37208964245076 	-2.16680467126162
C   -4.11228416373690  	1.95848333460923 	-1.41717589393985
H   -5.59742047868681 	-0.53115243170917  	0.34434864344619
H   -7.54315665158263  	0.21093923173459 	-0.95917646101188
H   -3.16044782192327  	2.46312553404760 	-1.52817863703727
H   -3.40661481279329  	0.10745036258875  	1.21228891959204
H   -5.10516804646261  	3.19067389974798 	-2.87304014707383
H   -1.42814794106683 	-0.49959766757232  	1.90678929570254
O   -7.46137922993607  	2.23217607946163 	-2.80198262246830
C   -8.73606729233469  	1.59383066944177 	-2.69099129318049
H   -9.38848415634173  	2.10707311819516 	-3.39725951350327
H   -8.66637722811740  	0.53471093884308 	-2.95863635469143
H   -9.13821950618378  	1.69695538899392 	-1.67823723225438