27
26_adduct (SP=-917.701668805689,U=-917.45522525,H=-917.45428104,G=-917.50775723)
C   -1.80455948242217  	1.54047291379858  	0.35098675395640
C   -0.95342124305107  	1.04939439671008  	1.50551060818779
C   0.40781779144209  	0.54699647517494  	1.03246237525523
O   -1.35125838295165  	2.39403037457765 	-0.43856378476914
S   0.20594367234007 	-0.95894353351414  	0.03401699264336
C   1.91640585110391 	-1.16694670907555 	-0.51415326958733
H   0.90442950061301  	1.30665094834600  	0.42459940681508
H   1.03900969872915  	0.32293368114526  	1.89523054310588
H   2.23834847044163 	-0.30804951026382 	-1.10736203439320
H   2.58341449714020 	-1.29646250668825  	0.34117325744292
H   1.95892887971145 	-2.06390506271598 	-1.13536016194997
H   -0.79791079085527  	1.91609156495977  	2.15681613765348
H   -1.45921922341431  	0.28664026714375  	2.09740291646373
C   -3.69867703396569  	0.02559379686106  	1.04925737413926
C   -3.94538628953615  	1.57862606161954 	-0.82124827332738
C   -4.96411869534430 	-0.30174030694658  	0.25905131485665
H   -3.93311585787261  	0.42651546753628  	2.03949834874653
H   -3.05167233192719 	-0.84396895125018  	1.16416248169685
C   -5.30834270136635  	1.02788690649621 	-0.41111617937325
H   -3.66381694966426  	1.18932576826236 	-1.80600765402146
H   -3.91611306075984  	2.66870463718393 	-0.85141146813875
H   -4.74266427173624 	-1.03908102223426 	-0.51951780684291
H   -5.76448843105690 	-0.68333032579924  	0.89561671037955
H   -5.77838020926089  	1.70237386149111  	0.31404861125011
N   -3.04872552302780  	1.06508964429598  	0.21907587632097
O   -6.13564418700139  	0.91475328742965 	-1.56598102011334
H   -7.02178369630734  	0.67534787545585 	-1.27318805639707