28
28 (SP=-500.041130595585,U=-499.77248905,H=-499.77154484,G=-499.82445668)
N   -3.77579213233520  	0.20515660978317  	0.17875822625181
C   -2.54807050465147  	0.68699442141069  	0.41959588728897
C   -1.84009954416289  	0.06311822370255  	1.57573791973693
C   -0.58045213239671  	0.37843668623005  	1.86235932613921
O   -2.04101519114775  	1.58826315649817 	-0.26980129921317
H   -2.38942214311372 	-0.66350991947809  	2.16976662638759
H   -0.05361469673701  	1.09894424730041  	1.24246974777488
C   0.16602818067554 	-0.28179135196206  	2.98103828082507
C   -4.59561764214516  	0.69288866514522 	-0.92015312907729
H   -4.12965780786299 	-0.53523659814632  	0.76675903279874
H   1.03636869416094 	-0.82125999952434  	2.59915232167338
H   -0.47735439832749 	-0.97577964612263  	3.52269354371091
N   0.69852795769519  	0.69420425298950  	4.00558537152002
C   1.74328993671492  	1.58218407094968  	3.40907670222063
C   1.31595107948181 	-0.09929300358862  	5.11288877118748
H   0.54549693836782 	-0.72646148737987  	5.56109785124084
H   1.71733491074474  	0.59566108243801  	5.84995931980489
H   2.11364166562625 	-0.71338807931668  	4.69481685740798
H   1.29100757363752  	2.20920018462119  	2.64275218970034
H   2.52545817763369  	0.95450145820177  	2.98186346036473
H   2.14836932633464  	2.20718091379525  	4.20467640170587
H   -4.10166610784759  	0.52058872501727 	-1.88006309393374
H   -5.54301276465332  	0.15503167894586 	-0.90585227212502
H   -4.79152636157555  	1.76270085522989 	-0.81208757211305
C   -0.41263964075100  	1.52556624696497  	4.55931844894258
H   -0.81979590940576  	2.14884111700780  	3.76452259269911
H   -1.18119426541357  	0.85898550941902  	4.95098262630102
H   -0.00454319854585  	2.14827197986811  	5.35508586077926