28
29_TS (SP=-956.294841736569,U=-956.05152226,H=-956.05057805,G=-956.10628782)
N   -3.27728695895727  	0.21621883476581  	0.21600916329003
C   -1.93838513050392  	0.59375319418605  	0.15916552777915
C   -1.07553155495991 	-0.01496969172324  	1.13296823982929
C   0.28982400052374  	0.21664102336558  	1.02542676077774
O   -1.55785944478170  	1.41650984474919 	-0.71426710365354
S   1.47563635023765 	-1.25164263803566 	-0.41280599872804
C   3.01606108871734 	-0.30463780670911 	-0.20845888365434
H   0.63584893092319  	1.07084168838717  	0.45511504060900
H   0.93381463351036 	-0.07840114133411  	1.84733178981908
H   2.96831357160813  	0.65504122551877 	-0.73326732136990
H   3.20882538443975 	-0.10302286429455  	0.85152908729963
H   3.87116724911896 	-0.86171383143518 	-0.60193810397294
C   -4.27914580818127  	0.52701812770579 	-0.72686941309312
C   -5.20958260506170 	-0.46973262804780 	-1.04689035337742
C   -6.24992551867694 	-0.20760458587250 	-1.93180012385875
C   -6.37207714407206  	1.04969010015049 	-2.52213285226424
C   -5.44938263836889  	2.04283950154386 	-2.19983229791198
C   -4.41333824440647  	1.79537429697365 	-1.30145977745601
H   -5.10888553037963 	-1.45303159255812 	-0.59462207041148
H   -6.96274014875094 	-0.99311525842877 	-2.16558887350520
H   -3.72005523737250  	2.58414286648298 	-1.04054634468953
H   -3.47324994875315 	-0.60566857976180  	0.76881577569399
H   -5.53997606350873  	3.03119129490962 	-2.64162437092418
H   -7.17900301738458  	1.25415931952162 	-3.21906285625497
C   -1.59110551889643 	-1.08150929660004  	2.07515834144682
H   -2.43976166685105 	-0.74505247879247  	2.68349820374231
H   -1.91246017549155 	-1.99376090256931  	1.54954044939621
H   -0.79773885372036 	-1.37655802209796  	2.76760836544240