27
30 (SP=-703.867876260484,U=-703.6404896,H=-703.63954539,G=-703.69262941)
N   -3.20524462744164  	0.28399292984156  	0.00416131276543
C   -1.89120474790809  	0.35812305763925 	-0.34331158832558
C   -0.92769025831239 	-0.19037515851788  	0.67510516899407
C   0.37340022855491  	0.00479501744910  	0.45792547034176
O   -1.51660894065472  	0.84046581550261 	-1.41531477876845
H   -3.44480273385656 	-0.25292693730668  	0.82642288509862
H   0.72627537053979  	0.53941266798684 	-0.41793542316204
H   1.11510212678350 	-0.36749025879292  	1.15863937233216
C   -4.29622614196155  	0.65436328693707 	-0.82087694498949
C   -5.42918103260709 	-0.11808562191034 	-0.80553079639148
C   -4.24932138834915  	1.84005392107619 	-1.60563421053531
C   -6.54060600336973  	0.25660371822620 	-1.59882500731344
C   -5.31422177448089  	2.20371549077627 	-2.38564140229906
H   -3.36358254198124  	2.46119428260969 	-1.57303489616730
C   -7.74290010973782 	-0.49003994948607 	-1.64841845391882
C   -6.48936759706370  	1.41213896812378 	-2.40334115438694
H   -5.27840610025386  	3.10798210386891 	-2.98415508681988
C   -8.60754917380891  	0.99691795625004 	-3.13241667462305
H   -9.45986897018927  	1.27685658870338 	-3.74481483199774
N   -7.55763102602523  	1.77509646152939 	-3.18068612226182
N   -8.76470312825047 	-0.14084303308884 	-2.39656431021036
H   -7.84047569724628 	-1.39393627157009 	-1.05060218060401
H   -5.48174900174882 	-1.01826572785455 	-0.19980061384220
C   -1.45348701378946 	-0.92154579593881  	1.88302154505687
H   -2.07010637005786 	-0.26962709289801  	2.51181199631156
H   -2.06455950496041 	-1.78335187881580  	1.59274936760246
H   -0.62128384182296 	-1.28422454034029  	2.48906735811405