29
6_adduct_anti (SP=-1082.174236284816,U=-1081.93136152,H=-1081.93041731,G=-1081.98923714)
C   -1.22517266309632      2.22445374179382     -0.36351717400846
H   -2.18557357547733      1.76255536208403     -0.12830869811823
H   -1.02603726099037      2.15453605240242     -1.43510441422660
S   0.11086347441527      1.45147426783080      0.57747649376093
C   1.17365773311579     -1.05758749216451      0.39094749447155
H   1.06270958736345     -1.15647414237006      1.47340936477155
C   0.03268266558502     -0.19943403414086     -0.19444207332339
H   0.21828121332878     -0.07293710936417     -1.26470607687757
C   -1.30168247240318     -0.88856331057174     -0.00756653677767
C   -2.04079670348137     -1.26832586823495     -1.12723545669131
C   -1.79455134895990     -1.16912456362599      1.26892003485004
C   -3.25652058525527     -1.93468123716531     -0.97532514251732
H   -1.66026262691642     -1.04651123713365     -2.12050700679066
C   -3.00519773112931     -1.83689537743921      1.42121507944590
H   -1.23053151487950     -0.86467136651885      2.14622524796619
C   -3.73893580991529     -2.22220638071105      0.29853922869656
H   -3.82461032459140     -2.22750490173425     -1.85317157969718
H   -3.37872827213781     -2.05533195669419      2.41720503083452
H   -4.68455893517834     -2.74227471999856      0.41934928345841
C   1.11999322743512     -2.41508412585174     -0.18293651292334
N   1.07488706162071     -3.47255486186085     -0.63719926026970
N   2.48644146788019     -0.47194110892434      0.16070554883090
C   3.05625094973821     -0.12674806548956     -1.00559891935697
C   4.30702134952146      0.44619474582205      0.58032790919619
H   2.60031011353337     -0.32134000552278     -1.96658935263036
H   5.14697711768041      0.85289766160721      1.12486439631530
N   3.28176752796660     -0.10248074701942      1.19546164135606
N   4.22101417048405      0.45606961955998     -0.78188649247893
H   -1.25213083525663      3.27668816143574     -0.07369305726640