28
6_TS (SP=-1081.653851811863,U=-1081.42739889,H=-1081.42645468,G=-1081.48411877)
C   0.08668708481131      1.86171650865738      1.55339228855486
H   0.48750437950732      2.81999095400607      1.89794690353523
H   0.86549221281165      1.10571117111897      1.72298110751355
S   -0.34651635299832      1.92286739255024     -0.20587617265500
C   1.65398627625240     -0.62465665385906      0.15012053086204
C   0.53676777547725     -0.44611761989565     -0.62998412024735
H   0.71047200677310     -0.08011123415457     -1.63276982740409
C   -0.72271954405490     -1.19969069923137     -0.43759125719973
C   -1.36720321208806     -1.70828041758680     -1.56976841839408
C   -1.28784016097396     -1.42349096732938      0.82364359631258
C   -2.54277198649804     -2.44490838228301     -1.44684602106106
H   -0.94141134696768     -1.52388259601547     -2.55235308399914
C   -2.46439432060179     -2.15504215813643      0.94436027760667
H   -0.82978871039683     -0.99891838119709      1.70969445559185
C   -3.09385098881668     -2.67299609453898     -0.18810406474986
H   -3.02916569994374     -2.83638753611563     -2.33538836724950
H   -2.89792929648676     -2.31450022208288      1.92736944816179
H   -4.01275166474050     -3.24303920864581     -0.08846464115776
C   1.71004728972769     -1.34510744650038      1.36572016512025
N   1.79319666334585     -1.94817162329071      2.35517728068220
N   2.89670305440373     -0.04710828310627     -0.26078814358526
C   3.53398266002360     -0.21257409118417     -1.43002142971505
C   4.61841600493245      1.13644002071647     -0.24563855940242
H   3.17039699098930     -0.87187574679391     -2.20503890107520
H   5.38653533310305      1.82174551559148      0.08417029858050
N   3.58952137989678      0.82748766744408      0.51642951193036
N   4.63151639582737      0.52843052022314     -1.46554177972520
H   -0.77456222331561      1.60706961163978      2.17902892316884