11
8 (SP=-231.397677515062,U=-231.3012336,H=-231.30028939,G=-231.33438998)
C   -0.60783845919810     -1.91220865428826     -0.00000507936244
C   0.33770449249400     -0.97378458332132      0.00000853378040
C   0.00462055639346      0.47971713173005      0.00001622286658
O   -1.15619250744539      0.87649812460576      0.00000805856660
C   1.16750010501980      1.42753379466472     -0.00000159248825
H   1.39288471387450     -1.23351875754451      0.00001316669428
H   -0.35378111871453     -2.96799319718185     -0.00001044518182
H   -1.66201873074968     -1.64724191409642     -0.00001109104855
H   0.82685244018112      2.46336370543119     -0.00000854582432
H   1.78928496144134      1.23337357121144      0.88058893892876
H   1.78927154670347      1.23335777878921     -0.88059816693125