25
Properties=species:S:1:pos:R:3:charge:R:1:forces:R:3 13_carbanion=T (SP=-916.968348631956,U=-916.75413949,H=-916.75319528,G=-916.80629389) energy=-24928.91790187385 pbc="F F F"
N       -3.08526179       0.19517042      -0.09153280      -0.09639496      -0.00135032      -0.00011935       0.00145836
C       -1.78328581       0.67443094      -0.18332891       0.13876291      -0.00053724       0.00131081      -0.00271039
C       -0.89858527       0.18151244       0.83501242      -0.06225535       0.00184852      -0.00506681       0.00251072
C        0.50670570       0.51788202       0.78427453      -0.02340801       0.00431204      -0.00157287      -0.00294844
O       -1.41762101       1.45590100      -1.06366485      -0.29678604       0.00038000       0.00175005       0.00047437
S        1.34783755      -1.05098585       0.12962016      -0.06912237       0.00508842       0.00326226       0.00476774
C        3.11439706      -0.58965379       0.21357704      -0.06103724      -0.00590652       0.00207543      -0.00036085
H       -1.23244709      -0.48563672       1.61888127       0.04022546       0.00060191      -0.00150331      -0.00438946
H        0.68643508       1.33052603       0.08634290       0.04264827       0.00539173       0.00390776      -0.00515402
H        0.94680804       0.72180169       1.75837553       0.04526486       0.00571602       0.00156408       0.00331579
H        3.33201610       0.26791026      -0.42107691       0.04014083      -0.00731664      -0.00171807      -0.00355445
H        3.41746237      -0.37142919       1.23644404       0.04013075       0.00543793      -0.00502656       0.00462113
H        3.68605169      -1.44363305      -0.14618789       0.04417570       0.00151079       0.00101675       0.00211716
C       -4.18423064       0.47285604      -0.88661082       0.05444160      -0.00405328      -0.00129211       0.00130732
C       -5.39159413      -0.16184484      -0.56146806      -0.04478340      -0.00447871       0.00159623       0.00280087
H       -5.42891054      -0.84403614       0.27870892       0.04312760      -0.00817522      -0.00156680       0.00543623
C       -6.53277053       0.07547476      -1.30045854      -0.03014441      -0.00107791      -0.00126156      -0.00938017
H       -7.45602904      -0.42124611      -1.03150480       0.04321235       0.00317928       0.00031261      -0.00307447
C       -6.49951966       0.94528735      -2.38333240      -0.03929288      -0.00249762       0.00220767       0.00191784
H       -7.39288541       1.13093173      -2.96100362       0.04252231      -0.00137155      -0.00075083      -0.00193829
C       -5.30516999       1.57189622      -2.71229803      -0.03284238      -0.00097090      -0.00213609      -0.00201564
H       -5.26723364       2.25005377      -3.55472357       0.04192016      -0.00126342      -0.00059736       0.00091046
C       -4.15043527       1.34840447      -1.98268777      -0.03755359      -0.00185736       0.00290009      -0.00032848
H       -3.22170163       1.82923255      -2.23401596       0.03671734       0.00179226       0.00158730       0.00304847
H       -3.26130164      -0.46722128       0.64374617       0.14033051       0.00559871      -0.00087888       0.00116861
