29
Properties=species:S:1:pos:R:3:charge:R:1:forces:R:3 1_adduct_anti=T (SP=-1068.976258107704,U=-1068.72995008,H=-1068.72900587,G=-1068.78923505) energy=-29064.924641777685 pbc="F F F"
C       -1.25925293       2.15136660      -0.28828406      -0.06976870       0.00265152      -0.00359299       0.00132138
H       -2.14574152       1.59675387       0.00310649       0.04198969       0.00155980       0.00018598      -0.00612191
H       -1.17580418       2.18208471      -1.37172906       0.04188778      -0.00196840       0.00320402       0.00500287
S        0.22064470       1.42763526       0.46876494      -0.06478155      -0.00660827      -0.00051405      -0.00276112
C        2.67111791      -0.29347909      -0.22005173       0.21614294       0.00118391      -0.00207785       0.00140052
O        2.93157332       0.02095706      -1.35333742      -0.26189080       0.00207758       0.00186743      -0.00466186
C        1.38503661      -1.01474106       0.19082395       0.01385826      -0.00569443       0.00021781      -0.00133263
H        1.34992976      -1.08898539       1.27707940       0.05437791      -0.00583166       0.00187152      -0.00038065
C        0.14898614      -0.23572151      -0.31668170       0.01149943      -0.00625880       0.00484700       0.00099993
H        0.26554607      -0.09093633      -1.38868234       0.03709548      -0.00173530       0.00218520       0.00305792
O        3.44832454      -0.07112229       0.84957612      -0.11626675       0.00094016       0.00438481       0.00501996
C        4.67515057       0.63515391       0.58169124       0.02439389       0.00556753      -0.00085519      -0.00016691
H        4.45822209       1.60463950       0.14149445       0.04235972       0.00031119      -0.00556808       0.00150186
H        5.15748992       0.74972989       1.54495252       0.04705982      -0.00081734      -0.00103291      -0.00333692
H        5.30205441       0.06384952      -0.09790112       0.04282485       0.00153776       0.00163888      -0.00168721
C       -1.14525198      -0.94809895      -0.04833498      -0.00258428       0.00116506      -0.00053572      -0.00075244
C       -1.90876087      -1.40193344      -1.11844022      -0.03338964       0.00017723       0.00066110       0.00124470
C       -1.62413650      -1.13898544       1.24605263      -0.03775409       0.00398695       0.00151541      -0.00072845
C       -3.12563928      -2.03501793      -0.90317070      -0.03471942       0.00090635      -0.00139100      -0.00035434
H       -1.54516550      -1.25882175      -2.12822567       0.04129497      -0.00057079      -0.00119037       0.00438492
C       -2.83679999      -1.77142815       1.46466751      -0.03231948       0.00336340       0.00168412       0.00008114
H       -1.04636443      -0.77488313       2.08600351       0.03830538      -0.00112706       0.00026352       0.00170407
C       -3.59211935      -2.22263218       0.38897901      -0.02888074       0.00394168       0.00337942      -0.00025044
H       -3.70325530      -2.38433659      -1.74827092       0.04493155      -0.00087122       0.00142086      -0.00193771
H       -3.19227903      -1.91231441       2.47640416       0.04505622      -0.00402162      -0.00248964      -0.00098133
H       -4.53889121      -2.71683248       0.56020905       0.04500202       0.00562429      -0.00315154      -0.00066602
C        1.39870924      -2.36190854      -0.35545848       0.07373235       0.00129815       0.00163285      -0.00005219
N        1.39544622      -3.42700158      -0.80743404      -0.22851001      -0.00264555      -0.00499825       0.00139294
H       -1.32987425       3.16661435       0.08846124       0.04905324       0.00185803      -0.00356256      -0.00093980
