29
Properties=species:S:1:pos:R:3:charge:R:1:forces:R:3 22_adduct=T (SP=-956.835975788976,U=-956.57684113,H=-956.57589692,G=-956.63260676) energy=-26016.001584749152 pbc="F F F"
N       -3.06432542       0.28817310       0.50571907      -0.11073519       0.00308529       0.00041093      -0.00484617
C       -1.93839685       1.01534570       0.69423627       0.15814352       0.00338833       0.00148668      -0.00136266
C       -0.90876229       0.39213604       1.61615441      -0.04288733       0.00407375      -0.00091135       0.00272180
C        0.45283705       0.33711554       0.95348373      -0.02721312      -0.00114456      -0.00259432      -0.00235086
O       -1.75363075       2.10973494       0.17416820      -0.31861132      -0.00106388       0.00196296      -0.00249600
S        0.46702427      -0.95774056      -0.34199140      -0.09444951       0.00107470       0.00313441       0.00374855
C        2.14304783      -0.68963018      -1.00171982      -0.06740388       0.00116500      -0.00101000      -0.00167687
H       -3.10593953      -0.65121555       0.86140202       0.13085063       0.00014207       0.00441902      -0.00134629
H        0.67102331       1.29993393       0.49699504       0.03571062       0.00013107       0.00064670       0.00984944
H        1.22605135       0.10860741       1.68523595       0.03818899      -0.00398321      -0.00141617      -0.00587608
H        2.24935778       0.31629977      -1.40188328       0.03779015       0.00079430      -0.00306590       0.00212138
H        2.90339495      -0.86385374      -0.24311459       0.03719930      -0.00744551      -0.00010632      -0.00085348
H        2.28495157      -1.40265795      -1.80936117       0.04130630      -0.00303723      -0.00138137       0.00050787
C       -4.11981786       0.72033465      -0.39608250       0.01613161      -0.00508334      -0.00014109      -0.00224082
H       -0.85063990       1.03205395       2.49796630       0.04456231      -0.00026009       0.00490306      -0.00051856
H       -1.21199456      -0.59854352       1.95726562       0.03827134      -0.00079175      -0.00343831      -0.00170532
H       -3.71104514       0.81139594      -1.40428517       0.03942431       0.00031034      -0.00309575      -0.00182872
H       -4.43812617       1.71795640      -0.10125003       0.03984551      -0.00452883       0.00148341      -0.00169814
C       -5.26478753      -0.24281610      -0.36838020      -0.00105548      -0.00020164      -0.00653058       0.00672125
C       -6.39192072       0.01084777       0.40644511      -0.03830569      -0.00126410      -0.00197157       0.00376390
C       -5.20964943      -1.42836980      -1.09820959      -0.04043823       0.00047836      -0.00267427       0.00120074
C       -7.43870614      -0.89751996       0.45551433      -0.03707125      -0.00119674      -0.00043023       0.00180637
H       -6.45099213       0.93056120       0.97421117       0.03804928       0.00507667      -0.00006786       0.00190516
C       -6.25287646      -2.34016054      -1.05186975      -0.03584597       0.00169714      -0.00060823       0.00559179
H       -4.33981484      -1.63415181      -1.71077433       0.03825834       0.00022709       0.00291726      -0.00112192
C       -7.37126664      -2.07693206      -0.27208778      -0.03619787       0.00062016       0.00196952      -0.00171610
H       -8.30722386      -0.68317336       1.06416846       0.03878625      -0.00028465       0.00139220      -0.00305813
H       -6.19316089      -3.25719994      -1.62351527       0.03890349       0.00207653       0.00752041      -0.00291750
H       -8.18717390      -2.78635730      -0.23310474       0.03879296       0.00594492      -0.00280317      -0.00232442
