28
Properties=species:S:1:pos:R:3:charge:R:1:forces:R:3 24_carbanion=T (SP=-956.301215800905,U=-956.05719985,H=-956.05625565,G=-956.11229426) energy=-25997.715412050522 pbc="F F F"
N       -2.99271588      -0.36355052      -0.54807664      -0.06021370      -0.00236149       0.00158399       0.00365628
C       -1.74204426       0.31979917      -0.56931684       0.13812414       0.00280559       0.00050601      -0.00283628
C       -0.93034643       0.12716490       0.58774852      -0.06596740       0.00029728       0.00255391       0.00153782
C        0.44292970       0.59897505       0.59824951      -0.02155713      -0.00301746       0.00144028       0.00168183
O       -1.39230850       1.02721000      -1.51767519      -0.29270303       0.00413487      -0.00073427       0.00304328
S        1.39703748      -1.03582326       0.49592399      -0.06288300       0.00325458       0.00601408      -0.00225438
C        3.13574712      -0.48431948       0.59756046      -0.05943912       0.00246595       0.00019116       0.00027721
H        0.67220050       1.21143583      -0.27062014       0.04321658       0.00124470      -0.00452685       0.00167523
H        0.75345104       1.08389912       1.52422908       0.04468081      -0.00127435      -0.00328367      -0.00131169
H        3.39866449       0.15382573      -0.24447324       0.04033758      -0.00051504       0.00036716       0.00271469
H        3.32617674       0.04442470       1.53042042       0.04003736      -0.00100502      -0.00200183      -0.00222112
H        3.75499085      -1.37904318       0.56862518       0.04412414      -0.00148209       0.00060224      -0.00318463
C       -4.16781243       0.18918620      -1.04447347       0.04676017      -0.00231759       0.00054001      -0.00216551
C       -5.37738667      -0.52194340      -0.96335383      -0.04684781      -0.00112591       0.00049517       0.00386906
C       -6.55943154       0.03461910      -1.41822341      -0.03334131       0.00060546      -0.00406182      -0.00087969
C       -6.58217819       1.30845754      -1.96429876      -0.03970963      -0.00297266      -0.00279469       0.00454632
C       -5.39264418       2.01907895      -2.04800288      -0.03440791      -0.00281697      -0.00368376      -0.00324221
C       -4.20093608       1.47968033      -1.60337081      -0.04182786      -0.00359087       0.00337811       0.00355324
H       -5.41556286      -1.51142769      -0.53786976       0.04016167      -0.00297789       0.00063771      -0.00116653
H       -7.47579461      -0.53650095      -1.34106607       0.04241758      -0.00113264       0.00244923      -0.00438404
H       -3.29004401       2.04015457      -1.69855471       0.03546057       0.00242092      -0.00075321      -0.00078115
H       -5.38844516       3.01532183      -2.47071195       0.04147697       0.00423972      -0.00095856      -0.00132522
H       -7.50859248       1.73830952      -2.31603226       0.04222031       0.00139735       0.00277616      -0.00141097
H       -1.31551113      -0.33766509       1.48149498       0.04155652      -0.00004899       0.00009135      -0.00180718
C       -3.02853262      -1.68377260       0.05387931      -0.00651417       0.00007309      -0.00066883       0.00165902
H       -3.56135956      -1.70115443       1.00961437       0.03958315       0.00085117       0.00048772       0.00094557
H       -3.50128751      -2.39143506      -0.62508198       0.04498259       0.00070410       0.00107980       0.00048588
H       -2.00974113      -2.01871437       0.21863785       0.04027193       0.00214462      -0.00172614      -0.00067476
