29
Properties=species:S:1:pos:R:3:charge:R:1:forces:R:3 25_TS=T (SP=-1031.53414262624,U=-1031.28546382,H=-1031.28451961,G=-1031.34354333) energy=-28043.948045952176 pbc="F F F"
N       -3.10016657       0.09463121      -0.20237396      -0.09756213       0.00021427      -0.00099013       0.00104195
C       -1.82775763       0.64082826      -0.08375620       0.13442513       0.00048446       0.00057592       0.00239146
C       -0.93201712      -0.14504712       0.71260905      -0.07833795       0.00169138      -0.00092728      -0.00020211
C        0.44649962       0.26325603       0.86241825      -0.02602398       0.00173867       0.00084159       0.00124452
O       -1.50780704       1.70927926      -0.61281837      -0.30337316       0.00019969      -0.00177663      -0.00624945
S        1.43799857      -0.88461059      -0.27509692      -0.07843711      -0.00402187      -0.00228952       0.00494882
C        3.15517268      -0.42113045       0.14323701      -0.06299888       0.00619240       0.00158993      -0.00060976
H        0.58693607       1.28892111       0.53218358       0.04191500      -0.00289036       0.00056977      -0.00269570
H        0.84168517       0.11205449       1.86552341       0.04373408      -0.00066610       0.00581330       0.00162418
H        3.34513485       0.62981548      -0.06889254       0.03886943      -0.00097656       0.00388045      -0.00374807
H        3.37818258      -0.62656038       1.18949328       0.03897809       0.00285043      -0.00142915      -0.00444501
H        3.81378870      -1.02484172      -0.47911461       0.04276737      -0.00097008      -0.00364275       0.00123818
C       -4.20597581       0.57735004      -0.87980304       0.05486945      -0.00138645      -0.00120365       0.00584608
C       -5.40819115      -0.12979818      -0.75894245      -0.04392977       0.00068698      -0.00231045       0.00250473
C       -6.55846100       0.28756571      -1.40140194      -0.05260645       0.00151254      -0.00006114      -0.00153550
C       -6.53445606       1.43342708      -2.19802568       0.08344050      -0.00078378       0.00021279      -0.00123551
C       -5.33942898       2.14309864      -2.32878286      -0.04524037      -0.00141543      -0.00016888      -0.00003302
C       -4.19324161       1.73239859      -1.68522218      -0.03607536      -0.00138837      -0.00017286       0.00215252
H       -5.45010775      -1.02217587      -0.14733738       0.04375508      -0.00168184      -0.00237651       0.00204144
H       -7.46307425      -0.28702517      -1.27209038       0.04335445      -0.00049712       0.00253917      -0.00702524
H       -3.27452443       2.28458811      -1.78352778       0.03723225       0.00010676       0.00253731       0.00196541
H       -3.24857217      -0.77950727       0.27177465       0.13985254      -0.00087545       0.00060400       0.00079309
H       -5.32897657       3.02947510      -2.94892876       0.04381317      -0.00149091       0.00079668       0.00167968
H       -1.23467787      -1.07803140       1.16892100       0.03856083       0.00059900      -0.00477081       0.00284411
O       -7.60178964       1.93051895      -2.87635499      -0.13728648       0.00318696       0.00332903      -0.00263326
C       -8.83646785       1.24739342      -2.76619130       0.02476116      -0.00196176      -0.00371206       0.00001490
H       -9.54169525       1.79856871      -3.38091623       0.04108682       0.00245185      -0.00072649      -0.00021059
H       -8.76398348       0.22214565      -3.13724733       0.03527306      -0.00216444       0.00307295      -0.00830036
H       -9.19758392       1.23258528      -1.73499443       0.03518328       0.00125523       0.00019531       0.00659278
