28
Properties=species:S:1:pos:R:3:charge:R:1:forces:R:3 29_carbanion=T (SP=-956.313588742604,U=-956.06979541,H=-956.0688512,G=-956.12608902) energy=-25998.395027609542 pbc="F F F"
N       -3.10866188       0.09835106      -0.14895500      -0.09778909      -0.00013695      -0.00024411       0.00145142
C       -1.83295233       0.65680316      -0.11754424       0.13744271      -0.00183531      -0.00011194       0.00459525
C       -0.94717807       0.06554990       0.85157981      -0.01321594      -0.00174493       0.00004303       0.00412449
C        0.44035555       0.50245766       0.81186100      -0.02607436      -0.00182067      -0.00230690       0.00030512
O       -1.49605489       1.57822866      -0.86894369      -0.29854807       0.00532334       0.00526471      -0.00118275
S        1.36932061      -0.95368230       0.02669894      -0.07143848      -0.00229382       0.00054318       0.00259226
C        3.11219681      -0.46765248       0.26244200      -0.06271702      -0.00293621       0.00343182      -0.00191383
H        0.54482327       1.38035763       0.18365422       0.04174291       0.00007029      -0.00234062       0.00109101
H        0.87612183       0.65308582       1.80017965       0.04111225       0.00393516      -0.00377978       0.00037751
H        3.32870513       0.48391772      -0.21914283       0.03965381      -0.00328491       0.00222353      -0.00468900
H        3.36870134      -0.40981865       1.31880099       0.03988365       0.00315438       0.00486066       0.00243239
H        3.72207839      -1.23970320      -0.20252702       0.04362931      -0.00295432      -0.00268241      -0.00154079
C       -4.19706541       0.44485633      -0.93304150       0.04993092       0.00319359      -0.00336141      -0.00005269
C       -5.33995228      -0.36333165      -0.84531743      -0.04781922       0.00133216      -0.00178037       0.00308818
C       -6.46940110      -0.07177339      -1.58300834      -0.03324187      -0.00145071       0.00304572       0.00521204
C       -6.49147257       1.03303596      -2.42530265      -0.04238140      -0.00037131      -0.00525057      -0.00403930
C       -5.36249857       1.83475208      -2.51735510      -0.03560660      -0.00296191       0.00044954       0.00007204
C       -4.21965756       1.55629969      -1.78721884      -0.04010516       0.00184659      -0.00196648       0.00042027
H       -5.33575199      -1.22788040      -0.19234426       0.04151062       0.00004092       0.00028240       0.00186358
H       -7.33999586      -0.70949181      -1.50085637       0.04255639       0.00043580       0.00204490      -0.00030018
H       -3.34080751       2.17139372      -1.86188206       0.03609537       0.00069360      -0.00138238      -0.00191997
H       -3.25406934      -0.70342847       0.43716121       0.13064106      -0.00286365      -0.00134125      -0.00279884
H       -5.36667238       2.69673971      -3.17132683       0.04125921       0.00243474       0.00302599      -0.00187945
H       -7.37583179       1.26246511      -3.00123443       0.04192272       0.00488626       0.00145508       0.00001768
C       -1.35509886      -0.98199153       1.81205682      -0.07381195       0.00093273      -0.00396266      -0.00182675
H       -2.18561671      -0.67179875       2.45565892       0.04014465      -0.00521540      -0.00237772      -0.00313544
H       -1.66023894      -1.91774467       1.32690060       0.03687789       0.00150764       0.00227676      -0.00028318
H       -0.52680198      -1.24580513       2.46619049       0.03834568       0.00008385       0.00394138      -0.00208064
