26
Properties=species:S:1:pos:R:3:charge:R:1:forces:R:3 2_TS=T (SP=-1009.273091542553,U=-1009.0592529,H=-1009.0583087,G=-1009.11650183) energy=-27438.09278869114 pbc="F F F"
C        4.30443791      -0.70023389       0.35897789      -0.02351261      -0.00081159      -0.00084253       0.00151896
C        3.60638261      -0.98377053      -0.80744632      -0.02709261      -0.00009424      -0.00157683       0.00105313
C        2.28147504      -0.60241616      -0.93962139      -0.02952309       0.00243482       0.00332249      -0.00232262
C        1.63240911       0.06398209       0.09575212       0.00051749      -0.00011585      -0.00186089       0.00144156
C        2.34209398       0.35719619       1.25449984      -0.02883909      -0.00523565      -0.00112451       0.00704134
C        3.66902462      -0.02620031       1.39094301      -0.03034378       0.00022020       0.00435196      -0.00182441
C        0.19637517       0.47196578       0.00274372       0.02219486       0.00810639       0.00231939       0.00067188
C       -0.80206367      -0.59344948      -0.17736913      -0.03963086      -0.00051535       0.00153416      -0.00324431
C       -0.55967639      -1.63739524      -1.05303548       0.05626063       0.00056220      -0.00344003      -0.00557467
N       -0.42065555      -2.53823861      -1.78369776      -0.21256144      -0.00131502       0.00691510      -0.00151400
C       -2.08988391      -0.48732047       0.52566598       0.16527329       0.00202047      -0.00417298       0.00128507
O       -2.31867646       0.41562851       1.33498509      -0.29931009       0.00166941      -0.00243885       0.00014913
N       -3.03272661      -1.41727637       0.20819637      -0.14494668       0.00091531      -0.00206110       0.00513005
S       -0.00381505       1.64571219      -1.47698768      -0.03462003       0.00594942      -0.00082190       0.00144571
C       -1.62325611       2.37413058      -1.14011606      -0.06325043      -0.00550847       0.00128928       0.00189173
H       -0.08617595       1.04598428       0.87661573       0.04026172      -0.00348661       0.00077442      -0.00180516
H       -1.74183658       3.17344283      -1.86804072       0.05159905       0.00025752       0.00051459      -0.00330265
H       -1.68409619       2.78371175      -0.13604058       0.04319066       0.00271744      -0.00401341      -0.00174037
H       -2.41754082       1.64556768      -1.27693948       0.04349478      -0.00121084      -0.00361202       0.00164773
H        1.84970830       0.88985938       2.05769533       0.04497665      -0.00192033       0.00364067       0.00291811
H        4.20512315       0.20159399       2.30314224       0.04676358       0.00092752       0.00062107      -0.00018214
H        5.33741846      -1.00343639       0.45885628       0.04698794       0.00384330       0.00059216       0.00156661
H        4.09317555      -1.50437294      -1.62062895       0.04726772      -0.00044819      -0.00444084      -0.00556989
H        1.75521604      -0.81860225      -1.85695690       0.04340904       0.00165427      -0.00060601      -0.00206832
H       -2.80735053      -2.23761145      -0.32555301       0.13965996      -0.00711307       0.00313050       0.00083302
H       -3.86863486      -1.42699906       0.76387214       0.14177337      -0.00350233       0.00200666       0.00055501
