31
Properties=species:S:1:pos:R:3:charge:R:1:forces:R:3 5_TS=T (SP=-1087.720804629751,U=-1087.46277782,H=-1087.46183361,G=-1087.52221219) energy=-29569.78442874607 pbc="F F F"
C       -0.09376612       1.47736530      -1.95723123      -0.05946357       0.00070383       0.00593467      -0.00126023
H       -1.14933392       1.23522928      -2.03810648       0.04279611      -0.00023227      -0.00919369      -0.00072586
H        0.49364713       0.75956143      -2.52265214       0.04389266      -0.00186460      -0.00320184       0.00063968
S        0.40009952       1.56810151      -0.21851963      -0.05390393      -0.00536224      -0.00189792       0.00042605
C       -1.32821923      -0.63252253      -0.07758111      -0.02731648      -0.00224666       0.00104136      -0.00058135
C       -0.07083902      -0.13380155       0.51227042       0.02040623      -0.00188261      -0.00107243       0.00077420
H       -0.24834743       0.15934042       1.54396735       0.03839187       0.00378574       0.00265011       0.00393436
C        1.09424970      -1.07370452       0.49460245       0.00365076      -0.00422179      -0.00169360      -0.00220632
C        1.60739332      -1.52269041       1.70617056      -0.02793679       0.00436917       0.00857650       0.00232790
C        1.70292292      -1.49233506      -0.68308762      -0.02888932      -0.00639357      -0.00346447      -0.00343724
C        2.69625045      -2.38134515       1.74499124      -0.03184789       0.00205853       0.00345964       0.00367586
H        1.15044140      -1.19163190       2.62888960       0.04376769       0.00296831      -0.00037337       0.00552738
C        2.79084812      -2.34999411      -0.64980883      -0.02959175      -0.00113813       0.00401644      -0.00129820
H        1.31856983      -1.16863024      -1.63756320       0.04038795      -0.00182207       0.00434661      -0.00564395
C        3.29266232      -2.79881528       0.56434689      -0.02554646      -0.00578819      -0.00400252       0.00107344
H        3.07920938      -2.72215561       2.69729178       0.04624499       0.00390398      -0.00779135       0.00443751
H        3.24213557      -2.66961711      -1.57912841       0.04677821       0.00590545       0.00334679       0.00117577
H        4.14082476      -3.46903159       0.58922989       0.04659383       0.00100770      -0.00049259      -0.00203672
C       -1.23929669      -1.65542184      -1.02078461       0.06746353      -0.00042063       0.00359016       0.00186827
N       -1.20190710      -2.50425300      -1.82066729      -0.22482826       0.00303600      -0.00716359      -0.00485530
C       -2.60606000      -0.08883118       0.24206911       0.00802217      -0.00264280      -0.00162283      -0.00224628
C       -3.78773950      -0.62299195      -0.31473839      -0.03165473      -0.00173568      -0.00512063       0.00152437
C       -2.78500087       1.01330767       1.10918098      -0.04158060      -0.00070246      -0.00646009       0.00150510
C       -5.00845564      -0.07331274       0.01138634       0.03848581      -0.00004218       0.00736639      -0.00539795
H       -3.75400665      -1.46365183      -0.99051944       0.05031905       0.00236110      -0.00004889      -0.00709094
C       -4.05733325       1.47968761       1.36762873       0.03857736       0.00503640       0.00612013      -0.00305057
H       -1.94582815       1.51446958       1.56328949       0.04321310      -0.00614340      -0.00257680       0.00164070
N       -5.17220704       0.96459914       0.84070560      -0.18560940       0.00223477       0.00188561       0.00419725
H       -5.91603890      -0.48486234      -0.41484943       0.04903489      -0.00101874      -0.00251077       0.00299320
H       -4.19618407       2.32197988       2.03636313       0.04846489       0.00356803       0.00343735       0.00278368
H        0.07205119       2.47333834      -2.35867869       0.05167809       0.00271930       0.00291556      -0.00067314
