23
Properties=species:S:1:pos:R:3:charge:R:1:forces:R:3 6=T (SP=-643.374132673238,U=-643.18768179,H=-643.18673758,G=-643.23773346) energy=-17486.63767924146 pbc="F F F"
C        0.82722774       0.32378369      -0.01151685       0.06839859       0.00033813       0.00443435       0.00664882
C       -0.18136912      -0.57072024       0.03982270      -0.01413708       0.00003727      -0.00040956      -0.00691905
C       -1.60718132      -0.36994343       0.03692410       0.00261888       0.00160175      -0.00127948       0.00258008
C       -2.40494063      -1.48550063      -0.26340568      -0.03290301      -0.00017795       0.00041633       0.00458785
C       -2.24136812       0.84485781       0.33301708      -0.03210906      -0.00136974       0.00121912      -0.00282760
C       -3.78198837      -1.38923582      -0.29441853      -0.03441063       0.00131761      -0.00114569      -0.00106441
H       -1.92332738      -2.42992080      -0.48125621       0.04574612      -0.00280632      -0.00026045      -0.00174502
C       -3.61993507       0.93270347       0.30266653      -0.03349696      -0.00172700      -0.00093241       0.00605177
H       -1.66187328       1.71352049       0.60036084       0.04321215      -0.00083519      -0.00253976       0.00006776
C       -4.39523886      -0.17617562      -0.01264245      -0.03431687       0.00071366       0.00052790      -0.00310397
H       -4.38053948      -2.25552322      -0.53896492       0.04930021      -0.00259193      -0.00151412       0.00123270
H       -4.09654599       1.87616381       0.52908713       0.04822791      -0.00195768       0.00073672       0.00215573
H       -5.47298042      -0.09547245      -0.03728781       0.04819433       0.00190538       0.00145402       0.00191660
N        2.16889650      -0.11668697       0.05198351       0.03287781      -0.00228901      -0.00122704      -0.00679644
C        2.69206482      -1.21459475       0.65659892       0.07789852      -0.00405060      -0.00156216      -0.00354529
C        4.21311448      -0.18283431      -0.34670607       0.06414530       0.00264859       0.00156797       0.00306580
H        2.11142328      -1.88727823       1.26201809       0.07186674       0.00104824      -0.00013466       0.00112732
H        5.18557256       0.07618248      -0.73064739       0.06325664       0.00093001       0.00107171       0.00737496
N        3.14890638       0.55570133      -0.59901124      -0.14695749       0.00055267      -0.00047818      -0.00273515
N        3.98294594      -1.28071594       0.42564413      -0.22176620      -0.00074946       0.00052830       0.00178494
H        0.12125559      -1.60824452       0.02563525       0.04356924       0.00288241      -0.00163166      -0.00253851
C        0.67930967       1.71825044      -0.18826681       0.08942990       0.00025242       0.00625415      -0.00607088
N        0.55353029       2.86462680      -0.31506717      -0.19864500       0.00432784      -0.00509508      -0.00124825
