30
Properties=species:S:1:pos:R:3:charge:R:1:forces:R:3 7_adduct_syn=T (SP=-1066.117146475762,U=-1065.86263549,H=-1065.86169128,G=-1065.92043754) energy=-28986.19590810654 pbc="F F F"
C       -1.42673643       2.11979651      -0.10257506      -0.07136434       0.00120590      -0.00024127       0.00162595
H       -2.32869708       1.52183634      -0.01661374       0.04073764      -0.00389132       0.00463989      -0.00313322
H       -1.21507842       2.32644705      -1.14923178       0.04002692      -0.00229702      -0.00467401      -0.00389457
S       -0.03134698       1.29565559       0.71642687      -0.05912612      -0.00199272      -0.00235996       0.00222864
C        1.20090820      -1.12532252       0.08262668       0.07506322       0.00138566       0.00148820      -0.00150723
C        0.01159312      -0.21498923      -0.32924818       0.00342628      -0.00139389      -0.00387475      -0.00085768
H        0.23213235       0.10188464      -1.34668245       0.03573575       0.00040445       0.00208864       0.00286583
C       -1.29078362      -0.97159245      -0.33917694       0.00036472      -0.00382844       0.00114621      -0.00598221
C       -1.86503450      -1.31836087      -1.56074712      -0.03567879      -0.00179340       0.00059573      -0.00478135
C       -1.95932358      -1.31432575       0.83400410      -0.03556873       0.00143749       0.00041207      -0.00180011
C       -3.06546460      -2.01326143      -1.61396004      -0.03740368       0.00269972      -0.00290213       0.00048029
H       -1.36816575      -1.03058410      -2.47948188       0.03819270       0.00019287       0.00443591      -0.00102250
C       -3.15845046      -2.00770039       0.78340576      -0.03374201       0.00285890      -0.00192127       0.00226925
H       -1.54383867      -1.02108996       1.78826880       0.03982679      -0.00108624       0.00025254      -0.00191911
C       -3.71224299      -2.36450023      -0.43864660      -0.03347116       0.00268660       0.00518822       0.00180735
H       -3.49111733      -2.27919344      -2.57204241       0.04315144       0.00317553      -0.00304147       0.00219303
H       -3.65992528      -2.27091858       1.70462447       0.04270731       0.00180684      -0.00409124       0.00297010
H       -4.64366116      -2.91357677      -0.47450722       0.04301193       0.00195376       0.00761655       0.00477679
N        2.49095646      -0.56440098      -0.26600002       0.01919808       0.00171932       0.00111322      -0.00124962
C        3.22555221      -0.84346740      -1.37616027       0.00097946       0.00455606      -0.00173794      -0.00486438
C        4.20036051       0.67028881      -0.10671156      -0.01641946      -0.00489922       0.00181294      -0.00054510
C        4.34576687      -0.05218191      -1.30413588      -0.08420917       0.00383819      -0.00253589      -0.00233859
H        2.90896781      -1.57795251      -2.09611306       0.06380208      -0.00094202       0.00625403       0.00024197
H        4.86030263       1.40388739       0.32596805       0.05215373       0.00006942      -0.00287459      -0.00283275
H        5.14831416      -0.00472407      -2.01821953       0.05444870       0.00146187      -0.00441678       0.00372705
N        3.07267417       0.35655220       0.52122170      -0.14823176      -0.00142191      -0.00134501       0.00549386
C        1.16694583      -1.48982188       1.49497110       0.08231598       0.00091039      -0.00268943      -0.00511615
N        1.08735962      -1.84442708       2.59129822      -0.22417477      -0.00538143      -0.00100141       0.00586764
H        1.09814479      -2.04558543      -0.49657229       0.05734849       0.00171524       0.00142593       0.00205315
H       -1.57214296       3.06253503       0.41514301       0.04689877      -0.00514958       0.00123644       0.00324308
