29
Properties=species:S:1:pos:R:3:charge:R:1:forces:R:3 7_carbanion=T (SP=-1065.612338326724,U=-1065.37194084,H=-1065.37099663,G=-1065.43039421) energy=-28968.897322898894 pbc="F F F"
C       -1.87807170       1.78070546      -0.58202640      -0.06616060      -0.00267695      -0.00313852      -0.00050617
H       -2.60539063       0.99971527      -0.38170879       0.04242286      -0.00233964      -0.00319704      -0.00223119
H       -1.67555453       1.82938444      -1.64919742       0.04048911       0.00128320       0.00055490       0.00327746
S       -0.35910484       1.48981585       0.37577184      -0.05013457      -0.00311204       0.00193712      -0.00673861
C        1.40626099      -0.58768599       0.27396652       0.02777341      -0.00140717       0.00078750       0.00195086
C        0.15323980      -0.17476116      -0.37236993       0.01345284      -0.00357751       0.00039275      -0.00061183
H        0.33411814       0.04742084      -1.42375428       0.03894473       0.00152854       0.00062065       0.00041751
C       -0.94612178      -1.19999490      -0.29676143       0.00324426      -0.00170742       0.00131726      -0.00152249
C       -1.35000274      -1.83545642      -1.46377285      -0.02829131      -0.00250377       0.00112936      -0.00010921
C       -1.60055158      -1.49671303       0.89334946      -0.03210020       0.00491723      -0.00122200      -0.00032328
C       -2.37186519      -2.77516234      -1.44481301      -0.03404393      -0.00486744       0.00386102       0.00112139
H       -0.85873493      -1.59432275      -2.39804576       0.04102959       0.00183415       0.00395103       0.00263944
C       -2.62977988      -2.42301267       0.91305326      -0.03217310       0.00384068      -0.00016231       0.00254652
H       -1.29431872      -1.00974612       1.80787412       0.04173720       0.00062826       0.00213872      -0.00312909
C       -3.01657854      -3.07048620      -0.25349750      -0.02862027       0.00360168      -0.00341054       0.00427856
H       -2.65918843      -3.27226921      -2.36113312       0.04435498      -0.00415677       0.00353805      -0.00225822
H       -3.12603530      -2.64322745       1.84817852       0.04472009       0.00059150      -0.00348480      -0.00145746
H       -3.81420267      -3.80062203      -0.23143091       0.04462722      -0.00103791      -0.00085270       0.00234269
C        1.43973311      -1.47973930       1.33513072       0.06643895       0.00389613      -0.00409809      -0.00078190
N        1.43088107      -2.22663372       2.23208063      -0.21244103      -0.00262874       0.00326987      -0.00319353
N        2.59242839      -0.04446140      -0.14454011       0.02662011       0.00213561      -0.00028033       0.00612620
C        2.78015440       1.02278789      -0.98828202       0.00532398       0.00097615       0.00230467      -0.00310073
C        4.69381579       0.19492092      -0.25742821       0.00082452       0.00148840       0.00495804       0.00467322
C        4.13325686       1.19724093      -1.08451045      -0.07141344      -0.00065556      -0.00141237      -0.00320478
H        1.95734377       1.57261301      -1.40287414       0.05782633       0.00416765       0.00091735       0.00838367
H        5.73017509      -0.01030839      -0.05559215       0.05386372      -0.00525994       0.00287370      -0.00551225
H        4.64667966       1.94300279      -1.66322312       0.05515930       0.00164185      -0.00434539       0.00335676
N        3.76379150      -0.55113948       0.31685506      -0.14170602      -0.00200142      -0.00504691      -0.00049042
H       -2.27939524       2.73538179      -0.25352591       0.04823125       0.00540101      -0.00390087      -0.00594373
