18
Properties=species:S:1:pos:R:3:charge:R:1:forces:R:3 9_adduct=T (SP=-745.465985620872,U=-745.30567418,H=-745.30472997,G=-745.35009412) energy=-20272.23169613226 pbc="F F F"
C        3.16791192      -2.02146359       0.00125842      -0.06574742       0.00158064       0.00406433       0.00064280
S        2.55431166      -0.31039167       0.00107060      -0.09313519       0.00345050       0.00462870      -0.00126405
C        0.75863537      -0.64921931      -0.00479593      -0.02919260       0.00319717      -0.00159429       0.00061076
C       -0.00411764       0.65751309      -0.00745628      -0.03958118       0.00031336      -0.00505967       0.00165855
C       -1.49466617       0.42966501      -0.00505853       0.21052824      -0.00141424       0.00024174      -0.00419125
H        4.25337730      -1.97217075       0.00553294       0.04305383      -0.00504976      -0.00612927      -0.00240808
H        2.83848301      -2.55894579       0.88819948       0.03935609       0.00487443       0.00242492      -0.00071076
H        2.84442054      -2.55630342      -0.88946466       0.03937868       0.00855656       0.00075651       0.00154044
H        0.49751487      -1.23480457       0.87298124       0.03621817      -0.00340154       0.00017941       0.00236419
H        0.50253363      -1.23528469      -0.88378534       0.03618900      -0.00071296      -0.00073220      -0.00243659
H        0.25676358       1.26585150       0.85929618       0.04290735       0.00018112      -0.00290618       0.00523428
H        0.25564908       1.26209020      -0.87728736       0.04297312      -0.00305703      -0.00539736      -0.00250343
O       -2.15560238       1.60458253      -0.00635985      -0.12720197       0.00331163       0.00500497      -0.00047195
O       -2.04064344      -0.65053556      -0.00230775      -0.27643380      -0.00361912      -0.00085271       0.00083288
C       -3.58869643       1.51070980      -0.00173783       0.02014857      -0.00173134       0.00248876      -0.00264023
H       -3.94669741       2.53408010      -0.00277473       0.04391636       0.00348535       0.00269848       0.00325625
H       -3.94122856       0.98559844      -0.88588855       0.03830518      -0.00226293      -0.00166756      -0.00106695
H       -3.93489162       0.98831068       0.88646918       0.03831756      -0.00770175       0.00185174       0.00155298
