17
Properties=species:S:1:pos:R:3:charge:R:1:forces:R:3 9_TS=T (SP=-744.93143536198,U=-744.78799104,H=-744.78704683,G=-744.8339787) energy=-20254.220305767256 pbc="F F F"
C        3.09374930      -1.79378083       0.42030935      -0.05885354       0.00480133      -0.00405594       0.00446370
S        1.95886667      -0.36594159       0.49646403      -0.04998928      -0.00071114       0.00168367      -0.00078374
C        0.62830404      -0.88828581      -0.76690215      -0.01535935      -0.00044216      -0.00000306      -0.00081684
C       -0.25432712       0.24522900      -0.88834560      -0.01920545      -0.00045092      -0.00026154       0.00079274
C       -1.49931977       0.28046020      -0.17494401       0.17013022      -0.00090938      -0.00288413       0.00183515
H        3.90297221      -1.60084727       1.12268379       0.04689485      -0.00350805      -0.00025607      -0.00391796
H        2.59003209      -2.71303721       0.71418141       0.04224429       0.00186146       0.00262484      -0.00177752
H        3.51594309      -1.91097021      -0.57649520       0.04237304      -0.00206818       0.00011135       0.00394658
H        0.11625360      -1.76038330      -0.37243410       0.04590252      -0.00248912      -0.00111741       0.00102314
H        1.16527025      -1.11986967      -1.68118926       0.04760049       0.00152233       0.00200578      -0.00157444
H        0.06652373       1.10667830      -1.45354471       0.04194883       0.00043294       0.00098435      -0.00238114
O       -2.13402947       1.47129087      -0.35306715      -0.13806704      -0.00067625      -0.00244042      -0.00017137
O       -1.94708125      -0.63127566       0.50582036      -0.29686972       0.00088853       0.00118478      -0.00216369
C       -3.38526253       1.61184484       0.32593650       0.01936860       0.00411468       0.00072215      -0.00152086
H       -3.74155822       2.60748167       0.08203095       0.04472865      -0.00285210       0.00353360      -0.00027144
H       -4.10100756       0.86244410      -0.01178812       0.03856160      -0.00040274      -0.00139665      -0.00128994
H       -3.25851206       1.51080498       1.40356554       0.03859128       0.00088827      -0.00043512       0.00460756
