6
Properties=species:S:1:pos:R:3:charge:R:1:forces:R:3 MeSH=T (SP=-438.760535465403,U=-438.7100893,H=-438.70914509,G=-438.73756155) energy=-11935.50185056225 pbc="F F F"
S        0.27097687       1.82386348      -0.13469151      -0.11603481       0.00406855       0.00278607      -0.00000812
C       -1.33770698       2.40776338      -0.78040254      -0.05919014       0.00700794      -0.00230349       0.00021444
H       -1.21060206       2.95021151      -1.71257551       0.03960833      -0.00304480      -0.00075811      -0.00080710
H       -1.94019304       1.52422522      -0.96595288       0.04112487      -0.00424846       0.00404635       0.00069604
H       -1.84548614       3.03607754      -0.05471718       0.03959246      -0.00166290      -0.00131098      -0.00156300
H        0.81525328       3.05111374      -0.01238359       0.05489929      -0.00212033      -0.00245985       0.00146773
