30
27_adduct (SP=-899.034076371654,U=-898.75309326,H=-898.75214905,G=-898.80927125)
N   -3.53427931295501  	0.22591654197838  	0.32799141014625
C   -2.40055340292731  	0.86193765423520  	0.64923746049021
C   -1.63916682940716  	0.33269987131732  	1.84532921991893
H   -1.72975100101624  	1.08633185243127  	2.63284389856622
C   -0.15746657344569  	0.12272412615823  	1.54012157889045
O   -2.00638689206697  	1.85884233316910  	0.01780921109271
S   -0.00232103779536 	-1.18686425194742  	0.27478142338397
C   1.62623256565091 	-0.78705598460278 	-0.40519206327374
H   -2.09055132631020 	-0.59200766425611  	2.21814855963415
H   0.24563466658221  	1.02903562084494  	1.08371764611464
C   0.64728849612745 	-0.25776111527502  	2.78382633244131
H   1.63534229538732  	0.23185161796727 	-0.79871915104233
H   2.41211570974511 	-0.90440567733665  	0.34274952798939
H   1.81371595121574 	-1.48417093290529 	-1.22480342149208
C   -4.37383742058233  	0.65627286540413 	-0.78049378364495
H   -3.80051271792373 	-0.58807587380306  	0.86114151188389
H   1.69772063178523 	-0.41362839874215  	2.48388206878534
H   0.27213537860425 	-1.21302602712077  	3.16370691613632
N   0.57736929210046  	0.72078511556292  	3.87566463884701
C   1.09908784907301  	2.01672262612580  	3.44224354077930
C   1.38697985572250  	0.22419132137877  	4.98821529103261
H   1.00692343438531 	-0.74563636045717  	5.32155595832334
H   1.33287034302659  	0.92241856558751  	5.82770359746081
H   2.44743805941502  	0.10186542088437  	4.70765994079061
H   0.44324912743802  	2.47129624816479  	2.69618329418958
H   2.11235162196664  	1.93242812714023  	3.01223471982795
H   1.14572638044262  	2.69272836895978  	4.29999910766323
H   -3.82905610961229  	0.59982413718174 	-1.72669148375028
H   -5.24072845304086 	-0.00200452292042 	-0.83059233035895
H   -4.71557058158522  	1.68376439487509 	-0.63225462082591