29
29_adduct_anti (SP=-956.83571103077,U=-956.57709941,H=-956.5761552,G=-956.63268513)
N   -3.01170625190715  	0.22298599167539  	0.19577432482091
C   -1.92816511581046  	0.95936762700399  	0.54547743501281
C   -1.03053730960201  	0.31977698679758  	1.59868103385923
C   0.40558302183645  	0.24811774775537  	1.08153542857647
O   -1.67565965969034  	2.07472166353255  	0.08369857118362
S   0.51873241852751 	-0.85125502517571 	-0.36128609519685
C   2.22040863396505 	-0.48866982298463 	-0.85299349835321
H   -3.06953843959621 	-0.69756776543066  	0.61026832776822
H   0.74610063946474  	1.24536052200005  	0.79009383119225
H   1.05919986716637 	-0.12743476371771  	1.87258502786264
H   2.32743489432967  	0.56507694199104 	-1.12024832501786
H   2.91667081947382 	-0.73932847526476 	-0.04956139008431
H   2.45162044208972 	-1.10226507614435 	-1.72618403474551
C   -4.02881960693133  	0.51588157806313 	-0.74550750885797
C   -4.87356299118461 	-0.54253040651747 	-1.09945828304752
C   -5.91097676846965 	-0.34102234525803 	-2.00024719455390
C   -6.11874165887924  	0.91839567294617 	-2.56325407444100
C   -5.27790077799568  	1.96798150175873 	-2.20701018813635
C   -4.23482673712481  	1.78112018128629 	-1.29968082195802
H   -4.70999533969881 	-1.52357653000062 	-0.66105517403274
H   -6.55782244854384 	-1.17233965378033 	-2.26389592645227
H   -3.59772337907281  	2.60992607140328 	-1.02821816005860
H   -5.43098947924264  	2.95518248137428 	-2.63317561128056
H   -6.92781113909232  	1.07734804022578 	-3.26921493593246
H   -1.38818341959816 	-0.69266723075174  	1.81425633374415
C   -1.09451056101915  	1.15540064653505  	2.88253666571882
H   -0.47666150117632  	0.69475701659933  	3.65820502062155
H   -0.72321736149241  	2.16814847655631  	2.70018813108199
H   -2.12140079072534  	1.22310794752168  	3.25369109070648