30
7_adduct_anti (SP=-1066.119220897813,U=-1065.86473789,H=-1065.86379368,G=-1065.92288341)
C   -1.26303546071385      2.21152706539160     -0.39021303425007
H   -2.22030966195149      1.74481929614465     -0.15147076247127
H   -1.06172666259370      2.12930223941563     -1.46063528611495
S   0.07853493258791      1.46310718931249      0.56281862125611
C   1.16209160218998     -1.03917465032911      0.41829170916348
H   1.04078094579650     -1.12009156145596      1.50107951811168
C   0.01991843570153     -0.19760483733244     -0.18910998266143
H   0.21571794811574     -0.08284053477324     -1.25870162985762
C   -1.31321591157784     -0.89076006457366     -0.00763250291937
C   -2.03849098525187     -1.28932302558265     -1.12991954179355
C   -1.81878122890172     -1.15810229077625      1.26677993104237
C   -3.25263090394063     -1.95980707198903     -0.98289620964556
H   -1.64812858648278     -1.07851990940948     -2.12182647147534
C   -3.02775897578046     -1.83005185413594      1.41463767348309
H   -1.26552417841959     -0.83969561945150      2.14597111305026
C   -3.74761434534825     -2.23338041540059      0.28924155716710
H   -3.80953959954025     -2.26686437431982     -1.86308942090202
H   -3.41106579507153     -2.03785363016877      2.40922387843123
H   -4.69195311568462     -2.75662913400340      0.40645740744691
C   1.10947837902775     -2.40749937580932     -0.13309526290928
N   1.07603949237339     -3.47000505635929     -0.57733357261598
N   2.47380711085476     -0.46181668272255      0.18693408926435
C   3.03943689415091     -0.16596671508740     -1.01054347071098
C   4.31291154209044      0.47327904928997      0.67583302904791
C   4.24405000686382      0.44182893013178     -0.73547001634459
H   2.54770372126069     -0.41372939362214     -1.94124418212906
H   5.09902149414674      0.86933803650476      1.30473142492749
H   4.97013159398834      0.80727893314461     -1.44658477855898
N   3.23727085349023     -0.07364623423768      1.23092872658062
H   -1.30060954138013      3.26751169220476     -0.11536255361254