32
Properties=species:S:1:pos:R:3:forces:R:3 charge=-1 spin=1 energy=-190.6197052001953 free_energy=-190.6197052001953 stress="0.0 0.0 0.0 0.0 0.0 0.0 0.0 0.0 0.0" pbc="F F F"
C       -1.12000920       3.69532562      -0.51396998       0.00239605      -0.00681016      -0.00359730
O       -2.03317889       2.87517071       0.23898177       0.00220660       0.00062421       0.00157839
C       -2.03566704       1.52802289       0.05187210       0.00048688      -0.00294104       0.00270231
C       -2.89805800       0.81032617       0.89516481      -0.00329964      -0.00341409      -0.00450499
C       -2.92351357      -0.57374197       0.81713185      -0.00100058       0.00527340       0.00036001
C       -2.09427526      -1.26099020      -0.08313530       0.00158328      -0.00219646      -0.00019804
C       -1.25036574      -0.54248050      -0.93346088      -0.00132266      -0.00439766      -0.00154680
C       -1.22830682       0.85550610      -0.88253126      -0.00048286       0.00406632       0.00262931
C       -0.26422933      -1.26246044      -1.83784136      -0.00269973      -0.00186601       0.00347129
N        1.01491683      -1.46437787      -1.16847732       0.00047445      -0.00292695       0.00036510
C        1.20703455      -2.56840560      -0.39003610      -0.00486627      -0.00173870       0.00118249
O        0.38941020      -3.49920713      -0.30955682       0.00375870       0.00118272      -0.00210531
C        2.51516048      -2.65139408       0.34533134       0.00335907       0.00044709       0.00107046
C        3.60379579      -1.96720202      -0.00907884       0.00173476       0.00047427       0.00176599
H       -0.07806601       3.34645983      -0.39456257      -0.00418743       0.00168612       0.00175429
H       -1.23865147       4.70618199      -0.10567220       0.00151019       0.00260034       0.00452010
H       -1.37707217       3.69787034      -1.58575478      -0.00133207       0.00332777      -0.00256228
H       -3.51404908       1.37570377       1.59498696       0.00024287       0.00146644       0.00117637
H       -3.58624301      -1.14324736       1.47349150       0.00140598       0.00043195      -0.00236818
H       -2.08169283      -2.35225593      -0.11138168      -0.00084334       0.00027397      -0.00215705
H       -0.55679559       1.41402204      -1.53164027      -0.00018343      -0.00114076      -0.00245386
H       -0.08942561      -0.65842031      -2.73730235       0.00035738       0.00028885      -0.00355864
H       -0.65972706      -2.24809642      -2.11643099       0.00253303       0.00332795       0.00189479
H        1.55578244      -0.59327040      -0.97146089      -0.00181575       0.00026229      -0.00016207
H        2.50874825      -3.39890507       1.13997181      -0.00181838       0.00331429      -0.00138178
H        4.54651682      -2.09287546       0.52654652      -0.00036088      -0.00053485       0.00047545
H        3.62114813      -1.26378405      -0.84222802       0.00044456      -0.00200379      -0.00049344
S        2.06722599       1.44866253      -0.21494020       0.00006558       0.00197588       0.00030494
C        1.57919335       1.01165262       1.46249682      -0.00614931      -0.00380281      -0.00285405
H        0.92719975       0.12498647       1.46680213      -0.00067258       0.00111303       0.00014445
H        2.45558855       0.78865802       2.08630506       0.00738315       0.00116880       0.00351232
H        1.03002773       1.83619384       1.93829417       0.00109220       0.00046739       0.00103565
