19
Properties=species:S:1:pos:R:3:forces:R:3 charge=-1 spin=1 energy=-108.38318634033203 free_energy=-108.38318634033203 stress="0.0 0.0 0.0 0.0 0.0 0.0 0.0 0.0 0.0" pbc="F F F"
C       -2.59017558      -0.90169614      -0.48176386       0.00818864       0.00133274      -0.00210223
N       -1.42905370      -0.12486695      -0.09284199       0.00017056      -0.00017975       0.00401539
C       -0.19656909      -0.71357503       0.38768494       0.00140758      -0.00028890       0.00211508
C        0.71269433       0.50046506       0.62894050      -0.00374973      -0.00119999       0.00115775
C       -0.22035309       1.61792313       0.72902479       0.00343356      -0.00183415      -0.00128612
C       -1.52428545       1.23418448       0.23915348      -0.00705004       0.00201243      -0.00032756
O       -2.53719986       1.92851399       0.09788303       0.00151124       0.00176833      -0.00055988
H       -3.37251066      -0.19680884      -0.79316738      -0.00396323      -0.00052809      -0.00348037
H       -2.34755553      -1.58158101      -1.31029482       0.00222557      -0.00053628       0.00261049
H       -2.97633233      -1.50766658       0.35470683       0.00152869      -0.00208527      -0.00129151
H        0.21931503      -1.44159770      -0.32562356      -0.00158822      -0.00097948      -0.00238121
H       -0.34924963      -1.23966578       1.35257727      -0.00212055       0.00077505       0.00069766
H        1.42721843       0.37312922       1.45511654      -0.00312711       0.00311594       0.00198016
H        0.01402790       2.63178572       1.04421261       0.00262020      -0.00108226       0.00075514
S        1.74403849       0.91857436      -0.85059552      -0.00283200      -0.00020617      -0.00035204
C        3.13500587      -0.21991854      -0.64076406       0.00615756       0.00069453      -0.00150098
H        3.82277229      -0.03090792      -1.47478705      -0.00471266       0.00066387       0.00000606
H        3.66658683      -0.03354870       0.30110398       0.00336486      -0.00261099      -0.00060853
H        2.81581595      -1.26920141      -0.68106655      -0.00146495       0.00116828       0.00055243
