14
Properties=species:S:1:pos:R:3:forces:R:3 charge=0 spin=1 energy=-85.1781005859375 free_energy=-85.1781005859375 stress="0.0 0.0 0.0 0.0 0.0 0.0 0.0 0.0 0.0" pbc="F F F"
C       -1.93166451       0.07374837       0.05423184      -0.00270885       0.00193463       0.00524077
N       -0.48435465       0.07390361       0.02516381      -0.00064452      -0.00212154      -0.00362123
C        0.35240782      -1.10593890      -0.19684771      -0.00960132      -0.00117847      -0.00004661
C        1.73263234      -0.53954584      -0.13601580      -0.00301341      -0.00373946       0.00082810
C        1.70551500       0.78142863       0.08857166      -0.00047769      -0.00354145      -0.00657563
C        0.27602014       1.22329188       0.19811255       0.00192747       0.00340319       0.00473976
O       -0.16296773       2.35192955       0.39729449       0.00251379      -0.00476610      -0.00235417
H       -2.26448484       1.10506634       0.22791910       0.00080377       0.00329787       0.00029539
H       -2.31704646      -0.56961515       0.85953435       0.00548018      -0.00180914       0.00310000
H       -2.35053696      -0.28558120      -0.89783492       0.00356139       0.00153576      -0.00380433
H        0.13168341      -1.58106208      -1.16989534       0.00038259      -0.00049575       0.00475323
H        0.17554884      -1.87748456       0.57425785       0.00044895      -0.00183901      -0.00271790
H        2.61760864      -1.16452738      -0.26646265       0.00529696       0.00819269       0.00187184
H        2.53228904       1.48063293       0.18471803      -0.00396931       0.00112674      -0.00170888
