25
Properties=species:S:1:pos:R:3:forces:R:3 charge=0 spin=1 energy=-151.9826202392578 free_energy=-151.9826202392578 stress="0.0 0.0 0.0 0.0 0.0 0.0 0.0 0.0 0.0" pbc="F F F"
C        3.61360733       0.18755521      -1.17213191      -0.00287205       0.00238173      -0.00005040
N        2.38094589      -0.33159446      -1.26756221      -0.00088045       0.00211072      -0.00398737
C        1.52818513      -0.09644812      -0.26932309      -0.00329648      -0.00811917      -0.00061702
N        0.24809496      -0.65501854      -0.36139952       0.00374630       0.00389991       0.00581717
C       -0.46664194      -0.82403340      -1.53365947      -0.00492197       0.00450282       0.00304973
O       -0.10407996      -0.43924869      -2.63622557       0.00253382      -0.00466776       0.00096476
C       -1.83466399      -1.47789561      -1.30047410       0.00375713      -0.00066508      -0.00023162
C       -2.75365373      -0.60663046      -0.44119850      -0.00028598       0.00077298       0.00387414
S       -2.49074109      -0.88469039       1.34680282      -0.00524685       0.00003148       0.00452915
C       -3.05303635       0.69483616       2.01078579      -0.00520892      -0.00422785      -0.00589823
C        1.87238996       0.64665466       0.88158349       0.00279495       0.00418593      -0.00390813
C        3.16049317       1.16941861       0.96728936      -0.00085258       0.00314015       0.00189570
C        4.06017537       0.94504972      -0.08337144       0.00072612      -0.00347504       0.00070241
H        4.26491972      -0.02928345      -2.02398393       0.00747547      -0.00382063      -0.00124690
H       -0.27037709      -0.82608750       0.51372397      -0.00740942       0.00165642      -0.00325358
H       -1.69321831      -2.47200683      -0.84820965      -0.00009807       0.00275314      -0.00898163
H       -2.26698931      -1.61026412      -2.29973570       0.00049324      -0.00315827       0.00219479
H       -2.56910799       0.45830280      -0.64507861      -0.00022615       0.00461394      -0.00126379
H       -3.80543806      -0.81285319      -0.68181042       0.00431111       0.00203920       0.00525234
H       -4.09925384       0.89031144       1.74203513      -0.00275593      -0.00758807       0.00302621
H       -2.97829354       0.62788469       3.10265199       0.00180022      -0.00149114       0.00077355
H       -2.42385969       1.52351302       1.66274472      -0.00030746       0.00455751      -0.00053091
H        1.12917817       0.81121297       1.66477948      -0.00092231       0.00148074       0.00156066
H        3.45795780       1.75090551       1.84330743       0.00244676      -0.00007379      -0.00171137
H        5.08022546       1.34282942      -0.05716934       0.00519928      -0.00084014      -0.00195926
