22
Properties=species:S:1:pos:R:3:forces:R:3 charge=0 spin=1 energy=-121.29932403564453 free_energy=-121.29932403564453 stress="0.0 0.0 0.0 0.0 0.0 0.0 0.0 0.0 0.0" pbc="F F F"
N        1.86794182       0.63042769      -0.18903305       0.00096409       0.00124231       0.00191750
C        1.63620200      -0.36018158       0.71475319       0.00568646       0.00299664       0.00749022
O        2.24650432      -0.48233191       1.78193109      -0.00370674       0.00040121      -0.00674167
C        0.52598717      -1.34029278       0.31914186       0.00409640       0.00041843       0.00006145
C       -0.84052857      -0.68983390       0.05947210      -0.00051840      -0.00111604       0.00295524
S       -0.90519970      -0.13841667      -1.69591676      -0.00157911       0.00214715      -0.00075071
C       -2.19590776       1.11707801      -1.61989639      -0.00654837      -0.00429165       0.00141671
C       -1.99194732      -1.64118973       0.38922695      -0.00239931       0.00360146       0.00209856
C        2.86078667       1.66198196       0.04434435      -0.00204428      -0.00135298       0.00054315
H        1.26778387       0.67480846      -1.01806200       0.00010933       0.00029359      -0.00353585
H        0.45646255      -2.04194038       1.16019061      -0.00214998      -0.00032498      -0.00056767
H        0.86306045      -1.90931770      -0.56438899      -0.00023470      -0.00005235       0.00191660
H       -0.92802719       0.21795648       0.67657070      -0.00127525      -0.00299178      -0.00072221
H       -3.15970743       0.69047544      -1.31403445       0.00697616       0.00264532      -0.00184815
H       -1.92339087       1.93651687      -0.94300136       0.00099681      -0.00079136      -0.00017054
H       -2.30395357       1.52174398      -2.63321479      -0.00002401       0.00117284      -0.00140002
H       -2.96914474      -1.18011657       0.20353027       0.00130101      -0.00167005      -0.00029458
H       -1.92880789      -2.55181553      -0.22107860      -0.00082586       0.00103398       0.00032261
H       -1.95225475      -1.93416443       1.44833011       0.00059644      -0.00059284      -0.00195055
H        3.59207967       1.70252202      -0.77318527      -0.00058633      -0.00021518      -0.00424176
H        3.37869688       1.41590232       0.97933303       0.00276719       0.00091328       0.00208300
H        2.39770709       2.65330952       0.14312389      -0.00160152      -0.00346681       0.00141860
