24
Properties=species:S:1:pos:R:3:forces:R:3 charge=-1 spin=1 energy=-132.75894165039062 free_energy=-132.75894165039062 stress="0.0 0.0 0.0 0.0 0.0 0.0 0.0 0.0 0.0" pbc="F F F"
C       -3.20132862      -1.29201388      -1.03264108      -0.00137149       0.00337978       0.00551865
C       -1.83537561      -1.64027380      -0.44209520       0.00589868      -0.00159274      -0.00484303
C       -0.96470710      -0.41198232      -0.15998679       0.00386395       0.00213888      -0.00327127
C        0.39241698      -0.68770079       0.31855401      -0.00027567      -0.00462312       0.00666511
C        1.49941449       0.13501220      -0.12027065       0.00199271      -0.00009876      -0.00279599
O        1.34413100       1.10685852      -0.89339965       0.00065137      -0.00023945      -0.00113351
N        2.73650736      -0.20347210       0.37775824      -0.00042047       0.00043136       0.00099382
C        3.91037986       0.59989959       0.09242342       0.00177380      -0.00176561      -0.00111978
H       -3.78878306      -2.19494615      -1.23767182      -0.00025882      -0.00118068       0.00230140
H       -3.08975743      -0.74213467      -1.97716118       0.00215171       0.00046261       0.00001115
H       -3.77488598      -0.65527567      -0.34574591       0.00214276      -0.00083040       0.00083439
H       -1.27067345      -2.27635322      -1.14204223      -0.00041716      -0.00133634      -0.00146988
H       -1.94665404      -2.23500297       0.47877506      -0.00332203       0.00117983       0.00083837
H       -0.93811824       0.27609270      -1.02077978       0.00447359       0.00270303       0.00434101
H        0.58328085      -1.52141523       0.99836038      -0.00182248       0.00129844      -0.00875378
H        2.81336959      -0.94512514       1.06190637      -0.00517929      -0.00272004       0.00608953
H        4.81886109       0.01256732       0.27054038      -0.00220340      -0.00014080      -0.00099325
H        3.95534115       1.50935625       0.71118607      -0.00537825       0.00155559      -0.00294442
H        3.87299150       0.91685663      -0.95766611      -0.00304727      -0.00102856       0.00046137
S       -1.64363104       0.51940326       1.28545083       0.00740063       0.00095874       0.00039073
C       -0.96219407       2.16591084       1.04014734      -0.00073309       0.00102085      -0.00298840
H       -1.47567421       2.80743643       1.76780111      -0.00399036      -0.00143903       0.00385823
H        0.11797696       2.19239806       1.22203971       0.00182173      -0.00086492      -0.00405989
H       -1.16571605       2.53067605       0.02676274      -0.00375072       0.00273153       0.00206964
