25
Properties=species:S:1:pos:R:3:forces:R:3 charge=0 spin=1 energy=-137.8291015625 free_energy=-137.8291015625 stress="0.0 0.0 0.0 0.0 0.0 0.0 0.0 0.0 0.0" pbc="F F F"
N        2.83138918       0.21224709       0.09206601      -0.00282852      -0.00530484      -0.00576703
C        1.64399652      -0.46427555       0.12047047       0.00146563      -0.00289774       0.00348018
O        1.54747799      -1.66092596      -0.17509756      -0.00103997       0.00279427      -0.00227224
C        0.44941636       0.37862903       0.56261569      -0.00063834      -0.00288928      -0.00167963
C       -0.87351664      -0.35678487       0.37761869       0.00087521       0.00319304      -0.00222267
S       -2.18426943       0.31508864       1.45758371       0.00148985      -0.00475781      -0.00061686
C       -2.41093788       1.98624587       0.82332069      -0.00156237       0.00126047      -0.00041862
C       -1.26762392      -0.47206167      -1.09852347      -0.00110929      -0.00352174      -0.00175150
C       -2.47836667      -1.37158682      -1.34879952      -0.00323230       0.00052591      -0.00149415
C        4.06808385      -0.42771521      -0.30184919       0.00321534      -0.00006077       0.00373228
H        2.85014658       1.19278983       0.34150134      -0.00399859       0.00242544      -0.00048995
H        0.46995650       1.32657015      -0.00032399      -0.00327006       0.00025383      -0.00308283
H        0.59750420       0.63446961       1.62492752       0.00542254       0.00135835      -0.00114575
H       -0.74060941      -1.37586852       0.78215574      -0.00284283       0.00116059       0.00101912
H       -1.50822113       2.60353151       0.92076863      -0.00216660       0.00166393       0.00365559
H       -3.19713761       2.43576215       1.44252745       0.00449009       0.00370848      -0.00225548
H       -2.74969276       1.99662981      -0.22040745       0.00202496      -0.00147729      -0.00046416
H       -1.44775266       0.53173877      -1.51539993      -0.00414728       0.00483893       0.00219478
H       -0.38764966      -0.86493321      -1.63195946      -0.00374250       0.00126068       0.00603761
H       -3.36603680      -0.98869638      -0.82519024       0.00527571      -0.00334038      -0.00100208
H       -2.70733382      -1.44265232      -2.41946168      -0.00220519       0.00020443       0.00398467
H       -2.29444839      -2.38876786      -0.97554538       0.00533071      -0.00074704      -0.00287775
H        4.83198880      -0.32105836       0.47765250      -0.00121118       0.00057846       0.00242479
H        4.45895950      -0.00466168      -1.23542182       0.00006190       0.00393189      -0.00058042
H        3.85149255      -1.49129515      -0.45570644       0.00434298      -0.00416157       0.00159211
