28
Properties=species:S:1:pos:R:3:forces:R:3 charge=-1 spin=1 energy=-167.91287231445312 free_energy=-167.91287231445312 stress="0.0 0.0 0.0 0.0 0.0 0.0 0.0 0.0 0.0" pbc="F F F"
C       -0.20056332      -1.54037537       1.04912202      -0.00671352      -0.00078860       0.00077274
N       -0.43266326      -0.20586329       0.50761614       0.00625776      -0.00482396       0.00097179
C       -1.76387529       0.24288733       0.32572110      -0.00085313      -0.00254361      -0.00098303
C       -2.11985237       1.57771069       0.58475245      -0.00342090      -0.00113839      -0.00079344
C       -3.44034023       1.99284292       0.42165840      -0.00018492       0.00233582      -0.00179718
C       -4.42601482       1.09321065       0.00264343       0.00524643       0.00431987      -0.00085843
C       -4.07576099      -0.23185706      -0.26319140      -0.00550187      -0.00796011      -0.00175190
C       -2.75676996      -0.65445591      -0.10723834      -0.00020871       0.00293186       0.00398394
C        0.63815762       0.59854129       0.06306229      -0.00262485      -0.00338495       0.00019780
O        0.41224475       1.70373981      -0.48300037       0.00035493       0.00190226      -0.00173428
C        1.96756672       0.09764011       0.22670605      -0.00289428      -0.00087896       0.00056028
C        3.06946252       0.88751866      -0.34374871       0.00549051      -0.00455624       0.00303829
H       -1.14159202      -1.94730605       1.43570509       0.00760105      -0.00042661      -0.00094931
H        0.20052427      -2.23221178       0.29147700      -0.00101954      -0.00214174       0.00736675
H        0.51427604      -1.49764860       1.88319853      -0.00307119      -0.00097839      -0.00347157
H       -1.33689663       2.26836120       0.89916246       0.00599471       0.00273371       0.00079885
H       -3.69972409       3.03476338       0.62215127       0.00257291      -0.00146657      -0.00103600
H       -5.46041509       1.42595904      -0.12405242      -0.00332397       0.00050662      -0.00121064
H       -4.82941723      -0.94544584      -0.60423947       0.00212541       0.00430036       0.00039294
H       -2.47445974      -1.67806011      -0.36070839      -0.00050513      -0.00296643      -0.00137474
H        2.17237457      -0.84541075       0.73331323       0.00009361       0.00018820      -0.00129084
H        2.71846698       1.88581528      -0.63734445      -0.00339245       0.00713274      -0.00097231
H        3.98599247       0.93886953       0.25658108      -0.00175640       0.00107397       0.00354810
S        3.46609151       0.00739733      -1.91355444       0.00226364       0.00087157       0.00395454
C        4.57660010      -1.28711095      -1.34301172      -0.00340997       0.00365092      -0.00100356
H        5.49916081      -0.87882246      -0.90852966      -0.00280246      -0.00159604      -0.00085187
H        4.83992783      -1.86970998      -2.23476683       0.00075911       0.00078842      -0.00208324
H        4.09701002      -1.96280001      -0.62052699       0.00292301       0.00291415      -0.00342376
