21
Properties=species:S:1:pos:R:3:forces:R:3 charge=-1 spin=1 energy=-116.94422912597656 free_energy=-116.94422912597656 stress="0.0 0.0 0.0 0.0 0.0 0.0 0.0 0.0 0.0" pbc="F F F"
C        2.84424650      -0.84495945       0.23090324      -0.00082606       0.00373597       0.00264762
N        1.58859774      -0.17437664      -0.05196689      -0.00194975      -0.00261724       0.00572346
C        0.40558939      -0.71003097       0.37069147       0.00375918      -0.00284553       0.00201768
O        0.31591415      -1.80094094       0.93297480      -0.00001229       0.00570495      -0.00434452
C       -0.79135364       0.24289308       0.05557802       0.00152408       0.00253379      -0.00345689
C       -0.75386784       1.36791342       0.99034938       0.00021183      -0.00167546       0.00153702
C       -0.47584312       2.72214614       0.49459120       0.00142178      -0.00308600       0.00361240
F       -0.38377582       3.63444467       1.49067561       0.00181775       0.00157541       0.00255083
F        0.74161995       2.76074584      -0.21391171       0.00375076       0.00004895       0.00289337
F       -1.40930596       3.16673321      -0.40839408      -0.00514723      -0.00095357      -0.00275780
H        3.61660574      -0.48408056      -0.45609981      -0.00274140      -0.00252505       0.00026755
H        3.17973816      -0.67295678       1.26457275      -0.00129957       0.00252614      -0.00133005
H        2.70392667      -1.92395580       0.10095087       0.00126998       0.00049013       0.00024110
H        1.60951047       0.79231285      -0.36300765      -0.00221277      -0.00267564      -0.00663559
H       -0.67172518       0.56895397      -0.99398131       0.00096034      -0.00079950      -0.00070134
H       -0.87937925       1.23601536       2.06567995      -0.00039910       0.00125519      -0.00211553
S       -2.44811910      -0.48568965       0.29341918      -0.00091624       0.00158519       0.00154078
C       -2.29841303      -2.12139598      -0.47607920      -0.00144294      -0.00035253      -0.00252190
H       -3.30740199      -2.55440416      -0.43150367      -0.00314714       0.00149357       0.00167013
H       -1.58476513      -2.73765730       0.08018720       0.00450461      -0.00153435       0.00096556
H       -1.99549257      -2.03671492      -1.52800056       0.00087447      -0.00188437      -0.00180399
