29
Properties=species:S:1:pos:R:3:charge:R:1:forces:R:3 energy=-26036.969900421427 pbc="F F F"
C       -3.91649167       1.00202727      -1.29073710      -0.04307488      -0.00246127       0.00011615       0.00126315
C       -3.36769674       2.00423929      -0.50534105      -0.03917661       0.00054551       0.00098765      -0.00518203
C       -2.40300013       1.69500095       0.44422915      -0.04222073      -0.00360346       0.00124110      -0.00248828
C       -1.97590476       0.38521722       0.61851581      -0.00977701      -0.00558298      -0.00000367      -0.00275696
C       -0.91232195       0.03595736       1.63237459       0.01760375      -0.00235046       0.00058400       0.00206051
N        0.37639635      -0.24315085       1.02505611      -0.11331151       0.00015974      -0.00091229      -0.00552654
C        0.81541854      -1.51153679       0.82748942       0.18382202       0.00102582       0.00092649       0.00447624
O        0.22988425      -2.48850683       1.26350138      -0.34640861       0.00356971      -0.00146039       0.00383711
C        2.09653049      -1.64806466       0.01637860      -0.03380148      -0.00056947       0.00227120      -0.00081380
C        3.27952474      -0.85831737       0.57659936      -0.02236341       0.00041275      -0.00607899      -0.00103015
S        3.29895855       0.91398391       0.18528175      -0.09398319      -0.00269287      -0.00354096      -0.00473361
C        3.54916491       0.83014969      -1.59832048      -0.05498907      -0.00087474      -0.00260250       0.00464999
C       -2.53456987      -0.61540840      -0.16976023      -0.04295442      -0.00751140      -0.00218493       0.00143602
C       -3.49747787      -0.30942906      -1.11842930      -0.03998994      -0.00172008       0.00040543      -0.00163167
H       -4.66599635       1.23875191      -2.03116869       0.04474787       0.00171572      -0.00110394       0.00103240
H       -3.68947872       3.02851277      -0.63175767       0.04613962       0.00083127       0.00052018       0.00122040
H       -1.97799055       2.48022464       1.05560495       0.04421222       0.00199260      -0.00368091       0.00124713
H       -0.80295808       0.85704827       2.33972880       0.04285450       0.00456590       0.00375505       0.00061748
H       -1.19809178      -0.85530616       2.18399518       0.03185791       0.00076849      -0.00253641       0.00561569
H        0.86925759       0.51695885       0.58261303       0.09382278      -0.00004221       0.00586006      -0.00355625
H        2.33625574      -2.70698376       0.00105746       0.04567736       0.00228450       0.00924974       0.00203761
H        1.89191745      -1.33764349      -1.00809197       0.03838666       0.00226483      -0.00190865      -0.00218592
H        4.21581973      -1.27304471       0.20922554       0.04327020       0.00270219      -0.00015621      -0.00071321
H        3.29651572      -0.93561254       1.66098675       0.03761784       0.00383087      -0.00308512      -0.00134927
H        3.65983002       1.84978013      -1.95518056       0.04389606      -0.00124774      -0.00107872       0.00720005
H        2.69744669       0.38019428      -2.09946335       0.04256455       0.00074247       0.00375252      -0.00044087
H        4.45140251       0.27369946      -1.83778123       0.04256701      -0.00280300      -0.00193366      -0.00067017
H       -2.21086032      -1.63621038      -0.02764633       0.03645089       0.00473347      -0.00107558      -0.00220705
H       -3.92005099      -1.09935824      -1.72275315       0.04655950      -0.00068583       0.00367307      -0.00140841
