29
Properties=species:S:1:pos:R:3:charge:R:1:forces:R:3 energy=-26036.526642387184 pbc="F F F"
C       -4.59393058      -0.24829622      -0.50937367      -0.04344205      -0.00188704      -0.00180494       0.00272494
C       -4.02328255       0.96164698      -0.87612609      -0.03956606      -0.00055157      -0.00340578       0.00325960
C       -2.66980035       1.18448325      -0.67019302      -0.05114982      -0.00306236       0.00072483      -0.00342175
C       -1.87623812       0.19344676      -0.10693832       0.03792252      -0.00840011       0.00118221       0.00065387
N       -0.49186277       0.44593690       0.14613793      -0.07485023      -0.00667535       0.00055303       0.00031346
C        0.44529755      -0.37590000      -0.43482196       0.20207441       0.00167936       0.00070015       0.00211367
O        0.13403402      -1.34424090      -1.09902899      -0.32022130      -0.00626049       0.00311892      -0.00016637
C        1.89934667       0.00165751      -0.18651158      -0.03715792       0.00518500      -0.00146589       0.00067864
C        2.85726345      -0.94530127      -0.89158298      -0.03470382       0.00186414      -0.00284901       0.00134112
S        4.59565472      -0.52532521      -0.63358143      -0.12548256      -0.00058892       0.00070367      -0.00174730
C        4.77035321      -1.08399276       1.06989974      -0.05974054       0.00114349      -0.00054978      -0.00107959
C       -0.13170301       1.70112067       0.78990480      -0.00045015       0.00189921      -0.00644867      -0.00201399
C       -2.44057683      -1.02869950       0.23599014      -0.04910602      -0.00001815       0.00525025      -0.00023635
C       -3.79723707      -1.23983734       0.04916906      -0.04196104       0.00340295      -0.00254163       0.00112015
H       -5.64917819      -0.41849395      -0.65901473       0.04542118      -0.00159721      -0.00051184      -0.00418542
H       -4.63209530       1.73588133      -1.32190356       0.04662045       0.00322030      -0.00598093       0.00217587
H       -2.22489372       2.12946940      -0.94803576       0.04316663       0.00452962       0.00345044      -0.00344049
H        2.08554935      -0.00605964       0.88824411       0.04247776       0.00031095      -0.00099715       0.00236584
H        2.07503423       1.02343052      -0.52559910       0.04292475      -0.00624079       0.00230097       0.00215465
H        2.67653042      -0.92329396      -1.96336146       0.03885445       0.00416797       0.00125071       0.00250503
H        2.68514573      -1.96536365      -0.56016205       0.03884856      -0.00265524      -0.00089827      -0.00368478
H        4.16868350      -0.49002115       1.75191017       0.04221765       0.00415556       0.00148559       0.00215148
H        5.81584896      -0.97436215       1.34320950       0.04270303       0.00269258       0.00061932      -0.00079490
H        4.49208643      -2.13082282       1.16246826       0.04259211       0.00305237      -0.00223609      -0.00091901
H        0.70039508       1.55578774       1.47241221       0.04458050       0.00354018      -0.00213505       0.00588776
H        0.14339899       2.47659261       0.07440168       0.04786073      -0.00036448      -0.00036669      -0.00481107
H       -0.97947338       2.04867580       1.37185792       0.03785037      -0.00246907       0.00169950      -0.00082102
H       -1.81004235      -1.80541093       0.63896711       0.03566851       0.00058848       0.00225884       0.00144767
H       -4.23287082      -2.18698652       0.33499902       0.04604797      -0.00066126       0.00689322      -0.00357205
