25
Properties=species:S:1:pos:R:3:charge:R:1:forces:R:3 energy=-24950.47672205423 pbc="F F F"
C        2.69889455      -1.19243044       0.67173620      -0.05376967       0.00022900       0.00314276       0.00350354
C        2.07241550      -1.57883314      -0.57673045      -0.25035179       0.00129308      -0.00499753       0.00299235
C        0.72789894      -1.33860691      -0.85116277       0.09243172       0.00286070       0.00583778      -0.00636510
O        0.09454816      -1.69971487      -1.86112816      -0.41612762      -0.00278333       0.00340906       0.00070134
N        0.07245577      -0.57277200       0.18100384      -0.14880696       0.00100261       0.00041450       0.00164090
C       -1.22533387      -0.09934796       0.18056868       0.06822574      -0.00128124       0.00234309      -0.00456135
C       -1.58927544       0.88611103       1.11262128      -0.07094362       0.00170898      -0.00403104       0.00239138
C       -2.88353435       1.37383527       1.18009450      -0.05737740       0.00155996       0.00008032       0.00022087
C       -3.86230914       0.89006026       0.32322536      -0.07839502      -0.00142756       0.00093814       0.00271367
C       -3.50909105      -0.08729864      -0.59933335      -0.05708842      -0.00489948       0.00176830       0.00233205
C       -2.21679378      -0.57922031      -0.68516049      -0.06897883      -0.00293078       0.00096321      -0.00275975
H        2.07659964      -1.42589740       1.53950939       0.01053672      -0.00431029      -0.00074816       0.00161267
H        3.67367010      -1.64708345       0.82806469       0.00431046       0.00085149       0.00217311       0.00073506
H        2.67052395      -1.94244208      -1.39647657       0.00741724      -0.00246713      -0.00779590      -0.00125667
H        0.71316264      -0.02982039       0.74290401       0.09024742      -0.00104340       0.00074165       0.00184460
H       -0.83596170       1.26632514       1.79057251       0.02811974       0.00594471       0.00040394      -0.00355498
H       -3.12281604       2.13837326       1.90987848       0.01779707       0.00013491      -0.00357231       0.00188238
H       -4.87438613       1.26621407       0.37118809       0.01788444      -0.00393996      -0.00360893      -0.00012564
H       -4.25568925      -0.48080126      -1.27862739       0.01646763       0.00150184      -0.00341878       0.00000931
H       -1.92998119      -1.32148661      -1.41047081       0.01415521       0.00188463       0.00278047      -0.00213226
S        3.09519166       0.66555465       0.95589713      -0.14186746      -0.00176093       0.00639776      -0.00576952
C        3.10860819       1.28126551      -0.74383591      -0.08170756       0.00121981       0.00090406       0.00018210
H        2.58857123       2.23664060      -0.78214553       0.01648962       0.00355633       0.00064318      -0.00145902
H        2.58024059       0.55319931      -1.35276182       0.02864324       0.00220486      -0.00015202       0.00225911
H        4.11920838       1.42059369      -1.12676126       0.01267933       0.00089219      -0.00461633       0.00296282
