20
Properties=species:S:1:pos:R:3:charge:R:1:forces:R:3 energy=-13025.436025216519 pbc="F F F"
C        3.78823955       0.12876479      -0.29651907      -0.05879037      -0.00430812      -0.00044632      -0.00304793
C        3.08751476      -0.96497949      -0.03593287      -0.04333221      -0.00197397      -0.00428300       0.00672931
C        1.60827376      -1.12195447       0.10752022       0.17250916      -0.00190863       0.00314547       0.00213109
O        1.15300583      -2.22130174       0.35594290      -0.31782269       0.00010284       0.00036908      -0.00382909
N        0.85329510       0.00451099      -0.05337129      -0.09298215      -0.00162115       0.00331987       0.00427864
C       -0.55119436       0.12335361       0.03164618       0.04893629      -0.00068109       0.00137236       0.00237940
C       -1.09141229       1.39421412      -0.16641531      -0.04616424       0.00120776       0.00065755      -0.00042930
C       -2.45888429       1.59806826      -0.10171806      -0.03545215       0.00241308      -0.00215176       0.00301164
C       -3.30812846       0.53337358       0.16334037      -0.03981636       0.00070341       0.00050173      -0.00004562
C       -2.76828838      -0.72845271       0.35949197      -0.03801957       0.00050077       0.00388865       0.00492818
C       -1.40014093      -0.94718283       0.29790135      -0.05054501      -0.00248437       0.00112159      -0.00424535
H        3.36431407       1.11142740      -0.45210428       0.04416513       0.00127546       0.00293695      -0.00039318
H        4.86462277       0.07952792      -0.36797874       0.05181187      -0.00486059      -0.00030446       0.00038466
H        3.59854645      -1.90620035       0.10483702       0.04370028       0.00186582      -0.00457484      -0.00071910
H        1.33857627       0.85718376      -0.24827335       0.14069882       0.00186703       0.00162980      -0.00438222
H       -0.42750577       2.22480158      -0.37181057       0.04889748      -0.00051206       0.00013540      -0.00222718
H       -2.85824815       2.59131977      -0.25840221       0.04794823       0.00381064      -0.00489176       0.00067160
H       -4.37533643       0.68616005       0.21707369       0.04712896      -0.00121408      -0.00328797      -0.00254502
H       -3.41851613      -1.56691879       0.56678000       0.04634312       0.00435291      -0.00148254      -0.00098354
H       -0.98763489      -1.92886079       0.45258251       0.03078537       0.00146520       0.00234384      -0.00166710
