24
Properties=species:S:1:pos:R:3:charge:R:1:forces:R:3 energy=-25387.567370287947 pbc="F F F"
C        2.57771081      -1.46812667       0.39956193      -0.04881785      -0.00133509       0.00271770       0.00017185
C        2.15232715      -0.48885581       1.39843675      -0.24180377      -0.00039123       0.00139028       0.00345254
C        0.86605425       0.01157393       1.51956849       0.09299951       0.00254375       0.00453517      -0.00017471
O        0.43251170       0.76907305       2.41271284      -0.40260312       0.00204041      -0.00109748      -0.00012608
N       -0.02134244      -0.41163136       0.46702042      -0.13488945       0.00298918      -0.00115833       0.00274478
C       -1.33971855      -0.12098968       0.28208699       0.11266626       0.00213362      -0.00240217       0.00111973
C       -2.10567454       0.59984188       1.21884304      -0.06665287      -0.00219459       0.00171036      -0.00405623
C       -3.43216372       0.82475917       0.93879800      -0.03024910      -0.00475467      -0.00205586       0.00248679
C       -3.99259898       0.34401264      -0.24571270      -0.08617553       0.00120550       0.00418296      -0.00276883
C       -3.15683629      -0.34783468      -1.09902442       0.00488418      -0.00114394      -0.00716962       0.00357259
N       -1.86755168      -0.58474500      -0.86452466      -0.24583244      -0.00001915       0.00198795      -0.00232082
H        3.46414395      -2.01513652       0.71163289       0.00792669       0.00096047      -0.00120562       0.00174907
H        1.80019225      -2.20727384       0.19756518       0.01740407      -0.00481895      -0.00245794      -0.00314043
H        2.87437440      -0.08864290       2.09086550       0.00886199      -0.00088447       0.00404075       0.00210364
H        0.40336020      -0.86252497      -0.32507592       0.08408052       0.00005150       0.00371085      -0.00526791
H       -1.61340843       0.94880857       2.11069822       0.02249180       0.00182112      -0.00074250      -0.00440843
H       -4.03388213       1.38007741       1.64627695       0.02309937      -0.00629672      -0.00422799       0.00622093
H       -5.03263682       0.50253684      -0.49258912       0.02853823       0.00513023       0.00174793       0.00110982
H       -3.53769096      -0.74382005      -2.03543029       0.01001152      -0.00140552       0.00204943      -0.00100027
S        3.10040015      -0.84663929      -1.30950351      -0.14699337      -0.00086226      -0.00390040      -0.00036576
C        3.10923107       0.92526052      -1.00675277      -0.08170533       0.00344155      -0.00110687      -0.00025882
H        2.10516163       1.27322908      -0.78519008       0.03544694       0.00312440       0.00074350       0.00089178
H        3.48814484       1.43477162      -1.89050345       0.01237792       0.00127294       0.00108530      -0.00181259
H        3.74706186       1.13904604      -0.15537151       0.02492487      -0.00260804      -0.00237759       0.00007719
