40
Properties=species:S:1:pos:R:3:charge:R:1:forces:R:3 energy=-34726.29090388955 pbc="F F F"
C        4.76442671      -1.76906993       1.25918842       0.04910157       0.00330696      -0.00371738       0.00379314
N        5.98341351      -2.21525747       1.41814711      -0.26141798       0.00376489      -0.00555393       0.00106698
C        6.82756538      -1.99763124       0.37477801       0.06895038      -0.00170758       0.00855549      -0.00096237
N        6.56553070      -1.40125149      -0.75414804      -0.23721716      -0.00423579       0.00155834      -0.00420517
C        5.29486399      -0.93541631      -0.92146579       0.03837194      -0.00338508      -0.00048203       0.00243561
C        4.32305220      -1.10026932       0.09119011      -0.01397463       0.00228075       0.00074681       0.00542344
C        3.00823247      -0.62787819      -0.05833945      -0.06767803       0.00251353      -0.00151056      -0.00230252
C        2.64914185       0.00691711      -1.22753434       0.03595386      -0.00221549       0.00280179       0.00046796
C        3.63209577       0.17496121      -2.24925286      -0.08177172      -0.00394172      -0.00233295       0.00161439
C        4.90943590      -0.27528767      -2.10816293      -0.05550653      -0.00217978      -0.00035931       0.00206379
N        1.39359380       0.49292998      -1.47675084      -0.12990934      -0.00107885       0.00056549       0.00369173
C        0.21440078       0.45122618      -0.63109633       0.10929511      -0.00017748       0.00040792      -0.00311587
O        0.37176046       0.03683674       0.53877133      -0.34210235       0.00204982      -0.00066053      -0.00322624
C       -0.94038120       0.88383944      -1.26086210      -0.20854256       0.00217510       0.00174743      -0.00141205
C       -2.26701862       0.99462965      -0.59134530      -0.02118141       0.00461420       0.00149224      -0.00358482
C       -2.46928736       0.10414949       0.62845113       0.00003847       0.00444738       0.00431045      -0.00514162
N       -3.88822941       0.04104472       0.98774392      -0.12287119       0.00006402       0.00692624      -0.00399690
C       -4.10058881      -0.05153552       2.41542700      -0.01935406      -0.00122817      -0.00300037      -0.00064148
C       -4.59089170      -1.00794450       0.27164227      -0.01585798      -0.00149431      -0.00092040       0.00312567
H        7.83750682      -2.36626333       0.50602223       0.01354074      -0.00847421       0.00081093      -0.00195132
H        2.26118368      -0.74257295       0.71537369       0.03323351       0.00425949       0.00355998      -0.00801549
H        5.64934943      -0.14280844      -2.88478831       0.02317251      -0.00330088      -0.00122429      -0.00086503
H        1.23835068       0.86043374      -2.39452617       0.12741452       0.00665332       0.00044948       0.00291244
H       -0.91901391       1.27714932      -2.27147099       0.02514481      -0.00103124       0.00274192       0.00004162
H       -3.07013316       0.77593226      -1.30237830       0.01888321       0.00568583       0.00072193      -0.00126257
H       -2.07472076      -0.89200754       0.39963001       0.01915227      -0.00584667      -0.00191719      -0.00042717
H       -1.86135029       0.48533857       1.44659306       0.01138467      -0.00004927       0.00100384      -0.00013120
H       -5.16987717      -0.08243581       2.62859616       0.01821604      -0.00355799      -0.00135639       0.00669536
H       -3.67828807       0.82654621       2.90116168       0.01897888      -0.00393664      -0.00428023       0.00243518
H       -3.62996197      -0.94262204       2.86010266       0.01742283       0.00542186      -0.00229063       0.00147603
H       -5.66810456      -0.88366515       0.38476457       0.02002731      -0.00472205      -0.00181294       0.00191079
H       -4.32333281      -2.01470315       0.62749437       0.01907032       0.00096221      -0.00519462       0.00021358
H       -4.35491767      -0.96774119      -0.79052980       0.02185225      -0.00498370       0.00131932       0.00377485
H        4.06008325      -1.92349152       2.06898103       0.02622295       0.00145956       0.00101417       0.00157718
H        3.33113118       0.68189884      -3.15922356       0.03209001      -0.00130137      -0.00175495       0.00330349
S       -2.63162240       2.78786429      -0.13089404      -0.15885989      -0.00287799      -0.00277517       0.00180213
C       -4.40010663       2.84374542      -0.44852384      -0.08143096       0.00150190      -0.00035107      -0.00321683
H       -4.89958397       2.04298337       0.08827180       0.02195793       0.00481540       0.00222768      -0.00051416
H       -4.61993972       2.75523915      -1.51199354       0.02621858       0.00406981       0.00147714      -0.00207699
H       -4.77542125       3.80342816      -0.09884256       0.02197275       0.00168067      -0.00294436      -0.00277654
