26
Properties=species:S:1:pos:R:3:charge:R:1:forces:R:3 energy=-15166.779284305236 pbc="F F F"
C       -4.24830087       0.76598542      -0.68633396      -0.06988849       0.00210038       0.00008543       0.00088252
C       -3.04679575      -0.07251973      -0.36248655       0.01713624      -0.00133128       0.00097336       0.00213965
C       -1.82565143       0.46717440      -0.40619123      -0.07500853      -0.00046425      -0.00172168      -0.00355899
C       -0.54137896      -0.22602744      -0.12936527       0.17732927      -0.00038168      -0.00101291       0.00006096
O       -0.43249336      -1.41247289       0.11880527      -0.28865203      -0.00312947       0.00078330       0.00310470
N        0.54450868       0.62000952      -0.18263971      -0.10866034      -0.00003707      -0.00249871       0.00069143
C        1.90298884       0.32259431       0.05425747       0.04490671      -0.00233385       0.00614943       0.00651890
C        2.80391444       1.38791048       0.03378757      -0.05004057       0.00293007       0.00134981      -0.00194209
C        4.15393967       1.17890975       0.25674940      -0.03892602       0.00100292       0.00002963       0.00637594
C        4.62809147      -0.10150932       0.50194645      -0.04299046       0.00050042      -0.00333968      -0.00373891
C        3.73299260      -1.15927483       0.51898754      -0.04067793      -0.00583029       0.00012433       0.00687724
C        2.37779241      -0.96334531       0.29895044      -0.05354173      -0.00408944       0.00524062      -0.00556083
C       -3.34894709      -1.49094855      -0.00122725      -0.07683332      -0.00392648      -0.00196295      -0.00099002
H       -4.91513559       0.81074715       0.17598917       0.03586187       0.00316437      -0.00354255      -0.00445358
H       -4.81123443       0.31501453      -1.50457796       0.03592503       0.00577711       0.00352654       0.00058600
H       -3.97207477       1.77984721      -0.96802299       0.03609707       0.00276093      -0.00228699       0.00557754
H       -1.74614028       1.51711983      -0.66613137       0.04357386       0.00333516      -0.00575531      -0.00306499
H        0.35140852       1.58377739      -0.38347338       0.14844096      -0.00122812      -0.00462835       0.00259470
H        2.43919888       2.38947616      -0.15756223       0.04756522      -0.00105888      -0.00389405       0.00034747
H        4.83167087       2.02139179       0.24019320       0.04669380      -0.00111395       0.00370982      -0.00593959
H        5.67947588      -0.27200998       0.67746265       0.04606302       0.00499543       0.00460633      -0.00076618
H        4.08610195      -2.16304865       0.70982816       0.04523061       0.00752888      -0.00324099      -0.00411444
H        1.68963692      -1.78956907       0.31569059       0.02978328       0.00291012       0.00027373       0.00077075
H       -3.87212475      -1.97127637      -0.83011168       0.03597119      -0.00450716       0.00256571       0.00385691
H       -2.45046696      -2.04555117       0.22473536       0.01869318      -0.00437612       0.00268809      -0.00041653
H       -4.01594267      -1.50911572       0.86276955       0.03594808      -0.00319798       0.00177803      -0.00583845
