26
Properties=species:S:1:pos:R:3:charge:R:1:forces:R:3 energy=-15166.779235061738 pbc="F F F"
C        4.18182712       0.98343703       0.96046272      -0.06989340      -0.00148253      -0.00046577       0.00047139
C        3.04533685       0.11390902       0.50949469       0.01716884       0.00176418      -0.00259230      -0.00830392
C        3.45133295      -1.20773810      -0.05802267      -0.07684136       0.00577331      -0.00401257      -0.00136922
C        1.78723304       0.54686773       0.62750746      -0.07501587       0.00148378      -0.00183071       0.00192759
C        0.55725883      -0.19171335       0.24313676       0.17732850       0.00069222      -0.00243887      -0.00035558
O        0.53691692      -1.33094109      -0.18438860      -0.28860998       0.00506441      -0.00122780      -0.00274326
N       -0.58948057       0.55044775       0.42149565      -0.10859850      -0.00126352       0.00105223      -0.00713639
C       -1.92279312       0.18947523       0.13578758       0.04488464      -0.00343425      -0.00001380      -0.00230224
C       -2.90262150       1.16698842       0.31226852      -0.05007473      -0.00230804       0.00176860       0.00172413
C       -4.23438387       0.89089148       0.05465047      -0.03893442       0.00142358       0.00005650       0.00414945
C       -4.61106019      -0.37138730      -0.38036773      -0.04299326      -0.00305704       0.00441192       0.00246037
C       -3.63756862      -1.34245346      -0.55241398      -0.04067158      -0.00648600      -0.00139162      -0.00095201
C       -2.29982380      -1.07784998      -0.30035957      -0.05356713      -0.00243823      -0.00726194       0.00331771
H        4.83549924       1.21013809       0.11704629       0.03587750      -0.00116465      -0.00507959       0.00002858
H        3.83122481       1.91822946       1.39228960       0.03609581      -0.00367345       0.00322599      -0.00387353
H        4.78490435       0.45824688       1.70199128       0.03592668      -0.00269981       0.00081278       0.00421405
H        2.59603436      -1.78642471      -0.37338027       0.01868208       0.00446412       0.00114678       0.00238778
H        4.00991338      -1.76759154       0.69426707       0.03598292       0.00321072       0.00212881      -0.00013877
H        4.11695361      -1.04743621      -0.90823394       0.03594561       0.00166989       0.00600951       0.00461428
H        1.63079167       1.53679032       1.04152748       0.04356781      -0.00703488      -0.00081439       0.00528458
H       -0.46904482       1.48555765       0.76399232       0.14844680       0.00534776       0.00002216       0.00110208
H       -2.61392059       2.15261045       0.65521600       0.04754438      -0.00091656       0.00485570      -0.00276013
H       -4.97463468       1.66650498       0.19603337       0.04669501       0.00333925       0.00166994       0.00264267
H       -5.64808753      -0.59427233      -0.58120509       0.04606109      -0.00161319       0.00267962      -0.00183394
H       -3.91514277      -2.33109176      -0.89060170       0.04522573      -0.00169286      -0.00234788       0.00062197
H       -1.55163324      -1.83790707      -0.43670377       0.02976676       0.00503208      -0.00036304      -0.00317750
