27
Properties=species:S:1:pos:R:3:charge:R:1:forces:R:3 energy=-26457.953135927546 pbc="F F F"
C        3.68316979      -1.31339488      -0.25107251      -0.05254539      -0.00073303      -0.00066893       0.00220202
C        2.46099315      -0.78239708      -0.88439372      -0.23668069       0.00296303       0.00082243       0.00251148
C        1.37335886      -0.42407063      -0.10475793       0.09690329       0.00090150       0.00073513      -0.00000278
O        1.26299101      -0.51530355       1.14330939      -0.36778939      -0.00444785      -0.00063130      -0.00088971
N        0.26740735       0.14496676      -0.84742883      -0.14240249      -0.00067812      -0.00050341      -0.00019573
C       -1.06585916       0.13998602      -0.46059728       0.03518603       0.00015751       0.00446439      -0.00223057
C       -1.47853974       0.02340351       0.87235407      -0.06411032       0.00083128       0.00344652      -0.00167222
C       -2.82389119       0.07744379       1.19311611      -0.07473940       0.00078783       0.00285879      -0.00076153
C       -3.80311045       0.23509896       0.22020426       0.01012000       0.00211457       0.00526734      -0.00010252
C       -3.40054463       0.36048285      -1.10133081      -0.08176935      -0.00094464       0.00293625      -0.00057140
C       -2.05570667       0.31201534      -1.43312990      -0.07736212      -0.00110039       0.00498461       0.00219592
N       -5.17671866       0.33577440       0.57636929      -0.22775444       0.00226659      -0.00275662      -0.00084312
H        4.17924704      -2.08953210      -0.83551562       0.00393698      -0.00011200       0.00550145       0.00204503
H        3.46200251      -1.70897820       0.73994608       0.01000705      -0.00349261       0.00043651       0.00078762
H        2.50117671      -0.56888845      -1.94716993       0.01883412       0.00508057       0.00080070       0.00301204
H        0.40753604       0.08606847      -1.84027793       0.11284277      -0.00046408      -0.00361322       0.00055255
H       -0.71865033      -0.11086994       1.62228993       0.01794468       0.00067591      -0.00695413       0.00342609
H       -3.11755825      -0.00212748       2.23320980       0.01567680      -0.00448154      -0.00321681       0.00016257
H       -4.14376005       0.50564065      -1.87547352       0.01631835       0.00157214      -0.00406246      -0.00176780
H       -1.75449245       0.41699319      -2.46857713       0.02242186      -0.00356023      -0.00241036       0.00541905
H       -5.76852840      -0.03995196      -0.15007328       0.09240025       0.00464839      -0.00072376       0.00488952
H       -5.36264859      -0.16520254       1.43235209       0.09169615      -0.00214848      -0.00158392      -0.00575775
S        5.07438133      -0.08656707       0.03490204      -0.18793431       0.00010595       0.00008156      -0.00309483
C        4.14371256       1.10345437       1.01586544      -0.08589226       0.00117105       0.00416308      -0.00626155
H        4.83565058       1.67529151       1.63362858       0.01151752       0.00305955      -0.00746755      -0.00195331
H        3.41733118       0.57399953       1.62723791       0.02253496      -0.00151310      -0.00233398       0.00261015
H        3.59700939       1.78008123       0.36344936       0.02063038      -0.00265993       0.00042770      -0.00370932
