28
Properties=species:S:1:pos:R:3:charge:R:1:forces:R:3 energy=-23977.837025327244 pbc="F F F"
C       -3.35202029      -0.07921673       0.46704360      -0.04060376      -0.00059164       0.00070828      -0.00300497
C       -2.33496102      -0.56772434       1.51259425      -0.04908426      -0.00326916       0.00132724       0.00301179
C       -0.96110841       0.04622838       1.28054618       0.01039616      -0.00265426      -0.00150097      -0.00036761
N       -0.41637848      -0.37419663       0.00460719      -0.12522200       0.00083769       0.00151534       0.00103858
C       -1.40974439      -0.64701272      -1.02311962      -0.00072197       0.00275424       0.00047247       0.00345043
C       -2.64448678       0.23741062      -0.85761817      -0.04685308       0.00232197       0.00093696      -0.00499823
C        0.81393670       0.24544407      -0.42716381       0.08398210      -0.00104702       0.00457341       0.00058720
O        1.13182999       0.06104466      -1.63344211      -0.41527009      -0.00306977      -0.00275407       0.00135610
C        1.57589451       0.95583141       0.50444258      -0.23477706       0.00111780      -0.00122333      -0.00077834
C        2.89251302       1.49773676       0.12927433      -0.05574791      -0.00680638       0.00405533       0.00082086
H       -3.86788165       0.81142959       0.83222504       0.00964709       0.00055157      -0.00232408      -0.00086665
H       -2.68879287      -0.33267905       2.51749465       0.01355322      -0.00136696       0.00149011       0.00587728
H       -2.22527814      -1.65103915       1.45303249       0.00946967      -0.00078363       0.00306435       0.00162590
H       -1.04332505       1.14059294       1.34052577       0.01508027      -0.00162291      -0.00269344       0.00462468
H       -0.28001932      -0.25721476       2.07468511       0.01742284      -0.00143342       0.00154585      -0.00209458
H       -1.73488097      -1.69277362      -0.96176122       0.00135063      -0.00130087      -0.00077595      -0.00409537
H       -0.93677955      -0.50303601      -1.98793921       0.00528430       0.00129020      -0.00348748       0.00392687
H       -3.33288362       0.10987743      -1.69421305       0.01320739      -0.00137628      -0.00346769      -0.00391695
H       -2.31001295       1.27613253      -0.86578181       0.00927286      -0.00020609      -0.00020426      -0.00034499
H        1.29854434       1.02670477       1.54515185       0.00865379       0.00706501      -0.00261889      -0.00191840
H        2.98584052       1.58509429      -0.95299820       0.00610246      -0.00011149       0.00487755       0.00188858
H        3.11259058       2.46507702       0.58636775      -0.00549330       0.00501635       0.00061889       0.00026761
H       -4.11324512      -0.84857555       0.32037331       0.00981366      -0.00346256       0.00168205       0.00072285
S        4.39323941       0.48947368       0.65136179      -0.19283909      -0.00032588      -0.00333890       0.00315842
C        3.93988625      -1.02946384      -0.19000497      -0.09203855       0.00649699       0.00564626       0.00331367
H        2.93500662      -1.30205842       0.11952675       0.02726346       0.00133162      -0.00407368      -0.00779346
H        3.91870022      -0.87154149      -1.26404713       0.01482741       0.00024882      -0.00361491      -0.00539748
H        4.65333902      -1.81335387       0.06215676       0.00331420       0.00039655      -0.00043627      -0.00009387
