57
Properties=species:S:1:pos:R:3:charge:R:1:forces:R:3 energy=-49525.66771187939 pbc="F F F"
N       -0.89758214       0.73513606       0.40940224       0.00509489      -0.00341102       0.00534048       0.00316604
N       -0.98190534       1.78840490       1.22289185      -0.18091983       0.00083233       0.00445212       0.00784235
C        0.22041542       2.33157429       1.22130559      -0.00803459       0.00359671       0.00082920       0.00010714
C        1.10499758       1.61490749       0.39193139      -0.03437083       0.00165589       0.00076157      -0.00056397
C        0.33455355       0.58640573      -0.11240092       0.02060229      -0.00270974       0.00220645      -0.00052955
C        2.50710225       1.88443079       0.11753594       0.04602374       0.00489245       0.00104172       0.00066727
N        3.22801420       0.91571039      -0.46787442      -0.18372048      -0.00107061      -0.00537838       0.00200141
C        4.49403313       1.17232284      -0.66671601       0.09169389      -0.00117265       0.00022549       0.00153457
C        5.09759013       2.39826090      -0.28725027       0.10257526      -0.00043053       0.00532122      -0.00251473
N        4.36990187       3.36217201       0.24618194      -0.23262613       0.00500683       0.00659516      -0.00072097
C        3.08071997       3.09849633       0.44392072       0.01837315       0.00499500       0.00183017       0.00260545
N        6.45976618       2.60761920      -0.42651535      -0.18175961       0.00203640      -0.00096269      -0.00017132
N        5.29700483       0.15797639      -1.25261979      -0.01608726      -0.00056825      -0.00093280      -0.00024848
N        5.40332043      -0.07381335      -2.58715081      -0.12657809       0.00182937      -0.00001843      -0.00056338
N        6.28860393      -0.98432046      -2.78255802      -0.21236287       0.00378706       0.00106254      -0.00102991
C        6.81733779      -1.36105186      -1.56677659       0.00956723       0.00022718      -0.00134753      -0.00179068
C        6.19548872      -0.61139290      -0.57031872       0.04264406      -0.00277425      -0.00410787      -0.00630101
C        6.52288013      -0.72030097       0.78178544      -0.03728583       0.00104284      -0.00054203      -0.00223061
C        7.50139736      -1.63876913       1.09237415      -0.05156776      -0.00078842      -0.00231608      -0.00058468
C        8.13480667      -2.41253345       0.09779112      -0.05207738       0.00241055       0.00173371       0.00036192
C        7.81325200      -2.28859905      -1.23539166      -0.04345343      -0.00560559      -0.00599179       0.00064457
C       -2.08799438      -0.04484908       0.11677745       0.04619161      -0.00117806      -0.00349532       0.00169749
C       -2.53563951      -0.78914293       1.37825743      -0.04470984       0.00033846      -0.00246345       0.00182511
C       -3.99479473      -1.20134467       1.25317212       0.01448082       0.00092824       0.00103146      -0.00302909
N       -4.86045436      -0.03776745       1.18232602      -0.12552688      -0.00033082       0.00207261      -0.00171550
C       -4.22320207       1.16670238       0.66795879       0.00164902      -0.00418504       0.00198542      -0.00040063
C       -3.20769419       0.84816361      -0.42830609      -0.04548404      -0.00192111      -0.00003381       0.00295469
C       -6.22101122      -0.26637124       0.80767706       0.11731754      -0.00245965       0.00246785       0.00498853
O       -6.86599474       0.72582233       0.37835251      -0.37749857      -0.00779567      -0.00437956      -0.00269424
C       -6.75205166      -1.55899449       0.93645967      -0.18365274       0.00356761       0.00193103      -0.00242034
C       -8.04754938      -1.82293993       0.30759643      -0.04176626       0.00267621      -0.00139160      -0.00214659
H        0.41217514       3.20760518       1.81474811       0.04608468      -0.00406234      -0.00162583       0.00167709
H        0.58025915      -0.21137110      -0.78921829       0.04905194       0.00565504      -0.00403971       0.00210064
H        2.48155655       3.88548462       0.87404380       0.03775696       0.00027352       0.00183726       0.00119548
H        6.89104564       2.14749986      -1.20918892       0.10813469      -0.00546300      -0.00240664       0.00227546
H        6.68685829       3.58724970      -0.38390028       0.11505115       0.00195077      -0.00079834       0.00168510
H        6.03160873      -0.10645461       1.52210433       0.04704086       0.00012182       0.00066870      -0.00359046
H        7.79904729      -1.77562394       2.12228992       0.03785324       0.00004407       0.00088502       0.00155267
H        8.89598751      -3.12290713       0.39141578       0.03615475       0.00303194       0.00139933       0.00051412
H        8.29932901      -2.87230822      -1.99953905       0.03789261      -0.00302947      -0.00081443       0.00146252
H       -1.77958657      -0.76349610      -0.64149289       0.03679255      -0.00238512      -0.00257991      -0.00599906
H       -1.89402155      -1.65469937       1.54850334       0.03337885       0.00602621       0.00363565       0.00163692
H       -2.44183538      -0.13181409       2.24187429       0.01847900       0.00345416      -0.00411124       0.00088029
H       -4.29495716      -1.79741251       2.11242719       0.03198424       0.00067443       0.00176998      -0.00396872
H       -4.11007673      -1.84670011       0.36907428       0.03524321      -0.00297894       0.00276535      -0.00471535
H       -5.00004354       1.82658688       0.30153122       0.01832703      -0.00151042       0.00565301      -0.00006762
H       -3.68728410       1.67151913       1.47213723       0.01941746      -0.00564259      -0.00214593       0.00077866
H       -2.77508678       1.75934641      -0.83862786       0.02601774      -0.00240106       0.00115603       0.00266243
H       -3.72913369       0.32383055      -1.23055118       0.03209294       0.00114798       0.00502555      -0.00272424
H       -6.17419537      -2.41202167       1.24441496       0.02679856      -0.00106274       0.00149288      -0.00295488
H       -8.65173657      -2.58881211       0.79201857       0.02218697       0.00007942       0.00237121       0.00115926
H       -8.62410569      -0.90962818       0.18816676       0.01962463       0.00366990      -0.00124448      -0.00687379
S       -7.94928058      -2.54457245      -1.46556020      -0.18103567       0.00022002      -0.00679727       0.00403416
C       -6.94105896      -1.23722024      -2.18839721      -0.07730687       0.00561592       0.00185045      -0.00181587
H       -7.03871664      -1.25013864      -3.27228320       0.02884298      -0.00288525      -0.00437526       0.00590646
H       -7.26557817      -0.28346692      -1.77887613       0.02497574       0.00294413      -0.00664918       0.00135382
H       -5.89640645      -1.36669788      -1.90989255       0.03242123      -0.00691007      -0.00044949       0.00109291
