53
Properties=species:S:1:pos:R:3:charge:R:1:forces:R:3 energy=-57397.44311302593 pbc="F F F"
F       -6.22038044      -3.77896420       3.56097311      -0.14325321       0.00362078       0.00019930      -0.00299317
C       -5.77569970      -2.87461613       2.65714536       0.06638943       0.00266395      -0.00052778      -0.00133415
C       -6.29342578      -2.90045844       1.37732192      -0.05600476      -0.00335002       0.00057301       0.00069086
C       -5.84175661      -1.96598371       0.46249734      -0.02960118      -0.00225216      -0.00147932       0.00064506
C       -4.88484306      -1.01639850       0.81129835      -0.01240017      -0.00375857       0.00156629       0.00040596
C       -4.37405662      -1.02697725       2.10584202      -0.02456380      -0.00377823      -0.00063008      -0.00098400
C       -4.82100044      -1.95217175       3.03529114      -0.04320098      -0.00011107       0.00218693      -0.00035182
S       -4.42434534       0.19427017      -0.39391125      -0.10546214      -0.00127071       0.00227700      -0.00004718
C       -2.65595084       0.37323076      -0.03463802      -0.01148395       0.00038989       0.00081608      -0.00121340
C       -1.96510519       1.38013088      -0.95585437       0.01035830       0.00167955      -0.00143211       0.00072142
N       -0.56226765       0.97341981      -0.94046289      -0.12069055       0.00158344       0.00163978       0.00061140
C       -0.41300639      -0.34649025      -0.31042543       0.03497171       0.00366939       0.00185682      -0.00256939
C       -1.83654181      -0.88849995      -0.25180396      -0.04265223       0.00356189       0.00405081       0.00458604
C        0.53046634      -1.29635791      -1.05866912       0.15860289       0.00427192      -0.00127473      -0.00283731
O        0.18958269      -2.41555262      -1.42376268      -0.36736166       0.00234474      -0.00235370       0.00372757
N        1.75057566      -0.77088914      -1.22520421      -0.12237772       0.00322733      -0.00010740      -0.00209820
C        2.84781311      -1.49306484      -1.80252621       0.01632049       0.00134285       0.00096007       0.00000864
C        4.10372219      -1.40488107      -0.96920570      -0.02040070      -0.00113999      -0.00143969      -0.00216953
C        4.95685991      -2.49715254      -0.88985384      -0.04665123      -0.00117716      -0.00090269      -0.00132692
C        6.13658929      -2.45223837      -0.16159698      -0.06271892      -0.00053186      -0.00240621      -0.00029088
C        6.45072418      -1.28427668       0.49773053       0.06659188      -0.00372087      -0.00052746       0.00064658
C        5.63027626      -0.17667579       0.44836343      -0.05903623      -0.00289086       0.00089273      -0.00094631
C        4.45636452      -0.24015934      -0.29082062      -0.03389642      -0.00362476      -0.00319814       0.00135228
F        7.60102654      -1.22552363       1.21612295      -0.14602146      -0.00096553       0.00627247      -0.00297909
C        0.44418879       1.97165430      -0.74400916       0.11302607      -0.00037618       0.00089903       0.00350554
O        1.53279289       1.58566596      -0.17875237      -0.28752631       0.00088972       0.00042541       0.00137170
C        0.19791432       3.25183475      -1.18202460      -0.17846900       0.00063162      -0.00035992       0.00076748
C        1.14802643       4.34479910      -0.85538519      -0.04779328       0.00047238      -0.00181874      -0.00220365
H       -7.03390091      -3.63818923       1.11027422       0.03864244      -0.00091000      -0.00211651       0.00066561
H       -6.23437577      -1.96838913      -0.54305677       0.02551554       0.00324342      -0.00492846       0.00006156
H       -3.62111060      -0.31060030       2.38909878       0.03040754      -0.00471847      -0.00293332      -0.00359262
H       -4.43549323      -1.96359776       4.04312369       0.03923795       0.00285790      -0.00233477      -0.00142380
H       -2.56492345       0.71056930       0.99780154       0.03555124       0.00175402      -0.00384858      -0.00123387
H       -2.37785782       1.31776589      -1.96510367       0.02234914       0.00092022       0.00232340       0.00315554
H       -2.09913352       2.39680638      -0.60038041       0.03934754       0.00178518      -0.00536923       0.00293021
H       -0.00530366      -0.22447821       0.69842773       0.03626519      -0.00235678       0.00145798      -0.00083152
H       -1.96131248      -1.64429573       0.51507516       0.03614525      -0.00568617       0.00346464       0.00298349
H       -2.09284663      -1.33728272      -1.20988259       0.02506837       0.00512902       0.00165247       0.00737978
H        1.87007824       0.18887439      -0.83217521       0.07622291      -0.00007790       0.00244198      -0.00669154
H        2.55471041      -2.53347670      -1.91549282       0.02553717      -0.00600375       0.00573684      -0.00021291
H        3.06680090      -1.10658169      -2.80459070       0.02651262      -0.00200982      -0.00093871       0.00210136
H        4.68623078      -3.40699369      -1.40811421       0.03417230       0.00105543      -0.00406575       0.00269585
H        6.80210199      -3.29983484      -0.10053752       0.03730845       0.00147905      -0.00448523       0.00075509
H        5.90706608       0.72068120       0.98081684       0.03703708       0.00121092       0.00139300      -0.00098533
H        3.81659422       0.62613024      -0.32588016       0.03027689      -0.00134975      -0.00309660      -0.00126717
H       -0.70077499       3.52872272      -1.70446508       0.02668069       0.00133825       0.00089925       0.00082413
H        2.13475868       3.95203428      -0.62272515       0.02111218       0.00064410       0.00436881       0.00185819
H        1.24249197       5.08140463      -1.65269357       0.02022230       0.00189072       0.00357502       0.00257284
S        0.67583576       5.37989221       0.61633094      -0.17093930       0.00503651      -0.00353079      -0.00296139
C        0.61974597       4.05572656       1.84146370      -0.08072460      -0.00142114       0.00318139      -0.00627193
H        1.40344590       3.34046488       1.61124545       0.02677167       0.00511059      -0.00297487      -0.00025548
H        0.77284660       4.48513723       2.82940035       0.02536126      -0.00412621       0.00293151       0.00380976
H       -0.33394655       3.53736949       1.81146415       0.03121620      -0.00619653       0.00103752      -0.00076118
