38
Properties=species:S:1:pos:R:3:charge:R:1:forces:R:3 energy=-55061.79233059604 pbc="F F F"
Cl      -7.13308120       0.10437923       0.72634082      -0.14701962      -0.00702452       0.00000697       0.00636038
C       -5.39368320       0.20946083       0.52262621       0.01874094      -0.00397117      -0.00337856       0.00024274
C       -4.58803397      -0.81562131       0.98580620      -0.04241078       0.00133544      -0.00205185      -0.00113927
C       -3.21360499      -0.72320656       0.81060609      -0.02803333      -0.00070792       0.00205527       0.00042772
C       -2.63928709       0.36828753       0.16217256      -0.00260985       0.00425254      -0.00166669       0.00429192
C       -3.48541285       1.38625710      -0.27918610      -0.04286595       0.00450276      -0.00055913      -0.00032168
C       -4.85711037       1.32121202      -0.10468926      -0.04740299       0.00166172       0.00033720       0.00060531
C       -1.15619829       0.47959369      -0.09527545      -0.00856038      -0.00056101       0.00063152       0.00581269
C       -0.33804709      -0.24832674       0.88205780      -0.24773739       0.00153431      -0.00343027       0.00203171
S        1.10690129       0.42894425       1.30152769       0.39122859      -0.00173265       0.00497075      -0.00138002
O        0.96483313       1.83777508       1.60573853      -0.36456436       0.00332118       0.00157117      -0.00388345
O        1.81675726      -0.40876605       2.25663361      -0.37138510      -0.00526168       0.00414276       0.00160304
N        2.06045377       0.45842078      -0.11529747      -0.13798878      -0.00728673       0.00428998      -0.00113065
C        2.50182265      -0.85376140      -0.56784168       0.00893074      -0.00733459       0.00265114      -0.00155422
C        4.02328586      -1.02639155      -0.41007848      -0.01149506       0.00160150       0.00065907       0.00114514
N        4.56175394      -0.29337329       0.72794332      -0.23516004       0.00484404       0.00221243       0.00229956
C        4.36866751       1.14610854       0.51637053      -0.01359218       0.00058617       0.00027968      -0.00205558
C        3.07372963       1.48281791      -0.26016737       0.00879578      -0.00354795      -0.00289262       0.00070407
H       -5.02386287      -1.67294325       1.47854405       0.02906770      -0.00403752       0.00162571      -0.00324833
H       -2.57273562      -1.50629922       1.18881043       0.02980627      -0.00420143       0.00470870       0.00234125
H       -3.04338012       2.24168406      -0.77402574       0.02592756       0.00324278       0.00218111      -0.00226276
H       -5.50322411       2.11368984      -0.45111523       0.02878231      -0.00078996       0.00273828      -0.00104109
H       -0.86805806       1.52720412      -0.05354994       0.01703727      -0.00190375      -0.00393808      -0.00149243
H       -0.39637245      -1.31570716       1.03533360       0.02306308      -0.00016199      -0.00170161      -0.00119149
H        2.21545233      -1.00128250      -1.61434223       0.02919609       0.00132351       0.00278282      -0.00360801
H        1.98907912      -1.61004364       0.02581690       0.03099235       0.00085941      -0.00435003       0.00104499
H        4.25048882      -2.08830151      -0.29969306       0.01762920       0.00313546      -0.00475862      -0.00178467
H        4.54690824      -0.66959707      -1.30417007       0.01430351       0.00505567       0.00650232      -0.00123137
H        4.34141393       1.63217221       1.49008338       0.01879725      -0.00523383      -0.00373242      -0.00421291
H        5.22814152       1.53789899      -0.03407823       0.01386314       0.00489554       0.00251461       0.00225057
H        2.64960964       2.41819291       0.09313916       0.01972558       0.00068156      -0.00117327      -0.00160108
H        3.29449695       1.58272764      -1.32920472       0.02160890       0.00185076      -0.00013337       0.00601246
H        4.00023372      -0.55148897       1.52909612       0.06837666      -0.00088159      -0.00749252      -0.00248199
S       -0.90689272       0.09645924      -1.97128500      -0.12538427       0.00045506       0.00114805      -0.00329298
C       -1.39219614      -1.63356986      -1.93523867      -0.06987213       0.00391363       0.00114875       0.00274602
H       -0.69916945      -2.22716827      -1.34361960       0.03187261       0.00094666      -0.00494133      -0.00003884
H       -2.38751860      -1.73960868      -1.51296244       0.02769922       0.00341634      -0.00199789       0.00008843
H       -1.40019870      -2.01503200      -2.95459145       0.02062951       0.00122164      -0.00096081      -0.00105499
