26
Properties=species:S:1:pos:R:3:charge:R:1:forces:R:3 energy=-19692.76000841681 pbc="F F F"
C        6.18462988      -0.03799520      -0.03384165      -0.05760320      -0.00121569      -0.00071109      -0.00275083
C        4.98718876      -0.60016914      -0.02281666      -0.03815728       0.00056010       0.00141353      -0.00087493
C        3.76110453       0.25773484       0.01342799       0.18705067       0.00631169      -0.00232810      -0.00121043
O        3.80066441       1.45977908       0.03064859      -0.30773222      -0.00036397      -0.00412294       0.00227060
N        2.57744681      -0.47637719       0.02482135      -0.09718819       0.00641034       0.00572579      -0.00400772
C        1.27970064       0.00557342       0.05799901       0.13797261       0.00427036       0.00176176       0.00259647
C        0.10071354      -0.66978467       0.06830424      -0.08374870       0.00452465      -0.00060624      -0.00111957
C       -0.87134845       0.37269153       0.10576251       0.04855282       0.00131835       0.00148278      -0.00360336
C       -2.33821264       0.25824869       0.13112933      -0.01302119      -0.00217719      -0.00077541       0.00159235
C       -3.13884894       1.39721891       0.17280503      -0.03499677      -0.00228592      -0.00216259      -0.00319511
C       -4.51799152       1.26961292       0.19646223      -0.03501137       0.00127024      -0.00289039      -0.00113103
C       -5.10924743       0.01348456       0.18059710      -0.03694066      -0.00354329       0.00250260      -0.00273539
C       -4.31401972      -1.12276168       0.14030412      -0.03361044      -0.00567526       0.00282323       0.00205278
C       -2.93440488      -1.00005614       0.11409471      -0.03420176      -0.00434351      -0.00071356       0.00501166
N       -0.30387058       1.54694251       0.11619555      -0.12826267      -0.00458329       0.00182080       0.00255480
O        1.06584940       1.32073896       0.08633773      -0.07453018      -0.00496995       0.00139735      -0.00128942
H        6.27889484       1.03797166      -0.01502278       0.03939993       0.00607744      -0.00437710      -0.00049885
H        7.08957966      -0.62629075      -0.06234868       0.05185810      -0.00651972      -0.00303571       0.00251750
H        4.87432346      -1.67752817      -0.04006714       0.05771902       0.00285435       0.00529669       0.00037030
H        2.65512057      -1.47705904       0.00249597       0.15763752      -0.00300877       0.00651145       0.00317732
H       -0.05369636      -1.73152954       0.05227346       0.06363308       0.00298816      -0.00310957      -0.00000613
H       -2.67901226       2.37450629       0.18577111       0.03917469       0.00207700      -0.00393077       0.00008443
H       -5.13150857       2.15819651       0.22678356       0.04894157       0.00416702      -0.00399179       0.00144880
H       -6.18475555      -0.07962685       0.19856888       0.04759350      -0.00304335      -0.00009431       0.00282104
H       -4.76593921      -2.10362164       0.13043003       0.04957899      -0.00107469       0.00127606      -0.00444088
H       -2.31732573      -1.88660992       0.08097480       0.04589216      -0.00002454       0.00083726       0.00036559
