22
Properties=species:S:1:pos:R:3:forces:R:3 12_TS=T (SP=-840.447151849971,U=-840.26414941,H=-840.2632052,G=-840.31378288) charge=-1 spin=1 energy=-136.44813537597656 free_energy=-136.44813537597656 stress="0.0 0.0 0.0 0.0 0.0 0.0 0.0 0.0 0.0" pbc="F F F"
C        3.71853943      -0.31024975      -0.05070642      -0.00125733      -0.00368707      -0.00704899
C        2.94297877      -0.51036448      -1.19705332       0.00075783      -0.00576580       0.00027192
C        1.55062551      -0.42249251      -1.12750858      -0.00119576       0.00315228       0.00510535
C        0.91744781      -0.12277885       0.08543066       0.00396962       0.00427775       0.00261377
C        1.69795204       0.08523018       1.22724945      -0.00564110       0.00081569      -0.00687888
C        3.09318499      -0.01363442       1.16071502      -0.00007230       0.00523570      -0.00779547
C       -0.60016140      -0.03053929       0.18745583       0.00313040       0.00291783       0.00337063
C       -1.32789153      -1.20356239      -0.33801537      -0.00050391      -0.00554085      -0.00033001
C       -2.47839717      -1.67353894       0.27421943      -0.00172396      -0.00152125      -0.00037263
N       -3.48729578      -2.00119119       0.78880178      -0.00240359      -0.00384412      -0.00360738
S       -1.12671492       1.41025603      -0.88435265      -0.00623015      -0.00012514      -0.00004824
C       -2.87850104       1.56032515      -0.48125761      -0.00513455      -0.00231021      -0.00166371
H       -0.88969727       0.21772340       1.21979156       0.00032968      -0.00132513       0.00164393
H       -1.00633769      -1.66668289      -1.27681454       0.00220616       0.00126928      -0.00273691
H       -3.19271628       2.52073088      -0.90880703       0.00317806       0.00232445      -0.00191954
H       -3.47618675       0.75284613      -0.92143821       0.00324129       0.00259115       0.00190787
H       -3.04029555       1.59175882       0.60451291       0.00422344      -0.00004499       0.00259628
H        1.20680955       0.31958224       2.17435057       0.00152241       0.00311526       0.00118357
H        3.68831348       0.14551541       2.06346768       0.00400949       0.00056602       0.00434768
H        4.80783280      -0.38620439      -0.10364225       0.00330907      -0.00026886       0.00076268
H        3.42095670      -0.74148720      -2.15224020      -0.00203799      -0.00144093       0.00651217
H        0.94812876      -0.57186540      -2.02693563      -0.00367680      -0.00039103       0.00208572
