25
Properties=species:S:1:pos:R:3:forces:R:3 13_carbanion=T (SP=-916.968348631956,U=-916.75413949,H=-916.75319528,G=-916.80629389) charge=-1 spin=1 energy=-151.98069763183594 free_energy=-151.98069763183594 stress="0.0 0.0 0.0 0.0 0.0 0.0 0.0 0.0 0.0" pbc="F F F"
N       -3.10027516       0.04446593      -0.09344403      -0.00004818       0.00268357      -0.00361338
C       -1.78492030       0.56105774      -0.15597145       0.00427479      -0.00274032      -0.00230256
C       -0.88273054       0.00510226       0.78931004      -0.00444132       0.00373030      -0.00016132
C        0.51346754       0.44651012       0.77643599      -0.00208944      -0.00065541       0.00286897
O       -1.47136215       1.44199088      -0.98518659      -0.00105196       0.00211050       0.00212995
S        1.40899726      -0.89651988      -0.09828469       0.00314239      -0.00038249      -0.00221258
C        3.12617739      -0.41899258       0.18965217       0.00095734      -0.00070456      -0.00299587
H       -1.22980509      -0.74576652       1.50381895       0.00201199      -0.00270462       0.00072059
H        0.62195351       1.37924601       0.20209561       0.00108178       0.00776532       0.00011189
H        0.96606204       0.52822107       1.77506675      -0.00190632       0.00035347       0.00160795
H        3.33651660       0.58125719      -0.21218965       0.00549848      -0.00645338      -0.00194974
H        3.38603976      -0.44378379       1.25674011      -0.00065110       0.00104789      -0.00238443
H        3.74953808      -1.14960374      -0.34171018      -0.00165512      -0.00170144       0.00171517
C       -4.20015803       0.40212980      -0.86969433      -0.00608792       0.00012827       0.00101168
C       -5.48143062      -0.00578888      -0.43929727       0.00205782       0.00021376      -0.00303449
H       -5.57608708      -0.56080471       0.49722772       0.00022172      -0.00164124      -0.00193663
C       -6.61163406       0.30597408      -1.18625502      -0.00425705      -0.00431257       0.00219980
H       -7.59571178      -0.01760448      -0.83756175       0.00480700      -0.00065704      -0.00118674
C       -6.49044819       1.03142599      -2.37523065      -0.00366828       0.00406897      -0.00397328
H       -7.38027302       1.27857572      -2.96285092       0.00088918       0.00074999       0.00182912
C       -5.22329105       1.43756843      -2.80730359       0.00672394      -0.00044912       0.00202402
H       -5.12307259       2.00223998      -3.73698115       0.00388708      -0.00060505       0.00337011
C       -4.08025245       1.12955108      -2.07080092      -0.00740132      -0.00281063       0.00191498
H       -3.08029934       1.43612116      -2.38599505       0.00021583      -0.00188460       0.00293766
H       -3.26827026      -0.63898667       0.63949864      -0.00251138       0.00485046       0.00130912
