29
Properties=species:S:1:pos:R:3:forces:R:3 15_carbanion=T (SP=-1102.805490393029,U=-1102.56490578,H=-1102.56396157,G=-1102.62324401) charge=-1 spin=1 energy=-185.88404846191406 free_energy=-185.88404846191406 stress="0.0 0.0 0.0 0.0 0.0 0.0 0.0 0.0 0.0" pbc="F F F"
N       -3.09776425       0.04720677       0.09114956       0.00259189       0.00619209      -0.00110267
C       -1.78923896       0.57630635      -0.06064365       0.00495045       0.00007409       0.00294527
C       -0.83705298       0.07944168       0.86240998      -0.00171697       0.00364394      -0.00286061
C        0.55719319       0.51335747       0.73632868       0.00343878      -0.00319541       0.00145735
O       -1.53167429       1.40102048      -0.96456727      -0.00138621       0.00167800       0.00241120
S        1.40444174      -0.89513277      -0.08420651      -0.00338373       0.00377349       0.00257150
C        3.13551632      -0.39931734       0.04374358       0.00358078      -0.00430363      -0.00532565
H       -1.14152107      -0.61913447       1.64588328       0.00042898       0.00281017       0.00055236
H        0.62999714       1.39990846       0.08762405       0.00115713       0.00198397      -0.00020216
H        1.06662376       0.67196544       1.69741126      -0.00014549      -0.00673689       0.00326747
H        3.32303253       0.54994496      -0.47608201      -0.00043550      -0.00411041       0.00234897
H        3.46205062      -0.31202447       1.08910562      -0.00163369      -0.00023763      -0.00212772
H        3.72292680      -1.18850087      -0.44354824      -0.00257535       0.00406508       0.00366170
C       -4.22769018       0.36219316      -0.64392225      -0.00563523       0.00326237      -0.00550113
C       -5.33276923      -0.50150099      -0.60164954       0.00390015       0.00640178      -0.00510584
C       -6.51048066      -0.21122087      -1.31649914       0.00478974       0.00549740      -0.00091048
C       -6.58046262       0.98546413      -2.10071848      -0.00419286      -0.00444436       0.00127593
C       -5.45173756       1.85407625      -2.12527712       0.00124869       0.00182098      -0.00219901
C       -4.30940628       1.56116318      -1.41850780      -0.00265408      -0.00495946       0.00119095
H       -5.27690945      -1.42321837      -0.01968237       0.00042255      -0.00432292      -0.00012437
H       -3.42640446       2.20471797      -1.42829609       0.00207666       0.00040215      -0.00411868
H       -3.19143997      -0.69814073       0.77442040       0.00135006      -0.00507367       0.00237950
N       -7.69416302       1.28558198      -2.80345293       0.00303048       0.00474530       0.00120610
C       -8.72908974       0.44841194      -2.75639581      -0.00717902      -0.00113636       0.00120488
N       -8.76541890      -0.71014799      -2.04358062       0.00265741       0.00116683       0.00111334
H       -9.61986223       0.70576289      -3.33191948       0.00081295      -0.00142771       0.00393516
C       -7.68799269      -1.02582995      -1.34810749      -0.00507335      -0.00106740       0.00054681
H       -7.71860451      -1.95869881      -0.77624059       0.00067884      -0.00629818      -0.00011376
H       -5.54317142       2.75480735      -2.73428278      -0.00110385      -0.00020346      -0.00237617
