41
Properties=species:S:1:pos:R:3:forces:R:3 16_adduct=T (SP=-1276.740731383606,U=-1276.3777775,H=-1276.37683329,G=-1276.44600491) charge=0 spin=1 energy=-251.6232452392578 free_energy=-251.6232452392578 stress="0.0 0.0 0.0 0.0 0.0 0.0 0.0 0.0 0.0" pbc="F F F"
N       -3.27258852      -0.10907949       0.03825617       0.00186370       0.00062273      -0.00617275
C       -2.03812611       0.42217806       0.33671464      -0.00489061      -0.00065207      -0.00296688
C       -1.33500104      -0.25105902       1.51034451       0.00106105       0.00608519       0.00141465
H       -1.66480957       0.25475711       2.43771310       0.00131235       0.00097841       0.00222307
C        0.18011142      -0.11812927       1.40713560      -0.00309673      -0.00188841      -0.00278120
O       -1.54147447       1.37059177      -0.27357869      -0.00020179      -0.00108174       0.00196557
S        0.78629562      -1.41750874       0.27934277       0.00050366       0.00403637       0.00330287
C        2.35195050      -0.72297069      -0.27957212       0.00260186      -0.00046263       0.00649948
H       -1.64524665      -1.30402639       1.59167487      -0.00098251      -0.00218204      -0.00288968
H        0.39505400       0.85080916       0.92990328      -0.00099050      -0.00139643      -0.00059465
C        0.84635144      -0.19579884       2.78521862      -0.00098062       0.00352541      -0.00088317
H        2.20639308       0.23999498      -0.78428278      -0.00153254       0.00049204      -0.00307650
H        3.07164188      -0.60692957       0.54183178      -0.00346404       0.00351227      -0.00036617
H        2.76175236      -1.43991001      -1.00183492      -0.00085974       0.00142134       0.00223060
C       -4.14820255       0.32792551      -0.97170210      -0.00010855       0.00070383       0.00402378
C       -5.04035367      -0.59265472      -1.51821284      -0.00018516      -0.00377552      -0.00390032
C       -5.97037931      -0.19333817      -2.50519688       0.00098246       0.00572544       0.00759485
C       -5.98670277       1.16978875      -2.94031648      -0.00326827       0.00278133      -0.00385863
C       -5.06671318       2.08701353      -2.36233145       0.00082019      -0.00516427      -0.00004981
C       -4.16698621       1.68239906      -1.39939893      -0.00029062      -0.00332272      -0.00296063
H       -5.01715903      -1.63744576      -1.20265780       0.00180563       0.00318173       0.00052927
H       -3.45202975       2.37486813      -0.95417973      -0.00022608      -0.00407130       0.00042497
H       -3.55963157      -0.93848639       0.54990815      -0.00054529      -0.00018617       0.00306912
H        1.94666393      -0.14850934       2.65994898      -0.00036448      -0.00101366      -0.00189551
H        0.63160107      -1.18435057       3.22109452      -0.00002567      -0.00111149       0.00171745
N        0.35876326       0.83299306       3.70997657       0.00369543      -0.00657499       0.00267068
C        0.80787691       2.18010424       3.36312465       0.00180842      -0.00030305       0.00028320
C        0.67589297       0.50770582       5.09797660       0.00036623      -0.00051565      -0.00338723
H        0.25673780      -0.47154276       5.36238823       0.00383410      -0.00330812      -0.00093511
H        0.23564302       1.25523831       5.77062576       0.00258858       0.00667949      -0.00374644
H        1.76432858       0.47301894       5.29888925      -0.00735394      -0.00092861      -0.00223371
H        0.47525913       2.45637176       2.35451936       0.00327475       0.00048670       0.00404143
H        1.90826564       2.29154876       3.39956058       0.00166927       0.00008027       0.00187581
H        0.37897202       2.90714200       4.06481519      -0.00452594      -0.00418340      -0.00071510
H       -5.10596364       3.11794886      -2.71700685      -0.00106326       0.00076258      -0.00384152
N       -6.86397119       1.58094327      -3.88648004       0.00097775      -0.00593401       0.00102636
C       -7.70904724       0.69112780      -4.40419325      -0.00032467       0.00261231      -0.00127172
N       -7.77339484      -0.62422204      -4.06007598      -0.00337392      -0.00042697      -0.00566359
H       -8.40739995       1.03637862      -5.16887342       0.00234756       0.00075120       0.00698686
C       -6.92579595      -1.04729323      -3.13741436       0.00703556       0.00232428       0.00092755
H       -6.97659355      -2.10595848      -2.86319924       0.00010640       0.00172022       0.00138265
