40
Properties=species:S:1:pos:R:3:forces:R:3 18_TS=T (SP=-1276.208157097691,U=-1275.86044242,H=-1275.85949822,G=-1275.92913607) charge=-1 spin=1 energy=-246.64759826660156 free_energy=-246.64759826660156 stress="0.0 0.0 0.0 0.0 0.0 0.0 0.0 0.0 0.0" pbc="F F F"
N       -3.24047185      -0.07158365       0.08542466      -0.00146227       0.00049449       0.00334494
C       -1.91514624       0.41418035       0.19404239       0.00068219      -0.00684959      -0.00403564
C       -1.07336544      -0.30914567       1.06758483       0.00197801       0.00189289      -0.00409073
C        0.32987156       0.09774481       1.18117031       0.00050633       0.00145418      -0.00185930
O       -1.54988619       1.43803133      -0.43321177       0.00048001       0.00182452       0.00188780
S        1.27421020      -0.82135652      -0.13127827       0.00016353       0.00019410       0.00004813
C        2.74136453       0.21107413      -0.32015965      -0.00270723       0.00488558       0.00251706
H       -1.44574916      -1.15172450       1.65040574       0.00201210      -0.00313810       0.00070625
H        0.42237237       1.15814344       0.88542920       0.00108948       0.00138661      -0.00422771
C        0.96053839      -0.21906149       2.54347062       0.00743396       0.00423966       0.00051996
H        2.47448341       1.22972871      -0.62773172      -0.00004733      -0.00355852      -0.00155487
H        3.34810033       0.25215842       0.59362936       0.00515646      -0.00407820       0.00122035
H        3.34139795      -0.24941388      -1.11585663      -0.00037120      -0.00028279      -0.00021435
C       -4.25830602       0.41031226      -0.72041720      -0.00041741      -0.00258767       0.00039157
C       -5.56459022      -0.13207111      -0.50721143       0.00018626      -0.00196777       0.00546330
C       -6.62665504       0.27839145      -1.27477860       0.00306118      -0.00074263       0.00508860
C       -6.45293469       1.25035938      -2.30052421      -0.00372806      -0.00264141       0.00487715
C       -5.14330358       1.79204445      -2.51895535      -0.00028712       0.00078405      -0.00587660
C       -4.05811031       1.36568298      -1.72323094       0.00038379      -0.00113765      -0.00095830
N       -4.95259317       2.71848417      -3.50259523       0.00182785       0.00085309       0.00368488
C       -5.99090390       3.09904061      -4.23691589       0.00005323      -0.00406528       0.00156522
N       -7.27206396       2.65003526      -4.10026629       0.00170615      -0.00389804      -0.00043355
C       -7.47975508       1.74660880      -3.14999152       0.00373787       0.00686492      -0.00393236
H       -5.70226023      -0.87496305       0.28265594       0.00384041       0.00233732       0.00201882
H       -7.62449408      -0.13624981      -1.11157137       0.00301692       0.00291851       0.00033541
H       -3.06701947       1.78794963      -1.89125678      -0.00505003       0.00026290      -0.00428201
H       -5.81153597       3.83508326      -5.02324417      -0.00503760       0.00578368       0.00344640
H       -8.50538285       1.37950056      -3.03537149      -0.00118467      -0.00236879      -0.00184258
H       -3.46075594      -0.87412499       0.66670240      -0.00129331       0.00306220      -0.00379691
H        2.00983324       0.15145736       2.55049124      -0.00738745      -0.00350635      -0.00013535
H        1.03060160      -1.31413165       2.64557456      -0.00101379       0.00072679       0.00054157
N        0.20169400       0.29551775       3.67697309      -0.00273556      -0.00475559       0.00187157
C       -0.17837377       1.69922898       3.57640752       0.00244009       0.00217839       0.00187190
C        0.83944733      -0.01966356       4.94678515      -0.00659433       0.00339110       0.00397565
H        1.04101375      -1.09664370       5.01401011      -0.00231566      -0.00029768      -0.00358670
H        0.18030862       0.25505983       5.78078537       0.00119846       0.00144497      -0.00130090
H        1.80252205       0.50788274       5.09292240       0.00168747      -0.00005894       0.00060854
H       -0.80453524       1.86985893       2.68990390       0.00228631      -0.00084691      -0.00439227
H        0.69198019       2.38228022       3.51774457      -0.00398360      -0.00010156      -0.00007307
H       -0.76277809       1.98297445       4.46186850       0.00068827      -0.00009644       0.00060833
