28
Properties=species:S:1:pos:R:3:forces:R:3 19_carbanion=T (SP=-881.270096922048,U=-881.01355875,H=-881.01261454,G=-881.06426733) charge=-1 spin=1 energy=-157.80789184570312 free_energy=-157.80789184570312 stress="0.0 0.0 0.0 0.0 0.0 0.0 0.0 0.0 0.0" pbc="F F F"
C       -2.13599036       0.88579504       0.07684390      -0.00110297       0.00052896      -0.00291014
C       -1.17929421       0.34253042       1.00432492       0.00038928      -0.00711901      -0.00104010
C        0.24187270       0.47271541       0.67939729       0.00298001      -0.00122941      -0.00473547
O       -1.73893802       1.48521521      -0.95513089      -0.00125844      -0.00091251       0.00201035
S        0.67143805      -1.17019787      -0.00976800      -0.00021043       0.00009453       0.00347793
C        2.46304510      -1.03175971      -0.18555533      -0.00450224      -0.00257288       0.00205214
H       -1.47954240      -0.13771108       1.93593657       0.00436557       0.00020227       0.00219925
H        0.39391160       1.23716555      -0.09893099       0.00112514       0.00054252       0.00016135
H        0.88726810       0.63142169       1.55556675       0.00008526       0.00441718      -0.00118934
H        2.73639455      -0.22825068      -0.88191197       0.00208256       0.00694604      -0.00037695
H        2.95692923      -0.86180739       0.78066891      -0.00166761      -0.00141393       0.00279573
H        2.81075842      -1.98832523      -0.59681321       0.00215380      -0.00275095       0.00140056
N       -3.50109832       0.76780083       0.34366938      -0.00214452      -0.00261167       0.00533494
C       -4.41074253       1.09219206      -0.77205210       0.00168754      -0.00053795       0.00227515
C       -4.06970056      -0.22667770       1.25904697       0.00496193      -0.00172554      -0.00402391
C       -4.32587437      -1.54542926       0.51307573       0.00049535       0.00187056       0.00141755
C       -5.24159358      -1.28292559      -0.69328683      -0.00570169       0.00388204       0.00351430
C       -4.67525613      -0.17504994      -1.59798512       0.00087700       0.00146383      -0.00831437
H       -5.35500806       1.47963849      -0.35663417       0.00192049      -0.00065267      -0.00027366
H       -3.41962161      -0.37472746       2.12720356      -0.00217240       0.00064410       0.00166789
H       -3.35878643      -1.95301469       0.17629207       0.00066109       0.00094277      -0.00020441
H       -6.24387034      -0.99011525      -0.33510403       0.00102541      -0.00478892      -0.00584840
H       -3.93136136       1.87508518      -1.37210488      -0.00563212       0.00083172       0.00221670
H       -5.02307739       0.16692886       1.64921079       0.00153120       0.00609019      -0.00062361
H       -4.77230660      -2.28628307       1.19212853       0.00253353       0.00212683      -0.00010446
H       -5.38751938      -2.20795462      -1.26695056       0.00068461      -0.00270611      -0.00395103
H       -3.72124809      -0.49673573      -2.04728324      -0.00457844       0.00181634      -0.00341143
H       -5.36683117       0.04365256      -2.42458595      -0.00058843      -0.00337821       0.00648370
