28
Properties=species:S:1:pos:R:3:forces:R:3 1_TS=T (SP=-1068.465910644519,U=-1068.23450852,H=-1068.23356431,G=-1068.29430598) charge=-1 spin=1 energy=-175.61599731445312 free_energy=-175.61599731445312 stress="0.0 0.0 0.0 0.0 0.0 0.0 0.0 0.0 0.0" pbc="F F F"
C        4.19678823      -0.84068428       0.45732921       0.00510636       0.00050955       0.00391962
C        3.50958376      -1.06652961      -0.73936423      -0.00228567       0.00004911       0.00337660
C        2.20832404      -0.58712492      -0.90893275      -0.00274642      -0.00599863      -0.00195783
C        1.57446379       0.12298050       0.12004450      -0.00322870       0.00213187      -0.00301624
C        2.27054280       0.35342177       1.31205536       0.00122726       0.00257964       0.00242615
C        3.57542952      -0.12689264       1.48113984      -0.00115396      -0.00543879      -0.00169736
C        0.14686710       0.63787343      -0.02693092      -0.00199521      -0.00013244      -0.00530240
C       -0.90265214      -0.40434143      -0.26409476       0.00338390       0.00224067       0.00086027
C       -0.80406967      -1.32219781      -1.30419189      -0.00297204      -0.00266013       0.00123989
N       -0.64975457      -2.04605608      -2.22071208       0.00415155      -0.00169510      -0.00015762
C       -2.05358905      -0.36179042       0.57541479      -0.00306130      -0.00186016       0.00536634
O       -2.24555779       0.46864240       1.47683198       0.00231446      -0.00001138       0.00222877
O       -2.97432394      -1.34697445       0.26780036       0.00317222      -0.00348184      -0.00360340
C       -4.16707522      -1.35727464       1.05531470       0.00325707      -0.00335242      -0.00101539
S        0.21518834       1.93152379      -1.35969566      -0.00064901      -0.00059746      -0.00117101
C       -1.52956139       2.35632092      -1.48905898       0.00411868       0.00571900      -0.00060580
H       -0.15882402       1.15516507       0.89769693      -0.00184559      -0.00064185      -0.00076666
H       -1.58382690       3.27709922      -2.08272295      -0.00312297       0.00112848       0.00136778
H       -1.95959681       2.53364438      -0.49521598      -0.00056005       0.00025058      -0.00452244
H       -2.09677461       1.56372062      -1.99330312       0.00278718      -0.00112332       0.00124344
H       -3.92869510      -1.35654603       2.12968421      -0.00440806      -0.00021027       0.00092452
H       -4.78905214      -0.47523148       0.83547356       0.00354308      -0.00065326       0.00659857
H       -4.70324495      -2.27491574       0.77722691      -0.00203589       0.00445098      -0.00277495
H        1.78038054       0.90942615       2.11326580      -0.00076604       0.00592248       0.00200003
H        4.10061406       0.06059932       2.42076796      -0.00312215      -0.00008664      -0.00443670
H        5.21330699      -1.22096098       0.58908891       0.00083202       0.00341381       0.00027505
H        3.98362243      -1.62510318      -1.54937114       0.00016551       0.00161257      -0.00254533
H        1.67240058      -0.76629175      -1.84274503      -0.00010629      -0.00206501       0.00174645
