23
Properties=species:S:1:pos:R:3:forces:R:3 22=T (SP=-518.030889799618,U=-517.82886014,H=-517.82791593,G=-517.8765626) charge=0 spin=1 energy=-144.92869567871094 free_energy=-144.92869567871094 stress="0.0 0.0 0.0 0.0 0.0 0.0 0.0 0.0 0.0" pbc="F F F"
N       -3.35013301       0.71560841       0.36583489      -0.00395290      -0.00621071       0.00658366
C       -2.18335091       0.15187972      -0.08387219       0.00221832      -0.00002310      -0.00755262
C       -1.12761444      -0.01821869       0.96552290      -0.00768390      -0.00352790       0.00436131
C        0.05447971      -0.54581437       0.65198184       0.00765041       0.00077392      -0.00453228
O       -2.02243024      -0.18355418      -1.26475840       0.00131052       0.00124004       0.00444904
H       -1.38161802       0.31127782       1.97612101       0.00132170       0.00197643      -0.00170618
H        0.26336119      -0.85854897      -0.37237392      -0.00113371       0.00050084       0.00363585
H        0.84316522      -0.68109288       1.39455612       0.00020614       0.00032904       0.00050435
C       -4.49784681       0.91794315      -0.50884260       0.00209903       0.00156483       0.00133675
H       -3.46178227       0.90454174       1.35713149      -0.00080061       0.00415904      -0.00351935
H       -4.08983605       1.04926350      -1.52267834      -0.00026596       0.00084075      -0.00333995
H       -5.02113935       1.83416897      -0.20649154       0.00084990       0.00106061       0.00040098
C       -5.47116541      -0.24865378      -0.51172304      -0.00248997      -0.00281307      -0.00269820
C       -6.74475566      -0.13437537       0.05183217       0.00227290      -0.00138053      -0.00181456
C       -5.07782907      -1.47165603      -1.07171807       0.00482574       0.00596195       0.00509898
C       -7.61885712      -1.22809118       0.05939268       0.00175419      -0.00517374      -0.00044404
H       -7.06029466       0.81788626       0.48446889       0.00043665       0.00160313      -0.00037231
C       -5.95165233      -2.56299524      -1.06348060      -0.00443574      -0.00174487      -0.00050932
H       -4.08196637      -1.55303194      -1.51502549       0.00117722      -0.00085956      -0.00083090
C       -7.22492491      -2.44540113      -0.49735347      -0.00297229       0.00889876       0.00219809
H       -8.61197655      -1.11898180       0.50292445      -0.00204134      -0.00098003      -0.00107722
H       -5.63220734      -3.50985027      -1.50561791       0.00100815      -0.00387809      -0.00073099
H       -7.90799123      -3.29914987      -0.49446315      -0.00135458      -0.00231811       0.00055882
