33
Properties=species:S:1:pos:R:3:forces:R:3 23_adduct=T (SP=-1071.42764563383,U=-1071.13319382,H=-1071.13224961,G=-1071.19420652) charge=0 spin=1 energy=-196.02259826660156 free_energy=-196.02259826660156 stress="0.0 0.0 0.0 0.0 0.0 0.0 0.0 0.0 0.0" pbc="F F F"
N       -3.35335600       0.74840204       1.01685866       0.00060582       0.00294679      -0.00121941
C       -2.06945784       0.90658994       0.57650796      -0.00512265      -0.00513300       0.00144443
C       -1.00559905       0.26240922       1.45971115       0.00093211       0.00383063       0.00101957
C        0.27910697       0.00205601       0.69562851      -0.00042371       0.00473091      -0.00172575
O       -1.78373704       1.54914579      -0.43904306       0.00430259       0.00112194      -0.00606324
S        0.07190231      -1.45990066      -0.35559474      -0.00078443      -0.00164121       0.00131465
C        1.52660631      -1.34795856      -1.40766844       0.00268187       0.00234666       0.00289729
H       -3.54194332       0.19397709       1.84453553      -0.00055479       0.00298714       0.00684230
H        0.50136906       0.86955115       0.05743956       0.00079232      -0.00250015       0.00053544
H        1.11632326      -0.14981869       1.39119280       0.00083034       0.00004856       0.00017682
H        1.50871732      -0.44191971      -2.02786522       0.00010813      -0.00099684       0.00360831
H        2.45619745      -1.36913818      -0.82133996      -0.00234725      -0.00377181      -0.00387255
H        1.50737059      -2.22647826      -2.06436804      -0.00206664      -0.00254209       0.00009680
C       -4.48092279       1.30608005       0.29897720       0.00491023      -0.00283784       0.00095807
H       -0.82142029       0.97150718       2.28632988       0.00133590       0.00308569      -0.00208226
H       -1.40726164      -0.65689221       1.91454971      -0.00257154      -0.00113423       0.00173470
H       -4.05421857       1.76029022      -0.61120855       0.00076477       0.00078498      -0.00270429
H       -4.95534329       2.11056724       0.87947332      -0.00240604       0.00377193       0.00235824
C       -5.52154164       0.26366997      -0.05612157      -0.00475198      -0.00361826      -0.00043314
C       -6.88333879       0.54753232       0.10218435       0.00038704       0.00206958       0.00055847
C       -5.13068096      -0.97374315      -0.56437511      -0.00276566      -0.00001530       0.00148583
C       -7.84160033      -0.40722077      -0.24826759       0.00049371      -0.00215358      -0.00010157
H       -7.19263667       1.51902215       0.49533735      -0.00132084      -0.00380093      -0.00087889
C       -6.09832419      -1.93198074      -0.90745399       0.00505268      -0.00055607      -0.00292590
H       -4.08206945      -1.22944869      -0.71415159       0.00233489      -0.00002955      -0.00165924
C       -7.46482480      -1.65219091      -0.75326866      -0.00003603       0.00512212       0.00716599
H       -8.90264238      -0.17751366      -0.12808360      -0.00148588      -0.00120009      -0.00083299
H       -8.21756094      -2.39155361      -1.02672556      -0.00141123      -0.00146696      -0.00040314
O       -5.58802718      -3.10532318      -1.38352970      -0.00044978      -0.00309429      -0.00159193
C       -6.47594270      -4.17151504      -1.74111047      -0.00088142       0.00466165      -0.00248037
H       -5.82625247      -4.99429254      -2.06306728      -0.00104932      -0.00025007      -0.00318874
H       -7.08571237      -4.50040431      -0.88287924       0.00263961      -0.00045100      -0.00350560
H       -7.14578639      -3.88624489      -2.56971702       0.00225725      -0.00031523       0.00347209
