24
Properties=species:S:1:pos:R:3:forces:R:3 25=T (SP=-593.271824658462,U=-593.06498823,H=-593.06404402,G=-593.11472755) charge=0 spin=1 energy=-151.2730712890625 free_energy=-151.2730712890625 stress="0.0 0.0 0.0 0.0 0.0 0.0 0.0 0.0 0.0" pbc="F F F"
N       -3.17505474       0.20887673       0.13605233       0.00022866      -0.00209488       0.00033794
C       -1.80622867       0.37552842      -0.08191666       0.00407282      -0.00173041      -0.00365496
C       -0.96592769      -0.30859859       0.94316960      -0.00506388       0.00462094       0.00151620
C        0.36472910      -0.25782222       0.85980153       0.00543529       0.00014591      -0.00225445
O       -1.35517861       1.01658987      -1.03193659      -0.00196601      -0.00467579       0.00646271
H        0.84459881       0.28320661       0.04339019      -0.00127578      -0.00027543      -0.00007242
H        1.00365209      -0.74978338       1.59536759      -0.00104564       0.00043613      -0.00036257
C       -4.23592413       0.71497302      -0.62213470       0.00664223      -0.00007918      -0.00047097
C       -5.52912933       0.24017416      -0.34103473       0.00149828       0.00004242       0.00130019
C       -6.63660884       0.71221726      -1.03676857      -0.00690085       0.00176345       0.00042023
C       -6.45660306       1.67904630      -2.04190439      -0.00060296      -0.00449008       0.00246932
C       -5.16652819       2.15690075      -2.32866445       0.00105703      -0.00040859      -0.00160663
C       -4.06629997       1.68735679      -1.62944175       0.00212559       0.00047520       0.00465205
H       -5.66570145      -0.51921449       0.43250488      -0.00051970       0.00412770      -0.00012136
H       -7.63205993       0.33318252      -0.80379959      -0.00025180      -0.00476646      -0.00110021
H       -3.05774063       2.04689710      -1.84185991      -0.00021625       0.00066583      -0.00041143
H       -3.43167147      -0.37721547       0.92650574      -0.00309794       0.00292224      -0.00115968
H       -5.06731860       2.90301192      -3.11701322       0.00004030       0.00044453      -0.00122151
H       -1.48415216      -0.84042311       1.74490781       0.00234249      -0.00176683      -0.00262767
O       -7.45198200       2.22132685      -2.79467031      -0.00555223      -0.00180051      -0.00166735
C       -8.80470591       1.79349664      -2.59448876       0.00732023      -0.00126442      -0.00336708
H       -9.40199801       2.35760841      -3.32030873      -0.00366920       0.00426316       0.00115685
H       -8.92129765       0.71362294      -2.78378996      -0.00125584       0.00263615       0.00083894
H       -9.15569418       2.01981421      -1.57421983       0.00065513       0.00080905       0.00094372
