30
Properties=species:S:1:pos:R:3:forces:R:3 25_adduct=T (SP=-1032.07259400475,U=-1031.80850624,H=-1031.80756203,G=-1031.86722496) charge=0 spin=1 energy=-179.6448974609375 free_energy=-179.6448974609375 stress="0.0 0.0 0.0 0.0 0.0 0.0 0.0 0.0 0.0" pbc="F F F"
N       -3.09006552       0.15106749       0.07768398      -0.00084299      -0.00330332      -0.00025279
C       -1.80814905       0.66246852       0.16979451       0.00202632      -0.00481498       0.00054091
C       -0.93231685      -0.07944817       1.17515330       0.00384793      -0.00497770       0.00141674
C        0.54531776       0.14836533       0.92279602       0.00241996       0.00449503       0.00090382
O       -1.41230934       1.63433629      -0.47224377       0.00418845       0.00625134      -0.00145736
S        1.07386035      -0.83909943      -0.50106668       0.00277792      -0.00029835      -0.00115590
C        2.78994504      -0.32585335      -0.66811561       0.00012374       0.00596230       0.00553739
H       -3.28896555      -0.67301023       0.63883374       0.00282091       0.00737311       0.00312800
H        0.72476747       1.21390427       0.71740157      -0.00334297      -0.00854011      -0.00038341
H        1.12428018      -0.14031249       1.81192004       0.00160182      -0.00030216       0.00070895
H        2.87272847       0.75033912      -0.87289030      -0.00141618      -0.00368777      -0.00126892
H        3.38262064      -0.57166569       0.22451290      -0.00324021      -0.00016050      -0.00677008
H        3.19833162      -0.87865078      -1.52337232      -0.00002459      -0.00301734       0.00529557
C       -4.15120136       0.61700510      -0.71580769      -0.00075853      -0.00059389      -0.00073776
C       -5.29902779      -0.18809805      -0.79879100       0.00040288       0.00348568      -0.00289846
C       -6.40453510       0.20994952      -1.54263637      -0.00100712      -0.00178272      -0.00137920
C       -6.36548659       1.43755690      -2.22633662       0.00064358      -0.00217121       0.00562058
C       -5.21886902       2.24569535      -2.14830215      -0.00807562      -0.00004300      -0.00076787
C       -4.12167702       1.84767930      -1.40051560       0.00326437      -0.00358334       0.00584669
H       -5.32440269      -1.14796570      -0.27749171       0.00607959       0.00582793       0.00324689
H       -7.28684043      -0.42866500      -1.59443003       0.00148442      -0.00228937      -0.00160223
H       -3.22613100       2.46784985      -1.33358415      -0.00616422      -0.00262386       0.00362074
H       -1.20620138       0.30420908       2.17406813      -0.00045155       0.00052939      -0.00299999
H       -5.22296648       3.18951515      -2.69399925      -0.00456858      -0.00264028      -0.00013149
H       -1.18391444      -1.15220539       1.17225974       0.00455553       0.00077988      -0.00136961
O       -7.37584147       1.94123731      -2.98742564      -0.00160938      -0.00052491      -0.00302671
C       -8.58897110       1.19302500      -3.13225193       0.00105458       0.00416628      -0.00498152
H       -9.22554672       1.79032067      -3.79552563      -0.00470611       0.00238790       0.00383183
H       -8.40623958       0.20667239      -3.58969104      -0.00127475       0.00301742      -0.00416897
H       -9.09647237       1.05165169      -2.16347469       0.00019068       0.00107841      -0.00434558
