26
Properties=species:S:1:pos:R:3:forces:R:3 2_carbanion=T (SP=-1009.306036415135,U=-1009.0905738,H=-1009.08962959,G=-1009.14671959) charge=-1 spin=1 energy=-165.01541137695312 free_energy=-165.01541137695312 stress="0.0 0.0 0.0 0.0 0.0 0.0 0.0 0.0 0.0" pbc="F F F"
C        2.24179439      -1.23837056      -0.05209594      -0.00029011       0.00050503      -0.00114092
H        2.59089708      -0.19850171      -0.00478417       0.00394170       0.00225170       0.00351557
H        2.24326620      -1.57646056      -1.09635619      -0.00200576       0.00104651      -0.00250843
S        0.61200856      -1.41512919       0.70207539      -0.00288419      -0.00196886      -0.00025721
C       -2.66348924      -1.23802802      -0.76813020       0.00046697      -0.00610409       0.00709248
O       -2.23472600      -1.73668088      -1.82644873      -0.00171700       0.00036097       0.00045911
C       -1.80821007      -0.43427881       0.08370780       0.00433892       0.00118220      -0.00496492
C       -0.37952165      -0.26802750      -0.34766517      -0.00462257      -0.00347374      -0.00093102
H       -0.33340198      -0.65399215      -1.38006791       0.00426050      -0.00301634       0.00252521
C        0.11999915       1.16775473      -0.28293225      -0.00093096       0.00307289      -0.00032956
C        0.23921093       1.90747974      -1.46782320       0.00317873      -0.00168487      -0.00208288
C        0.39215287       1.79715880       0.93985684       0.00284729      -0.00409940       0.00096676
C        0.63015971       3.25094642      -1.43045998      -0.00242181       0.00717066       0.00548097
H        0.01547779       1.42618641      -2.42160121       0.00154369       0.00310037      -0.00195059
C        0.77576197       3.14054727       0.97599866      -0.00526362       0.00006799       0.00096506
H        0.29812984       1.21797738       1.86007949       0.00369675      -0.00315207      -0.00274423
C        0.89687537       3.87085192      -0.20982255       0.00028354      -0.00124055      -0.00748465
H        0.72294303       3.81115030      -2.36404595      -0.00370996      -0.00104523       0.00018144
H        0.97681942       3.61559491       1.93884531      -0.00013103      -0.00036103       0.00103757
H        1.19834981       4.92108154      -0.18047654       0.00402190       0.00443980      -0.00089877
C       -2.30515321       0.14484868       1.24067032      -0.00346812       0.00346442       0.00123940
N       -2.73172231       0.63607068       2.22483175      -0.00325553      -0.00104170      -0.00044724
N       -3.96398648      -1.42933820      -0.36598406      -0.00330409      -0.00047127      -0.00306276
H       -4.55999674      -1.97670559      -0.97507032       0.00326974       0.00381222       0.00551721
H       -4.33529502      -1.01970600       0.48459043       0.00425085      -0.00146788      -0.00220024
H        2.92873150      -1.86897973       0.52566139      -0.00209562      -0.00134753       0.00202314
