32
Properties=species:S:1:pos:R:3:forces:R:3 30_carbanion=T (SP=-1142.151209205594,U=-1141.88137982,H=-1141.88043561,G=-1141.94280162) charge=-1 spin=1 energy=-202.50091552734375 free_energy=-202.50091552734375 stress="0.0 0.0 0.0 0.0 0.0 0.0 0.0 0.0 0.0" pbc="F F F"
N       -3.18297054       0.05611074      -0.09861028      -0.00209319       0.00383456      -0.00090621
C       -1.88676607       0.60861351       0.06391667      -0.00302216      -0.00860634       0.00156122
C       -1.00287039      -0.17146586       0.85355818      -0.00407586       0.00379901      -0.00193955
C        0.37200090       0.34677329       0.98456494      -0.00115314       0.00076407       0.00448015
O       -1.57781845       1.69792408      -0.47535291       0.00102698       0.00012187       0.00125130
S        1.34518826      -0.69782023      -0.17820658       0.00561841      -0.00230400      -0.00211767
C        3.03757110      -0.17974479       0.17063126       0.00086626       0.00460497       0.00057734
H        0.42745143       1.39683232       0.66556067       0.00037727       0.00258222      -0.00110747
H        0.80195801       0.19528069       1.98589528      -0.00078291      -0.00055060      -0.00028250
H        3.18875807       0.88537241      -0.04667177       0.00337420      -0.00023022       0.00331146
H        3.32025274      -0.38279792       1.21174883       0.00111414       0.00051212       0.00156976
H        3.68521638      -0.76910600      -0.49043130       0.00197481      -0.00006059      -0.00103550
H       -3.32482115      -0.86914369       0.29282158      -0.00098238      -0.00200364       0.00214425
C       -1.39708742      -1.45699812       1.50766657       0.00178505      -0.00167486      -0.00834867
H       -2.13120986      -1.32735191       2.32227169      -0.00496514       0.00271506       0.00296099
H       -1.84379266      -2.18883030       0.81192665       0.00453632      -0.00702794      -0.00107577
H       -0.50269706      -1.92598745       1.93592654       0.00106527      -0.00014883       0.00094882
C       -4.23705290       0.58089458      -0.82828154       0.00630058      -0.00179400       0.00680044
C       -5.29803649      -0.26328378      -1.18649635      -0.00466616      -0.00307038       0.00174128
C       -4.28524472       1.96067785      -1.19615724      -0.00494108      -0.00156963      -0.00641235
C       -6.40264487       0.22586883      -1.90978072      -0.00282735       0.00741932      -0.00210936
C       -5.35610469       2.44995319      -1.90706407       0.00000051       0.00024495       0.00096778
H       -3.43477474       2.58114991      -0.90268406       0.00090197       0.00043035       0.00019695
C       -7.53138843      -0.54836256      -2.32988804       0.00372128       0.00215912      -0.00111963
C       -6.43922017       1.60707002      -2.28701347      -0.00110611      -0.00001234      -0.00030843
H       -5.42138072       3.49575740      -2.21138537       0.00199622      -0.00075471      -0.00041066
C       -8.47627426       1.28275572      -3.32659657      -0.00588131       0.00065650      -0.00413394
H       -9.30837533       1.69751751      -3.89813920       0.00055867       0.00111285       0.00306368
N       -8.53896890      -0.04088744      -3.01647134      -0.00035116      -0.00042959       0.00218935
N       -7.48170315       2.10228963      -2.98957935      -0.00330046       0.00035782       0.00107121
H       -5.26548783      -1.32086178      -0.91827500       0.00196091      -0.00153418      -0.00073534
H       -7.58228599      -1.61355892      -2.08259066       0.00296937       0.00045684      -0.00279301
