32
Properties=species:S:1:pos:R:3:forces:R:3 5_adduct_syn=T (SP=-1088.235892384227,U=-1087.96275984,H=-1087.96181563,G=-1088.02217515) charge=0 spin=1 energy=-205.0237274169922 free_energy=-205.0237274169922 stress="0.0 0.0 0.0 0.0 0.0 0.0 0.0 0.0 0.0" pbc="F F F"
C       -1.37229519       2.25329322      -0.22120289      -0.00339715      -0.00425956      -0.00749430
H       -2.36267187       1.77884125      -0.19166532       0.00504500       0.00123250      -0.00009810
H       -1.08470438       2.43496748      -1.26538732      -0.00492338       0.00125066       0.00715008
S       -0.14156021       1.26015556       0.64274561       0.00005763       0.00265056       0.00151481
C        0.89315305      -1.25758378       0.10216817      -0.00012772      -0.00182363       0.00059760
C       -0.22721265      -0.25943329      -0.36503555      -0.00459444      -0.00254766      -0.00489689
H        0.03772042       0.00665031      -1.40037662       0.00357809      -0.00377966       0.00332905
C       -1.59349693      -0.92714362      -0.37860963       0.00425544       0.00008496       0.00332503
C       -2.07322176      -1.49078621      -1.56974994       0.00343180      -0.00257698      -0.00491229
C       -2.36049292      -1.05820438       0.78909731       0.00354736       0.00271276      -0.00167632
C       -3.29970955      -2.16210390      -1.59835493       0.00402162       0.00100245      -0.00158924
H       -1.48669078      -1.39758978      -2.48641694       0.00098750       0.00235199       0.00115454
C       -3.58392414      -1.73358392       0.75965412       0.00133799       0.00107118       0.00278077
H       -1.99061499      -0.61931999       1.71719622       0.00134775      -0.00076845       0.00228450
C       -4.05711032      -2.28567036      -0.43384734      -0.00191239      -0.00474781       0.00154667
H       -3.65706689      -2.58720365      -2.53949974       0.00084180       0.00149344       0.00183141
H       -4.16444974      -1.82700743       1.68011856      -0.00111049       0.00184613      -0.00387058
H       -5.01590241      -2.81153932      -0.45487990      -0.00151864       0.00193162      -0.00052816
C        2.29884710      -0.69732108      -0.13923494      -0.00082728       0.00147285      -0.00010335
C        2.76589265      -0.59649885      -1.45418121       0.00649998      -0.00093094      -0.00604311
C        3.12769699      -0.25260191       0.89779047      -0.00272676      -0.00198980       0.00125644
C        4.04314791      -0.06331516      -1.67947646      -0.00552504       0.00034661      -0.00422871
H        2.16564970      -0.93846333      -2.30177729      -0.00325543      -0.00270987       0.00071874
C        4.38839733       0.26645122       0.56695385      -0.00032848       0.00314094       0.00228292
H        2.81521945      -0.31426017       1.94236201       0.00187253       0.00193214       0.00120041
N        4.84450721       0.36306069      -0.69259840      -0.00074956      -0.00083563      -0.00020497
H        4.45337219       0.03272869      -2.68912139      -0.00064506      -0.00259906       0.00143534
H        5.07859997       0.62415952       1.33618161      -0.00292110       0.00104043       0.00075680
C        0.69733513      -1.69347352       1.48414604       0.00157331       0.00143386       0.00182068
N        0.52183313      -2.04301132       2.58319508       0.00029770       0.00214066      -0.00037387
H        0.77715549      -2.14900753      -0.54538933      -0.00358568      -0.00240743      -0.00311257
H       -1.42386493       3.21576775       0.30169957      -0.00054716       0.00284106       0.00414647
