12
Properties=species:S:1:pos:R:3:forces:R:3 9=T (SP=-306.661485261095,U=-306.55917939,H=-306.55823518,G=-306.59587082) charge=0 spin=1 energy=-70.73461151123047 free_energy=-70.73461151123047 stress="0.0 0.0 0.0 0.0 0.0 0.0 0.0 0.0 0.0" pbc="F F F"
C        0.01487214       0.13686353       0.09769665       0.00017005       0.00209326      -0.00753380
C        1.46972575      -0.15552952      -0.02794283       0.00331208       0.00296530       0.00379252
C        2.34956802       0.83994172       0.08765098       0.00917163       0.00317153      -0.00079155
H        1.72356283      -1.20057082      -0.21529440      -0.00012955      -0.00323585      -0.00052864
H        3.42410649       0.67092082       0.00066955      -0.00375590      -0.00512330       0.00104654
H        2.00671213       1.85874517       0.27269034       0.00205107       0.00501037      -0.00061084
O       -0.70171216      -1.01647452      -0.05179605      -0.00585432       0.00156020      -0.00094092
O       -0.49151332       1.22980703       0.29981721       0.00246455       0.00301708       0.00324460
C       -2.13490796      -0.88921846       0.03512779      -0.00290933      -0.00094425      -0.00098249
H       -2.53184398      -1.90109422      -0.10959305      -0.00025994       0.00161785       0.00399861
H       -2.42482046      -0.49330374       1.01943271      -0.00025416      -0.00710461      -0.00297470
H       -2.50635960      -0.20973580      -0.74592439      -0.00400611      -0.00302726       0.00228070
