25
Properties=species:S:1:pos:R:3:charge:R:1:forces:R:3 energy=-24950.591517176596 pbc="F F F"
C       -4.10541120      -0.74678666       0.67874771      -0.22164984       0.00126357      -0.00342065       0.00188431
C       -3.66184400       0.37696093       1.36237048      -0.17676292      -0.00076259      -0.00058730       0.00104199
C       -2.39934541       0.88863289       1.13256133      -0.18841451       0.00155678      -0.00183328       0.00299639
C       -1.52416011       0.29311745       0.20380073       0.21136758      -0.00057929       0.00383116      -0.00281360
C       -1.97564341      -0.84796769      -0.48326973      -0.13759924       0.00212270      -0.00198727       0.00579570
C       -3.24546649      -1.34212037      -0.23767121      -0.16163646      -0.00004819      -0.00234037      -0.00080029
N       -0.28821053       0.85618143       0.01113004      -0.38404575      -0.00008543       0.00229614      -0.00037266
C        0.81969427       0.44525554      -0.82761676       0.31475729       0.00457599       0.00017684       0.00675998
O        0.68967891      -0.60604948      -1.49459363      -0.50812340       0.00611676       0.00574117       0.00024826
C        1.91672449       1.28686613      -0.76216373      -0.47542983       0.00274347       0.00042966      -0.00419471
C        3.16808101       0.95861213      -1.46787196      -0.11252397       0.00393440       0.00081140      -0.00192033
H       -4.30622576       0.86208757       2.08532644       0.11177158      -0.00192713       0.00295114       0.00051078
H       -2.06863941       1.76569603       1.67758861       0.10709103      -0.00118100       0.00359275      -0.00431771
H       -1.30432847      -1.30632360      -1.18792669       0.12439789      -0.00173214       0.00434005       0.00028987
H       -3.57136938      -2.22096351      -0.77991468       0.11050018       0.00168991      -0.00352531      -0.00326857
H       -0.09086846       1.67591066       0.55119358       0.23713851      -0.00211472      -0.00270374       0.00791644
H        1.94393019       2.10965039      -0.05710988       0.10626218      -0.00271963      -0.00040719      -0.00852984
H        3.64926058       1.82287928      -1.92727947       0.07170032      -0.00038109       0.00597387       0.00046409
H        2.98921760       0.21368197      -2.24695188       0.08572577      -0.00072435      -0.00335715       0.00250386
H       -5.09275307      -1.14851668       0.85688455       0.11805691      -0.00105834      -0.00168202      -0.00099310
S        4.52376626       0.25672497      -0.40329393      -0.30712005       0.00112810       0.00004812      -0.00015341
C        3.61784405      -1.18575364       0.17927529      -0.19644669      -0.00357998      -0.00038525      -0.00389158
H        3.27331493      -1.78190870      -0.66157214       0.08526855      -0.00245713      -0.00686358       0.00082707
H        4.27954679      -1.78210190       0.80687723       0.09337517      -0.00761227      -0.00161120      -0.00048513
H        2.75002085      -0.86134497       0.74611051       0.09233970       0.00183110       0.00051185       0.00050175
