23
Properties=species:S:1:pos:R:3:charge:R:1:forces:R:3 energy=-14096.031777669676 pbc="F F F"
C       -4.10596479      -0.09987993      -0.65311895      -0.21990117       0.00043045       0.00219546      -0.00022994
C       -2.62156876      -0.10580704      -0.40481502       0.03302345      -0.00071633      -0.00822999      -0.00032085
C       -1.78721211      -0.97868036      -1.09484011      -0.14984986      -0.00113986      -0.00332436      -0.00030720
C       -0.42000334      -0.96546082      -0.88962361      -0.17852208      -0.00285382      -0.00730769      -0.00035147
C        0.15142740      -0.07845084       0.01780154       0.10897648      -0.00453640      -0.00303938      -0.00452789
C       -0.66699057       0.80029733       0.71785724      -0.13169113      -0.00088051      -0.00701971       0.00374574
C       -2.03613680       0.77268637       0.49818191      -0.14623098      -0.00182672       0.00141780      -0.00576314
N        1.55602389      -0.10904544       0.15443206      -0.32981542      -0.00188438      -0.00071266      -0.00424444
C        2.33217267       0.51285195       1.09460788       0.46833900      -0.00079228      -0.00099862      -0.00588700
O        1.90220241       1.17662950       2.01580882      -0.46076936       0.00209379       0.00125929       0.00393216
C        3.81218369       0.31902245       0.93444374      -0.14984535      -0.00028555       0.00141125       0.00447411
C        4.43806881      -0.03497007      -0.17987967      -0.28078282       0.00031339      -0.00253432      -0.00024746
H       -4.65219683       0.19326041       0.24037717       0.07942487       0.00345477       0.00317893       0.00580843
H       -4.36553141       0.60451608      -1.44391849       0.08255666      -0.00276956       0.00006706      -0.00220479
H       -4.45297992      -1.08373755      -0.96059999       0.07932042       0.00137130       0.00374823       0.00064711
H       -2.21014577      -1.68133275      -1.80030586       0.12968731       0.00301385       0.00352424       0.00148014
H        0.21539582      -1.65108972      -1.43657246       0.12861758       0.00056964       0.00302129       0.00155694
H       -0.23192433       1.48515716       1.42273656       0.14114460       0.00060441       0.00379051       0.00129365
H       -2.66379572       1.45737068       1.05303038       0.12926236       0.00059820       0.00382569       0.00250069
H        2.02246368      -0.77538084      -0.43232131       0.25509888      -0.00012147      -0.00233298      -0.00494146
H        4.35732103       0.55030439       1.83751586       0.12578711      -0.00056955       0.00321972       0.00407931
H        5.51301307      -0.13529050      -0.21838507       0.15052758      -0.00086619       0.00112401       0.00344835
H        3.90780268      -0.20981167      -1.10601004       0.13564187       0.00679338       0.00371610      -0.00394093
