28
Properties=species:S:1:pos:R:3:charge:R:1:forces:R:3 energy=-26473.894402974714 pbc="F F F"
C       -3.50870849       0.62965778       0.13522316      -0.15110275      -0.00302173      -0.00368503      -0.00042440
C       -2.13661032       0.69133815      -0.04682686      -0.11579712      -0.00296206       0.00222955       0.00461974
C       -1.38504853      -0.47848014      -0.01856210       0.10187691      -0.00387441       0.00043270       0.00418563
N        0.02019920      -0.51776846      -0.17871052      -0.36029944       0.00125671       0.00139389       0.00930456
C        0.86996268       0.47916933      -0.55379166       0.41870889       0.00203022      -0.00448674      -0.00418583
O        0.51864390       1.61246804      -0.80613985      -0.42969182      -0.00280682       0.00079933      -0.00288820
C        2.32666262       0.04328513      -0.64981829      -0.13122773       0.00464408       0.00149429       0.00136053
C        3.21696297       1.21260603      -1.02289003      -0.09965996       0.00305028       0.00140076      -0.00053406
S        4.96302552       0.77442559      -1.17236956      -0.21339118      -0.00293377       0.00076075      -0.00623817
C        5.39074086       0.65716715       0.57854470      -0.20086451      -0.00336865      -0.00279846      -0.00645654
C       -2.03254963      -1.69031440       0.19747027      -0.16193625      -0.00324834       0.00080821       0.00147740
C       -3.40337874      -1.74636746       0.37546789      -0.15987194       0.00050922       0.00449474       0.00255510
C       -4.16433228      -0.58099662       0.33955833       0.11823060      -0.00119352      -0.00093857      -0.00351344
N       -5.54522945      -0.61924105       0.57207535      -0.67566139       0.00450318      -0.00036190      -0.00197977
H       -4.08556519       1.54549603       0.12110832       0.13142629       0.00016942      -0.00636664       0.00158543
H       -1.64845347       1.63632833      -0.20649580       0.13114630      -0.00262583       0.00167346      -0.00259608
H        0.43503176      -1.41887337      -0.02467287       0.26118600       0.00393501       0.00141862      -0.00593314
H        2.40340581      -0.74782927      -1.39789500       0.07617005      -0.00277725       0.00169851       0.00294992
H        2.62753889      -0.40072989       0.30104721       0.06796543       0.00001576      -0.00325418       0.00244617
H        2.90696966       1.61470552      -1.98187534       0.11077199       0.00400056       0.00080429      -0.00154875
H        3.10271986       2.01320189      -0.29690962       0.09778167      -0.00564157       0.00154799      -0.00273944
H        4.91769818      -0.19806419       1.05434337       0.08735011      -0.00369499       0.00154115       0.00736731
H        6.46943305       0.53695492       0.63684049       0.11490633      -0.00131860      -0.00250951       0.00283158
H        5.10842659       1.56638014       1.10403265       0.09226464       0.00221831      -0.00418105       0.00264228
H       -1.44720663      -2.60144039       0.22510359       0.12520751       0.00040934       0.00031679      -0.00412994
H       -3.89142003      -2.69665986       0.54882222       0.13237150       0.00550255       0.00503250      -0.00103668
H       -6.04981333       0.15655827       0.17716835       0.31557408       0.00127417      -0.00324710       0.00114464
H       -5.97958799      -1.49478623       0.33307179       0.31656581       0.00594783       0.00398078      -0.00026575
