63
Properties=species:S:1:pos:R:3:charge:R:1:forces:R:3 energy=-64279.418572980176 pbc="F F F"
Cl       4.60943180       2.08529294      -4.25434970      -0.11060584       0.00538138      -0.00025584      -0.00490134
C        3.95703291       1.43553344      -2.77477598      -0.08129601      -0.00481574       0.00278654      -0.00219736
C        4.75853964       1.01049838      -1.71065835       0.18063453      -0.00430880      -0.00031653      -0.00061747
N        4.15064718       0.45923479      -0.65972865      -0.35012349       0.00019822       0.00146902       0.00386711
C        2.81479130       0.39478445      -0.62928964       0.44462338      -0.00124102       0.00016284      -0.00053751
N        1.98822317       0.79939621      -1.60164516      -0.36887449      -0.00461039       0.00404336       0.00253873
C        2.58783185       1.30683577      -2.66297287       0.04289173      -0.00366558      -0.00239875       0.00055893
N        2.34411052      -0.14256117       0.52009212      -0.30850416       0.00220610      -0.00367696      -0.00192133
C        1.04319731      -0.43897089       0.95753723       0.08512158      -0.00016077      -0.00288877      -0.00248856
C        0.95086549      -1.03981302       2.22370986       0.07795597      -0.00006230      -0.00071187       0.00143160
C       -0.28209258      -1.37878255       2.73854479      -0.20371337      -0.00353544      -0.00077190       0.00269976
C       -1.45245791      -1.13020600       2.02660675      -0.17216820      -0.00242633       0.00510047      -0.00021022
C       -1.37771232      -0.52295538       0.77513297       0.13427858      -0.00337783      -0.00119372      -0.00196958
C       -0.10933734      -0.18572059       0.25221864      -0.18157381      -0.00251113       0.00390622       0.00041269
N       -2.47510728      -0.21881591       0.00798955      -0.37337682      -0.00231461      -0.00556978       0.00216005
C       -3.86063706      -0.50397202       0.24350638       0.31621316       0.00218085       0.00429482      -0.00108722
O       -4.19515134      -0.93849951       1.36387903      -0.46309152      -0.00145289       0.00731542      -0.00408518
C       -4.70372668      -0.25895644      -0.83773219      -0.46390620       0.00217206      -0.00497694      -0.00018861
C       -6.13060894      -0.60343614      -0.76844810      -0.02912038       0.00248011      -0.00324363       0.00110828
C       -7.05106277       0.45964185      -1.36911218      -0.04590898      -0.00049911       0.00446091       0.00124937
N       -7.44741622       1.46008858      -0.38249639      -0.26862189      -0.00150630       0.00531911       0.00179460
C       -8.35256327       2.42470743      -0.97509859      -0.14903107      -0.00187605       0.00191771      -0.00214965
C       -6.31774635       2.13256495       0.23810410      -0.12533122       0.00306044       0.00021911       0.00078508
O        2.15830341      -1.25232042       2.85457840      -0.23102790       0.00525340      -0.00280503       0.00005899
C        2.10525360      -1.66405319       4.20026133      -0.07754569       0.00022017       0.00015274      -0.00062138
C        6.20645606       1.11347803      -1.66916955       0.00522200      -0.00086707       0.00086654      -0.00058692
C        6.98994977       0.41799892      -0.74149902       0.13848539       0.00098028       0.00068730       0.00133590
N        8.28929410       0.78644879      -0.99140317       0.14162199       0.00335994       0.00600637      -0.00188400
N        8.38658798       1.67409617      -1.99628043      -0.40532896       0.00594730       0.00152574      -0.00474146
C        7.14435758       1.87121610      -2.40255658      -0.01698598       0.00345148       0.00212763       0.00199654
C        9.36807104       0.30827488      -0.29604371      -0.05283258      -0.00037753       0.00171605      -0.00222338
C        9.14904281      -0.57840196       0.69955297      -0.17791076       0.00184536       0.00069828      -0.00179655
C        7.82512561      -0.99274607       1.00781944      -0.14529164       0.00160988       0.00115517       0.00288117
C        6.76078728      -0.50762137       0.30809332      -0.14619766      -0.00264432      -0.00518938       0.00034776
H        1.95554894       1.63392925      -3.47733689       0.07536858       0.00311854      -0.00041326       0.00223714
H        3.06471483      -0.39964489       1.16955992       0.26001480       0.00078611      -0.00210669       0.00348922
H       -0.36346682      -1.84667790       3.70730665       0.12312416      -0.00209838      -0.00615973       0.00477689
H       -2.41749127      -1.39351936       2.41650063       0.12926686      -0.00188194       0.00328877       0.00038173
H       -0.02543699       0.28311066      -0.71427306       0.11747240       0.00196102      -0.00165194      -0.00318233
H       -2.27820538       0.11811078      -0.91583527       0.24742626      -0.00263950       0.00043999       0.00879726
H       -4.33350697       0.08854950      -1.79418599       0.11265581      -0.00233135       0.00161849       0.00204665
H       -6.42996331      -0.78188849       0.26969464       0.11959314      -0.00454829      -0.00099379       0.00137534
H       -7.96416563      -0.01028961      -1.73551647       0.07311618      -0.00276549      -0.00234455       0.00447876
H       -6.54687685       0.92286102      -2.23418458       0.05796553       0.00015650       0.00075341      -0.00807416
H       -8.75942918       3.07800265      -0.20166642       0.07410817       0.00605297      -0.00383608       0.00146995
H       -7.86573220       3.06296021      -1.73139929       0.05321220       0.00264157      -0.00437622      -0.00068512
H       -9.18844612       1.91470655      -1.45236603       0.07185647       0.00139258      -0.00168489      -0.00457059
H       -5.66485021       2.61980256      -0.50398361       0.05147559       0.00156925      -0.00164608       0.00208825
H       -5.71239722       1.42525180       0.79379422       0.08171059       0.00339335      -0.00078128      -0.00081896
H       -6.68732625       2.89633309       0.92511004       0.07557516       0.00202495      -0.00304721      -0.00063355
H        1.53999666      -0.96016487       4.81262149       0.07015789       0.00091401      -0.00043011       0.00128112
H        1.67414899      -2.66137100       4.30174754       0.07093047       0.00194315      -0.00056661       0.00297788
H        3.13620940      -1.68974082       4.54330971       0.08241532      -0.00183485      -0.00139629       0.00142124
H        6.97716546       2.57128385      -3.19902594       0.10694377       0.00243088      -0.00334113      -0.00084147
H       10.33023124       0.68624026      -0.60455662       0.12751463      -0.00178426       0.00204896      -0.00348918
H        9.98800597      -0.96678528       1.25704371       0.13051820      -0.00271599      -0.00006742       0.00269411
H        7.67113882      -1.69969191       1.80927685       0.12419625      -0.00237023      -0.00199102      -0.00211649
H        5.73668370      -0.78347891       0.50660982       0.12226507      -0.00948286      -0.00057807      -0.00138374
S       -6.56229219      -2.19136776      -1.65805995      -0.26116136       0.00047669      -0.00350858       0.00143636
C       -5.43572585      -3.27638551      -0.77176453      -0.20053740      -0.00078421       0.00463044      -0.00293984
H       -5.58300542      -4.28917995      -1.14727309       0.11057193       0.00547939       0.00162551       0.00187522
H       -4.41382614      -2.94922627      -0.94228159       0.08561382      -0.00046740       0.00199254      -0.00075096
H       -5.62892264      -3.25240001       0.29842453       0.08794998       0.00326976       0.00259072      -0.00435877
