42
Properties=species:S:1:pos:R:3:charge:R:1:forces:R:3 energy=-34399.898029174845 pbc="F F F"
N        2.29974307       0.00927020      -0.56003061      -0.33428341      -0.00148789       0.00430086      -0.00162742
C        0.89262564       0.16860074      -0.96341915       0.07825065      -0.00132742       0.00140940      -0.00227161
C        0.08235225      -0.67675954       0.06376778       0.00813901      -0.00011066       0.00050135      -0.00073150
O        0.52216717      -2.01312435       0.03495991      -0.41130480      -0.00157694      -0.00048797      -0.00365183
C       -1.41998622      -0.65450221      -0.14681371       0.03532792      -0.00023066       0.00007620       0.00380382
C       -2.20525664       0.34961360       0.39594043      -0.15188155      -0.00114482       0.00149559      -0.00128993
C       -3.58271223       0.37209904       0.19305390       0.18843612      -0.00014018       0.00365996      -0.00180464
C       -4.19306008      -0.63125230      -0.54372219      -0.18644771       0.00243396       0.00278920      -0.00349937
C       -3.40142729      -1.65291371      -1.06868514      -0.16821451       0.00002257      -0.00297162       0.00417484
C       -2.03456145      -1.67119488      -0.87480832      -0.15173696       0.00007967       0.00023365       0.00131345
O       -4.25328547       1.43225855       0.75269684      -0.26144233      -0.00316812       0.00063965       0.00259336
C       -5.63319364       1.51868344       0.48911788      -0.08275126      -0.00119097      -0.00228212       0.00093878
C        0.48511668       1.63908676      -0.89228592      -0.21832405       0.00158250       0.00017127      -0.00190172
C        0.67352231      -0.37218330      -2.37436146      -0.22229990       0.00177227      -0.00110985       0.00069941
C        3.33283902       0.53711393      -1.24276660       0.46189982       0.00034520      -0.00052458       0.00219067
O        3.21138117       1.29440988      -2.20477873      -0.51749903      -0.00416309       0.00107187      -0.00045332
C        4.72765877       0.19379304      -0.81476910      -0.15972193       0.00373283      -0.00079132       0.00106303
C        5.12038800      -0.70727224       0.07374401      -0.29834849      -0.00112784      -0.00015028       0.00160527
H        2.45919804      -0.51579307       0.30119941       0.22995262      -0.00042010      -0.00091109      -0.00113964
H        0.29031088      -0.24186550       1.04672425       0.09339773       0.00020850      -0.00112676       0.00020236
H        1.07085462      -2.14851545       0.83801015       0.25660339      -0.00065189      -0.00057076       0.00097602
H       -1.76360891       1.14181248       0.98609465       0.11351252       0.00032250       0.00014093      -0.00137927
H       -5.25825959      -0.63679267      -0.71309606       0.12375692       0.00141339       0.00040605       0.00179092
H       -3.87394010      -2.44266537      -1.63656382       0.12592871      -0.00118730      -0.00188287      -0.00101849
H       -1.42389207      -2.47186342      -1.26108468       0.11886369       0.00066261       0.00274609       0.00291902
H       -5.98012505       2.43092013       0.96708606       0.08475818       0.00101467      -0.00277626       0.00042568
H       -5.83667285       1.57807248      -0.58195803       0.06944466      -0.00240990       0.00252445       0.00374118
H       -6.17923164       0.67045190       0.90685071       0.06929054       0.00369775      -0.00346557      -0.00189812
H       -0.56448509       1.75571788      -1.15673968       0.07482196       0.00467606       0.00216880      -0.00453224
H        0.63821550       2.02430059       0.11516698       0.06051799       0.00009302      -0.00179493      -0.00186565
H        1.09464596       2.22286749      -1.57630942       0.08633033       0.00218359      -0.00092957      -0.00102254
H        0.95110309      -1.42059625      -2.40962381       0.07435139       0.00079416      -0.00014043       0.00083210
H        1.28119463       0.18384429      -3.08151183       0.08481213       0.00361119      -0.00139300       0.00362366
H       -0.37554452      -0.27927118      -2.64980666       0.07499841       0.00396569      -0.00095654      -0.00056566
H        5.45890778       0.77564454      -1.35862293       0.10921412      -0.00283390       0.00038876      -0.00146865
H        6.18176088      -0.84915387       0.23022896       0.13304333      -0.00383274       0.00056103       0.00192196
H        4.45590212      -1.32083741       0.66825363       0.14162144      -0.00534328      -0.00059906      -0.00560404
S        2.43628792      -1.59093835       2.50101651      -0.70782596      -0.00064931       0.00093926      -0.00061677
C        2.55424669       0.20306969       2.78261826      -0.27827603       0.00029844      -0.00186392       0.00102631
H        3.42829775       0.63173250       2.28762132       0.08419018       0.00196549       0.00293732      -0.00113546
H        2.63603094       0.42158080       3.84547267       0.09955577      -0.00178489      -0.00410033       0.00384308
H        1.67073069       0.72657700       2.40954717       0.06933848      -0.00009364       0.00166669      -0.00020671
