32
Properties=species:S:1:pos:R:3:charge:R:1:forces:R:3 energy=-40424.15372478033 pbc="F F F"
C       -1.97193762      -1.48894023      -1.82307084      -0.24839720       0.00048546       0.00087583      -0.00186367
S       -0.51719467      -1.24856128      -2.70781929       0.05050019      -0.00484052      -0.00187994       0.00780947
C        0.07755167      -0.34562431      -1.35502498       0.25851974       0.00522555      -0.00099545       0.00040446
N        1.33212761       0.23697460      -1.31189534      -0.29518363      -0.00344123      -0.00597454       0.00044590
C        2.23890936       0.11800017      -2.31922234       0.38957289      -0.00010885      -0.00803513       0.00008419
O        1.96910961      -0.50195086      -3.32812636      -0.40214470      -0.00040766       0.00602381      -0.00215249
C        3.58039652       0.78257112      -2.08339594      -0.13136466      -0.00120668      -0.00093635      -0.00141516
C        4.32843140       0.23944087      -0.86418454      -0.11271238      -0.00304865      -0.00054665      -0.00079841
S        3.77250671       0.84238897       0.75101738      -0.17250633      -0.00222378      -0.00205379      -0.00204031
C        4.24815234       2.57370341       0.61060858      -0.18329200       0.00145245       0.00051537       0.00252009
N       -0.72765903      -0.23511407      -0.35147040      -0.36599502       0.00077612      -0.00190610       0.00294383
C       -1.91649546      -0.89340193      -0.60414052       0.14875592       0.00576863      -0.00045886       0.00085178
C       -2.97903530      -0.89414986       0.42430948       0.05483086       0.00405195      -0.00165052      -0.00364399
C       -4.15847750      -1.61854868       0.26368408      -0.15066253      -0.00079291       0.00387878       0.00289090
C       -5.14044099      -1.59870188       1.24220734      -0.13751201      -0.00198303      -0.00508011       0.00005203
C       -4.96257694      -0.85446770       2.39839154      -0.14643139      -0.00465515       0.00649417       0.00101131
C       -3.79117854      -0.13175162       2.56985611      -0.14604101       0.00220697      -0.00486825       0.00384916
C       -2.80855802      -0.15367755       1.59393031      -0.12845857      -0.00630491       0.00673444      -0.00093913
H       -2.79261512      -2.04515325      -2.23647748       0.16549841       0.00080676       0.00268032       0.00221228
H        1.58295894       0.67143054      -0.43309642       0.23893137       0.00272815       0.00683975      -0.00120147
H        4.16872639       0.59585966      -2.97436837       0.09689856       0.00807491       0.00018919      -0.00562924
H        3.43892834       1.85765275      -1.98345884       0.06905565       0.00360143       0.00371920      -0.00514841
H        5.38398695       0.48694554      -0.94060894       0.09552645      -0.00112925       0.00167941       0.00304024
H        4.24825853      -0.84395819      -0.83763292       0.10849681       0.00076723      -0.00534517       0.00056632
H        5.30256447       2.66495548       0.36726126       0.09488768       0.00233607       0.00026073      -0.00885401
H        4.06980730       3.03537511       1.57727424       0.12050117      -0.00140580       0.00137910       0.00530493
H        3.65501379       3.08983526      -0.13851887       0.08049258      -0.00014249       0.00566314       0.00442387
H       -4.32714212      -2.21232439      -0.62351433       0.12153585       0.00059750       0.00127607      -0.00103622
H       -6.04681061      -2.16796837       1.09874035       0.13505574      -0.00669735      -0.00258166      -0.00292289
H       -5.73072082      -0.83884920       3.15719356       0.13665478       0.00350042      -0.00428076      -0.00096392
H       -3.64071259       0.44950597       3.46792144       0.13586198      -0.00001995       0.00173143      -0.00032077
H       -1.89345495       0.40214763       1.72397361       0.11912496      -0.00397209      -0.00334721       0.00051927
