31
Properties=species:S:1:pos:R:3:charge:R:1:forces:R:3 energy=-40408.64097586483 pbc="F F F"
S       -0.23164001       1.70493194      -0.83550629      -0.06587795      -0.00526093       0.00345393       0.00026637
C       -0.24809893       0.00743556      -0.42309849       0.31023654       0.00414278      -0.00294458      -0.00405189
N        0.88053732      -0.46883580       0.03527864      -0.41666231       0.00232222      -0.00555429       0.00401248
C        1.83950982       0.52425048       0.07379782       0.17664954       0.00155067      -0.00180767       0.00290588
C        1.42443303       1.74775675      -0.35195230      -0.27879772       0.00248526      -0.00200491       0.00069442
C        3.19363366       0.19143077       0.56239223       0.08925568      -0.00141589       0.00000487       0.00362587
C        4.24270234       1.11125832       0.55669400      -0.15807578      -0.00436652       0.00156429      -0.00086370
C        5.49968115       0.76343494       1.02917922      -0.15843305      -0.00414548       0.00123400       0.00237219
C        5.73797040      -0.51144921       1.52070624      -0.17235512       0.00084542      -0.00173220      -0.00192711
C        4.70360435      -1.43741435       1.52853219      -0.16498291      -0.00245175       0.00336219       0.00199953
C        3.44995043      -1.09018199       1.05427809      -0.13770136      -0.00070655      -0.00077724       0.00173302
N       -1.35385412      -0.74988516      -0.57817386      -0.36749578       0.00001361       0.00118501       0.00563025
C       -2.60130554      -0.23841504      -1.07486826       0.24886012      -0.00030803       0.00188531      -0.00773674
O       -2.58941085       0.99720566      -1.31513517      -0.41330579       0.00352826       0.00168846       0.00202527
C       -3.61920461      -1.15110082      -1.20230427      -0.43563148      -0.00098056      -0.00419024       0.00079989
C       -4.96269903      -0.73180813      -1.63988312      -0.10693241      -0.00177144      -0.00038585      -0.00028888
H        2.00646764       2.65293472      -0.39195092       0.14397137      -0.00202793       0.00289417      -0.00280490
H        4.09324418       2.11273814       0.17890371       0.10700691       0.00178756       0.00216737      -0.00066821
H        6.29449453       1.49596755       1.01233142       0.11855105      -0.00151840      -0.00212416       0.00196181
H        6.71710276      -0.77811428       1.89190849       0.12232597       0.00219215      -0.00281206      -0.00380916
H        4.87439710      -2.43612414       1.90634653       0.11907166      -0.00131080       0.00299619      -0.00166073
H        2.64031943      -1.80155526       1.05312709       0.10913786       0.00203609       0.00042052      -0.00277758
H       -1.29265876      -1.71788031      -0.31886286       0.25761387       0.00203906       0.00038736      -0.00371516
H       -3.50037574      -2.16272013      -0.83902809       0.11398945      -0.00091354      -0.00729088      -0.00362723
H       -4.92185761       0.23212366      -2.15353151       0.08731874       0.00130724      -0.00024965       0.00165358
H       -5.44197478      -1.45105687      -2.30271905       0.08051354      -0.00206719      -0.00262726       0.00103186
S       -6.19869140      -0.52415796      -0.27966061      -0.28594142       0.00659586       0.00447673      -0.00012892
C       -5.29748450       0.73379221       0.64395741      -0.20316322       0.00184101       0.00350805       0.00310774
H       -4.35727597       0.31783207       0.99785077       0.09240333      -0.00260903       0.00365219      -0.00054408
H       -5.07189324       1.58429540       0.00468649       0.08743849      -0.00102520      -0.00273493       0.00331702
H       -5.91392245       1.05087739       1.48486193       0.10101234       0.00018993       0.00235478      -0.00253307
