26
Properties=species:S:1:pos:R:3:charge:R:1:forces:R:3 energy=-27668.53453603634 pbc="F F F"
C       -3.85948930      -1.09101848       0.40431418      -0.14404298      -0.00196365      -0.00224687      -0.00486489
C       -2.50538188      -0.82363462       0.53934875      -0.10589025      -0.00513273       0.00562491       0.00495815
C       -1.90140613       0.09664755      -0.31422487       0.11674422      -0.00071991      -0.00539057      -0.00329344
N       -0.53368893       0.43147013      -0.25788217      -0.36401474       0.00403841      -0.00206692      -0.00051663
C        0.41555593       0.02722106       0.64135778       0.41260853       0.00021115      -0.00397796       0.00409584
O        0.19104242      -0.72385388       1.56527657      -0.42073318      -0.00000392      -0.00014758       0.00387451
C        1.79502759       0.61693841       0.38836614      -0.13435933      -0.00041633       0.00275278       0.00014395
C        2.79081947       0.13858050       1.42833229      -0.10623587      -0.00222684      -0.00063054       0.00118449
S        4.44631431       0.82422744       1.20761448      -0.20737958      -0.00707029       0.00007909       0.00151457
C        5.02469202      -0.20923282      -0.15572706      -0.20295648      -0.00133302      -0.00254148      -0.00350538
C       -2.66360630       0.73257537      -1.29293924      -0.14947358      -0.00152022       0.00106223       0.00268392
C       -4.01534306       0.46714383      -1.42765216      -0.15245582       0.00277577      -0.00652765       0.00149779
C       -4.59068060      -0.44676637      -0.56974846       0.11180662       0.00227271       0.00503442       0.00349225
F       -5.90723465      -0.71572069      -0.68830993      -0.14566444       0.00432460       0.00068435      -0.00371130
H       -4.35427587      -1.79825551       1.05290109       0.15048483      -0.00311669      -0.00110405       0.00019723
H       -1.92084884      -1.31584512       1.29510497       0.13475192      -0.00090314       0.00126101      -0.00143115
H       -0.22700926       1.07557605      -0.96447751       0.26380891       0.00415387      -0.00113588      -0.00211373
H        1.72145001       1.70531904       0.40670844       0.07820415      -0.00552348       0.00647127      -0.00245668
H        2.11218681       0.34698310      -0.62101659       0.06973582       0.00354907      -0.00058815      -0.00089819
H        2.83599129      -0.94718222       1.43086169       0.10019583       0.00511713      -0.00023263      -0.00178426
H        2.45711568       0.43857704       2.41648857       0.11390547       0.00006850       0.00120891      -0.00015959
H        4.94429897      -1.26357229       0.09822485       0.09493141      -0.00143859       0.00018577      -0.00229242
H        4.47764903      -0.01539762      -1.07514131       0.08916024      -0.00154894       0.00223771       0.00119216
H        6.07176129       0.03542865      -0.31499097       0.11750389      -0.00368785      -0.00072862      -0.00301801
H       -2.18748109       1.44573863      -1.95359617       0.12739287       0.00222995      -0.00025061       0.00429628
H       -4.62242244       0.95134011      -2.17766707       0.15197150       0.00786376       0.00096731       0.00091423
