20
Properties=species:S:1:pos:R:3:charge:R:1:forces:R:3 energy=-15727.581292667235 pbc="F F F"
C        4.24914101       0.02297285       0.16909209      -0.27339140       0.00156321       0.00107890      -0.00259611
C        3.07317105      -0.49210143       0.49333458      -0.15364106      -0.00217177       0.00065350      -0.00082269
C        1.80928065       0.14688673       0.01305354       0.44119951      -0.00232707       0.00265677      -0.00220071
O        1.81313580       1.14407242      -0.68047036      -0.43002620      -0.00120240       0.00484081      -0.00141617
N        0.67036242      -0.49085221       0.42371007      -0.36300194       0.00286138      -0.00408833       0.00690709
C       -0.67233349      -0.14906770       0.14878956       0.10246431       0.00197309      -0.00283997       0.00122280
C       -1.65757047      -0.97331640       0.68834807      -0.16173026       0.00322268       0.00112996      -0.00355174
C       -2.99988281      -0.71656618       0.47091882      -0.15027627       0.00067634       0.00022656       0.00396430
C       -3.34022498       0.37958501      -0.29353932       0.11126259       0.00088884       0.00047271       0.00058757
C       -2.38642760       1.21104997      -0.83828024      -0.14575829      -0.00077656       0.00397577      -0.00113847
C       -1.04134423       0.95078141      -0.62017895      -0.11394354      -0.00079319      -0.00499313       0.00188597
F       -4.64509012       0.64294452      -0.51204185      -0.14212759      -0.00037334       0.00124155      -0.00307064
H        4.30133949       0.91169484      -0.44367405       0.16005477       0.00402298       0.00211805      -0.00456493
H        5.17582216      -0.42327382       0.50197168       0.14804849       0.00189953       0.00107240       0.00419054
H        3.00135378      -1.38096575       1.10875803       0.12310992       0.00058630      -0.00176160      -0.00110255
H        0.78776992      -1.30718473       0.99469169       0.26991531      -0.00105709      -0.00844302       0.00456266
H       -1.36805185      -1.82794936       1.28678788       0.13111211      -0.00287042       0.00222710      -0.00344201
H       -3.77534815      -1.34581646       0.88088547       0.15378925      -0.00186028      -0.00177033       0.00247869
H       -2.70220053       2.05747080      -1.42956381       0.15280364       0.00094562       0.00560178      -0.00562238
H       -0.28180377       1.58648952      -1.03705622       0.14013660      -0.00520795      -0.00339936       0.00372843
