29
 
C           -3.32051915219907        1.92684572268400        0.95059911699908
C           -4.04561922784992        0.78188835882413        0.66773158343347
C           -3.41011765608717       -0.33023293864807        0.14504592417028
C           -2.04445342238115       -0.30893644418470       -0.10880045942753
C           -1.36985583889871       -1.51820455435775       -0.70056549512485
N           -0.01272482987366       -1.70209147103820       -0.23711466532193
C            1.03465886164710       -1.76798440161753       -1.08323380452230
O            0.92103841037819       -1.70096740748384       -2.28948125881600
C            2.39078232609836       -1.93659043750941       -0.40647893907595
C            3.10099360937209       -0.59133940709681       -0.32470030389539
S            2.31543333800506        0.48068331216259        0.93504495228610
C            3.12158957019143        2.04479127337518        0.50369733921799
C           -1.32488349023770        0.84486896970133        0.17255941122683
C           -1.95882267091938        1.95419186832425        0.70295447857399
H           -3.81561686135623        2.79381028043844        1.36262284795746
H           -5.10854747309147        0.75310517004958        0.85834132746589
H           -3.97936595335000       -1.22324295252211       -0.07167327792166
H           -1.95812594694043       -2.41661455176836       -0.47659260452714
H           -1.30360848325730       -1.41598751761899       -1.79026252074841
H            0.14594436487048       -1.66401489481798        0.75722858857367
H            2.28549589759429       -2.36668984111064        0.59031986488203
H            2.98850225634928       -2.60719974139700       -1.02670713670762
H            3.04251874241571       -0.07586480388062       -1.28473319898422
H            4.14674887023502       -0.71911122152426       -0.03798004168930
H            4.19773438020623        1.94234238916261        0.61564875752927
H            2.86539742624237        2.31278533484153       -0.51772325844892
H            2.74536009664423        2.79432295324815        1.19147263002246
H           -0.26327108393688        0.87172177267786       -0.01937354719432
H           -1.38666605986521        2.84371518108718        0.92215369006540