28
 
C            2.28676846519971        0.94139793637851        1.41670230441188
C            2.05249500091721       -0.43319353665846        1.51345111764836
C            1.15606372295966       -1.18598546411734        0.71884758960060
O            0.82231919817540       -2.36136790775097        0.94630915963971
N            0.64068884713793       -0.54848985613561       -0.41284773466430
C           -0.54816044971957       -1.04545102774428       -1.05247369099923
C           -1.78317650537337       -0.32196265300289       -0.58485340429215
C           -2.50468513289015        0.51340879688346       -1.42818421729763
C           -3.60668427747071        1.20819253939083       -0.96013127127030
C           -3.99894085416125        1.07888036445117        0.36076015859328
C           -3.28043191248424        0.25367269983310        1.21217845693854
C           -2.18131067354119       -0.43990428866553        0.74359820449525
H            1.50392086695421        1.57950683855460        1.02483177473429
H            2.81567841372995        1.39872417338257        2.24251869502685
H            2.63168798494415       -1.00560572286354        2.22723680934506
H            0.83452412397178        0.43572634627129       -0.50422840564501
H           -0.44843073051418       -0.96433399962881       -2.14314097074480
H           -0.59936878701328       -2.10383590162657       -0.76829303745242
H           -2.19977388568012        0.62033025297836       -2.46099666065678
H           -4.16033134170876        1.85549232796752       -1.62795538065763
H           -4.86017002115927        1.62171785764774        0.72696528125611
H           -3.58259497475680        0.15245064944472        2.24575939615009
H           -1.61106228476982       -1.08009063813815        1.40057670155345
S            3.74130860336622        1.49302484822320       -0.10207207120798
C            4.16624755023447       -0.16651576866729       -0.63221864472264
H            3.97804241402767       -0.27370406936462       -1.69895964676974
H            5.21475619310993       -0.36979692288709       -0.41520296028204
H            3.52062044649559       -0.85228787414188       -0.06719505413889