29
 
C           -3.92295591833887        1.09348416499577       -1.26198498724404
C           -3.31251441730772        2.05698214426958       -0.47820443709987
C           -2.35316019924181        1.69035659933130        0.45045112891606
C           -2.00130945352588        0.35712185392655        0.60818745923637
C           -0.93104179042447       -0.05419934078510        1.58455252392959
N            0.29547526966454       -0.37248328395037        0.88159837755984
C            0.84754731478149       -1.59905517681557        0.89187589933674
O            0.36660961595932       -2.55013260511232        1.47320278742274
C            2.14316445274289       -1.70510909376591        0.08980489626853
C            3.24383983537977       -0.77771575966295        0.59422532301233
S            3.05425935893518        0.96828070442650        0.08865635707740
C            3.56896988630861        0.85131405822852       -1.64767874562536
C           -2.61596489284956       -0.60470298687669       -0.18477054710167
C           -3.57230260588480       -0.23890232059837       -1.11429878335045
H           -4.67058080016611        1.37954023271497       -1.98713804312898
H           -3.58265543907485        3.09699497918824       -0.59071758891232
H           -1.87827107100641        2.44535358415259        1.06136838341551
H           -0.73972128647776        0.74700449744451        2.30598754147740
H           -1.22365241927820       -0.96209127648620        2.11924514565885
H            0.77087340412246        0.38483919842760        0.40980178064322
H            2.48714463417215       -2.73791876129279        0.17361161417716
H            1.92486468563453       -1.50495302762559       -0.96194671957394
H            4.21949522699780       -1.10029524459911        0.22873268117703
H            3.26440865640617       -0.76124069390260        1.68347054781093
H            3.49768728686991        1.85179950399241       -2.06069875401981
H            2.90888754899768        0.18062317363456       -2.19028000033728
H            4.59634517784956        0.50082321799801       -1.69503507741332
H           -2.33843758161759       -1.64210835865514       -0.06465775141376
H           -4.04700447962394       -0.99360998260352       -1.72448861902362