25
 
C            2.52286508237793       -0.43346417035638        1.15605388412365
C            1.66512543631601       -0.13707150050047        2.20643540480039
C            0.25935157552848       -0.02167064148775        2.08709343844392
O           -0.54105763892519       -0.00093839189785        3.02705997304731
N           -0.17495709491229        0.06875756090958        0.74492452464952
C           -1.44240288526576        0.05642195392031        0.23662061974978
C           -2.56037307648021       -0.33341939214803        0.98536731972765
C           -3.81064089508856       -0.36871784253120        0.40463629128025
C           -3.99079608781029       -0.02661032304119       -0.92714408935559
C           -2.89122319152657        0.36161058694968       -1.67692022364468
C           -1.63603062493574        0.40440451636489       -1.10842903231247
H            2.15394074278685       -1.05558168659397        0.35046585140887
H            3.55819446678292       -0.62189879955731        1.40783996603080
H            2.08048588178088        0.12627525478472        3.16845645972015
H            0.54917224636616        0.38370787881340        0.11027446349811
H           -2.42034597866475       -0.58710322217499        2.02312588586644
H           -4.66343922741808       -0.67081220627868        0.99972420353352
H           -4.97522870194761       -0.05916586656670       -1.37530339926261
H           -3.01709202605255        0.63462525888845       -2.71755876569480
H           -0.78107995881170        0.71153622301416       -1.69629470991193
S            2.97903631195986        1.22755389401026       -0.25672598793387
C            4.11405160648441        0.23002090320616       -1.25742067748527
H            4.44181378559710        0.83317897791291       -2.10075606982065
H            3.60391354832902       -0.66156527655622       -1.62152416005867
H            4.97671670352998       -0.06007368908216       -0.65790455348246