20
 
C            3.65491873644100       -0.85256455721969        0.06761728435320
C            3.19783876302463        0.37041815189461        0.29072925463540
C            1.78626424794070        0.83725913772662        0.35833859724975
O            1.53764256341393        2.00717544061825        0.57429816408880
N            0.84208368577182       -0.12784795710803        0.16386815095879
C           -0.55008930177581       -0.01379690274648        0.16551425863745
C           -1.21266114032350        1.19142427825455        0.38224384569046
C           -2.59499968589564        1.22611941693134        0.36915101649539
C           -3.33164951616925        0.07593435557549        0.14290469576987
C           -2.67438043759640       -1.12407306357265       -0.07292262108278
C           -1.29405082653038       -1.17133357756976       -0.06221592105641
H           -0.78413542663770       -2.11064239130538       -0.23121667589652
H            3.02844667770847       -1.71424260590185       -0.10297455779998
H            4.71377904298250       -1.05078700734177        0.04554938294988
H            3.89178616437249        1.18432470479240        0.45339732832606
H            1.17951404469431       -1.06417856994838       -0.00701155233208
H           -0.64144118487651        2.08682471410645        0.55834169159622
H           -3.09973100392045        2.16572721677600        0.53828427962066
H           -4.41054211415602        0.11220706799061        0.13440979309424
H           -3.23859328846816       -2.02794785194805       -0.25051042925054