25
 
C            3.03577174336327       -0.50999142263269        1.76621320404329
C            1.80072525416501        0.17312358746767        1.49671653872648
C            0.79686404594789       -0.39287489948617        0.72378022206695
O            0.75108133328543       -1.53622825940128        0.24377913887112
N           -0.32419519971113        0.50084371814836        0.55011986141636
C           -1.53366080502898        0.30426492897985       -0.04097423752520
C           -1.88645302664203       -0.89256286484827       -0.68249475325408
C           -3.12447497939619       -1.03117918135913       -1.26952686128552
C           -4.05160767898542        0.00186156213776       -1.24524811762704
C           -3.71490830435141        1.18962541117761       -0.61605140830299
C           -2.47992878188564        1.34303816847771       -0.02317582982886
H            2.98181433033060       -1.56929505955283        1.53076734631502
H            3.46886467844154       -0.33333878856811        2.74868466100504
H            1.70182036315784        1.19524241467923        1.84235617945639
H           -0.19769113552027        1.40511847893781        0.98271839223746
H           -1.16081038046312       -1.68932343876467       -0.69504110755396
H           -3.37699111361532       -1.96371314840436       -1.75883646487001
H           -5.02200591299686       -0.11629995539382       -1.70927517819730
H           -2.22737828445037        2.27645793746283        0.46684749937342
H           -4.42629035320051        2.00677415258458       -0.58689089248692
S            4.54441616387406        0.08916361756672        0.65244965763860
C            3.73405072488570       -0.08979313841004       -0.94865137672862
H            2.67311153409672        0.10527178460842       -0.79319705721145
H            4.16062145897369        0.63432244770601       -1.63803195162451
H            3.87725432572764       -1.10050805311476       -1.32476093547409