25
 
C           -3.16397591933744        1.37215767817104        1.61881929814490
N           -2.14825734423123        1.45106817426984        0.77939890965405
C           -1.58134551537165        0.33015020018028        0.36852306429723
N           -0.51972409163622        0.40550611830371       -0.52315297553807
C            0.16467202786043        1.52485215084313       -0.91854637568449
O           -0.04786120575113        2.64389537137629       -0.53372656067347
C            1.27358417272340        1.19934576947692       -1.92049614621317
C            2.43512179472307        0.44758848128008       -1.27874550876082
S            2.09008982544416       -1.34625259702315       -1.11523549105634
C            3.54719200807673       -1.81662691605320       -0.14910016363650
C           -2.01827060129958       -0.93509973806996        0.78097619913332
C           -3.08193732150848       -1.00305225688940        1.65738777959113
C           -3.67433884380014        0.17567291706429        2.09328013111443
H           -3.58426778939749        2.32286009639820        1.91817430806418
H           -0.16229907336498       -0.48686678809070       -0.84351284136959
H            0.86914579203486        0.61862934302749       -2.75215097337894
H            1.64301995947920        2.15152276481589       -2.30533586718118
H            3.33067238125152        0.53532996198944       -1.89634480600424
H            2.64477043057732        0.83609632000302       -0.28089302031268
H            4.44528992357487       -1.56549293380253       -0.70716543604667
H            3.49204475166961       -2.88905857451928        0.00497421317747
H            3.52987172761159       -1.29942463265528        0.80642156468629
H           -1.52939056201495       -1.82744159131586        0.41915131150315
H           -3.44681437681185       -1.96118123651570        1.99899521515899
H           -4.50699215050216        0.16088707489310        2.77830417133180