19
 
C            4.12456042648293        0.09017296499768       -0.42702727023387
C            2.99834314986631       -0.19529470272643        0.21012472678761
C            1.68179279879455        0.10891240192484       -0.40401324912658
O            1.56078210615714        0.62291002365211       -1.49587469164405
N            0.62722769448428       -0.25263271549088        0.39336899458361
C           -0.73482176550942       -0.12520277357479        0.15699934656057
C           -1.27768342256411        0.42621287139906       -1.00371044091349
C           -2.65494951967677        0.48855878937978       -1.10103889534080
C           -3.43805879494510        0.00919658892599       -0.05965909519849
C           -2.79465535780851       -0.51815980097175        1.04720584400753
N           -1.48005582010829       -0.58623166747114        1.15834680985039
H            5.09576155422910       -0.11660515517530       -0.01155505001216
H            4.08667865601752        0.54834991473385       -1.40211817030965
H            2.99709368808279       -0.65464223748489        1.18870974388195
H            0.81940847262384       -0.67679512502015        1.29202207649449
H           -0.63257145824053        0.78586796766140       -1.78651822994180
H           -3.11438609116201        0.90855029279620       -1.98392151120758
H           -4.51482226077553        0.04426696910826       -0.10662464854367
H           -3.34964405594856       -0.90743460666376        1.89079112952289