27
 
C           -3.22884391029357        1.55290680513380        0.66994332065945
C           -2.08467891544115        0.86719543560611        1.01985507611442
C           -1.16591742121117        0.49793822983846        0.03763364637906
N            0.00401594194612       -0.20126154142100        0.31661824744612
C            0.53336183137716       -0.53197655428453        1.52691832289707
O            0.02121221320864       -0.30474220244519        2.59865053684574
C            1.87057553984990       -1.25886957497502        1.41062059033346
C            2.93198972941742       -0.48084446870673        0.63763187008307
S            2.76333083627178       -0.57651292940862       -1.18162019920022
C            3.41082920616212       -2.24634440536233       -1.47068166853585
C           -1.41605329345097        0.82589082617705       -1.29771028195647
C           -2.55831347416385        1.50930550477097       -1.64891061602138
C           -3.47691746252360        1.87933444086887       -0.66399926530350
C           -4.64934988626033        2.58068465408720       -1.01967705041477
N           -5.60169728410034        3.14908343868508       -1.31215354074329
H           -3.94001232908209        1.84074111569257        1.42980546932228
H           -1.89260344347957        0.61733041065668        2.04968999358460
H            0.58148674187946       -0.40081707621981       -0.49691307216206
H            1.69896040052978       -2.23455875414168        0.94872392727198
H            2.22678824539361       -1.42867946327146        2.42867982660301
H            2.88641891819726        0.58104605701481        0.87793611818216
H            3.92946358831510       -0.85126080030251        0.87487462997735
H            2.80398848921344       -2.98038271933429       -0.94866009239759
H            3.35894908361489       -2.41854557209276       -2.54038731989215
H            4.44327556873343       -2.29226930732013       -1.13589990020841
H           -0.70104471375786        0.54242430300096       -2.05711327107520
H           -2.74921420046304        1.76318414776132       -2.68102627101212