38
 
C           -3.32163220579792        1.90176597046830       -1.37764216119297
C           -3.67915997233417        1.76905149638066       -0.04866102839554
C           -3.06483721559543        0.82215779243805        0.75340402802886
C           -2.08005067167906       -0.00743625986895        0.23811029572653
C           -1.38044883991142       -1.07785318349863        1.06273446051811
N            0.05225724268497       -1.02565025047121        0.76396958488734
C            0.78678324560436        0.09586410154535        0.88673842471553
O            0.33468018558051        1.15728026014184        1.26348081426817
C            2.24929383092534       -0.02750021308811        0.44717261129714
C            2.91528555608319       -1.36220543940792        0.76328481771246
C            2.27439510853099        0.27416033806413       -1.05102790325400
S            3.95689676619320        0.43744260924298       -1.73404597974524
C            4.40176885008175        2.07240270008043       -1.08766336192803
C           -1.56664425531291       -0.90363954398501        2.57266641023519
C           -1.89781353509784       -2.45329168791698        0.63087482570596
C           -1.73440080383586        0.12856193559217       -1.10274128430894
C           -2.34419946331009        1.07497550108404       -1.90348865615779
H           -3.79778164200008        2.64543389359672       -1.99949063480596
H           -4.43880176109695        2.41111428014375        0.37301027103897
H           -3.35764818410405        0.74857780410466        1.78789726222601
H            0.49744355536027       -1.88482430843014        0.48909092558833
H            2.77962499962959        0.77262724354636        0.97347135902610
H            2.53019301583113       -2.16407891042904        0.13498001181261
H            3.98301600196139       -1.28699434990867        0.56852997131852
H            2.77294652591361       -1.62595874620864        1.80895611315882
H            1.73879622360350        1.19944166029751       -1.26696262981473
H            1.82078928831118       -0.54118313627481       -1.61556633037888
H            3.62861860763079        2.78641216552863       -1.35658651938014
H            5.34223782112979        2.34623598957266       -1.55406520093140
H            4.52423978481749        2.02837136838514       -0.00940267197176
H           -0.95498374332070       -1.63553362918143        3.09733116492391
H           -2.60353683733263       -1.05704337016405        2.85674910326380
H           -1.24885564749652        0.09233456967154        2.86792476745847
H           -1.41183525224447       -3.24045794041761        1.20486860495655
H           -2.96941461505449       -2.51168905525651        0.80237565772689
H           -1.71418151618767       -2.61974097585629       -0.42829297353013
H           -0.96840454639944       -0.50629806729493       -1.52607190820099
H           -2.05463590176154        1.16716738777367       -2.94039378823046