31
 
C            3.15531831629668        1.79160654125931       -1.60161181478903
C            2.53603744661183        0.95915980770107       -0.48959462837945
C            1.19751790131239        0.52457030929285       -0.77404315232167
C            0.17557942408562        0.27138996252913        0.13756986826252
O            0.14500903253515        0.44084255839874        1.36455579958808
N           -1.00911203465080       -0.21875084778795       -0.52825417338603
C           -2.26817314429492       -0.43260716735749       -0.05602200442353
C           -2.64151136294769       -0.19665041518290        1.27516393008779
C           -3.93596196709555       -0.42378125559956        1.68799260220549
C           -4.90052552682067       -0.89148348900511        0.80634959825544
C           -4.54346578414099       -1.13275046353768       -0.51059703740912
C           -3.25240618384303       -0.90858728241163       -0.93850544332852
C            2.77110739250528        1.57385942998791        0.87259822427487
H            2.65792294963465        2.76154014004106       -1.65467853501358
H            3.04584456201248        1.28893285501486       -2.56026288795184
H            4.21687303321051        1.94692012446994       -1.41535514742097
H            1.00414404309785        0.28648261535516       -1.81560608693352
H           -0.88643848097721       -0.39855671865905       -1.51471341328789
H           -1.88778424395062        0.16388237735702        1.95556907628033
H           -4.20371924516988       -0.23174509890239        2.71944977403634
H           -5.91504801156897       -1.06571001453591        1.13976379406087
H           -5.28257146527466       -1.49954084547625       -1.21309945365095
H           -2.98495539276112       -1.09930477494882       -1.97150056382121
H            2.26591044788769        2.53944701575167        0.92577267181798
H            3.83660657545442        1.71800929530219        1.04913532870523
H            2.35187179557218        0.93800054536189        1.64628650625857
S            3.81543419517139       -0.64978847334760       -0.50406914179094
C            2.79021035912174       -1.84267809987378        0.36984545671918
H            3.08870841871413       -1.90053752389408        1.41471471247974
H            2.89963404675253       -2.81512936588441       -0.10536437034208
H            1.75794290352712       -1.49704174141845        0.28851051121870