32
 
C           -5.26624028513243        0.22177454081270       -0.16018574271527
C           -4.69642111807318        1.45855025349777        0.09258258052777
C           -3.32528573397502        1.58059283882928        0.20461487326680
C           -2.50385555363700        0.46312820749030        0.06528828084135
N           -1.12197982809403        0.65754786198643        0.18574265090800
C           -0.11006203431506       -0.25392811302099        0.10447014418533
O           -0.27307969920442       -1.43656689319705       -0.08757248565625
C            1.24742162070881        0.42549818526318        0.27238395743418
C            2.44224819709327       -0.52538139028445        0.36952796714871
S            3.95233397467008        0.51523658040613        0.71170419711432
C            4.30678937249686        1.30293444619695       -0.88523461460480
C            2.63346212242906       -1.34110097201576       -0.89774033021426
C            2.31730459775499       -1.43475603953742        1.58647887314222
C           -3.07733440914140       -0.77871295369893       -0.18734007588584
C           -4.45177946288799       -0.88888690289503       -0.29805050044447
H           -6.33778113151217        0.12644880040215       -0.24882510854866
H           -5.32100230868889        2.33268414707283        0.20276967554005
H           -2.88331810263747        2.54814787496940        0.40203765551919
H           -0.85701086840256        1.61792524983451        0.35920840359414
H            1.21870732834304        1.04054378263933        1.17619340668470
H            1.37922419894745        1.09433773568512       -0.58411876821618
H            3.43154578571289        1.83031545202585       -1.25341079203109
H            5.10344931992858        2.01343328519938       -0.68926701167768
H            4.64487306850674        0.56194373047440       -1.60296185682558
H            3.55997116021942       -1.90861058993981       -0.84400307942545
H            2.65619222354340       -0.70789748140537       -1.78234838168445
H            1.80247018459238       -2.03524224516219       -0.99719123567354
H            2.24304207007054       -0.84557776348984        2.49825592171994
H            3.19185528796005       -2.07560848327722        1.66421327422542
H            1.43127649784415       -2.05638105016230        1.48900964314260
H           -2.44846267630716       -1.64589601398895       -0.29467497478709
H           -4.88855379881254       -1.85649608071044       -0.49507866314918