28
 
C           -3.51246569046325        0.62514124546825        0.09601851830071
C           -2.14628652811877        0.67940712625437       -0.08730268991101
C           -1.39134457874091       -0.48832382462068       -0.05110594531211
N            0.00190365668046       -0.50766141274179       -0.23270527718313
C            0.85051460697474        0.52379662098566       -0.48308580440482
O            0.52613689851612        1.68556969409753       -0.58783282623310
C            2.29832692592612        0.05146111428371       -0.61006507037516
C            3.20780342955483        1.19866510051689       -1.01802903292072
S            4.94797850588587        0.68462450001974       -1.16568876370768
C            5.42105500943995        0.66949255387615        0.58740521417882
C           -2.03414287832709       -1.70289261842814        0.17333297238463
C           -3.39991403659152       -1.75434772511971        0.35607642688375
C           -4.16410571998074       -0.58766781650732        0.32170688781279
N           -5.52062793782047       -0.62559846542987        0.57752302850263
H           -4.09071170863530        1.53711767982411        0.06618652686761
H           -1.65887257291242        1.62319525306707       -0.26278097331996
H            0.40940575169414       -1.43081954909850       -0.17254672824285
H            2.35976573802721       -0.74762396372940       -1.35296970867525
H            2.61175444248504       -0.35644525117993        0.35520146164730
H            2.92450714596150        1.57442091037765       -2.00014202142369
H            3.15139317422352        2.01841473926398       -0.30281508800721
H            4.85955828423720       -0.09141165548016        1.12198934042035
H            6.47964180468140        0.43504797099788        0.62208769125356
H            5.24281193606666        1.65139487145042        1.01678468254326
H           -1.45807747514154       -2.61803791512148        0.20225845636765
H           -3.88539213441367       -2.70403333594005        0.52919695215125
H           -6.05405534782544        0.17021562597445        0.26786133886630
H           -5.97656070138344       -1.51310147306114        0.44217806808809