41
 
N            3.77733813071879        0.41004035094834        0.54431050879376
C            3.37198971856458        1.34628187934797        1.57223114797243
C            2.14427094180454        0.80753676243137        2.30421737194207
C            1.07901277810962        0.47967102526138        1.30392585271461
C            1.40339092728544        0.19368611293665       -0.02326583774397
N            0.48357590537969       -0.10000683059653       -0.92603690611753
C           -0.79457404555006       -0.11597790782522       -0.52485659460286
N           -1.20979561809202        0.16399887257652        0.71525826764353
C           -0.27723178541298        0.45183253517354        1.60200894861973
N           -1.69283865937697       -0.45226586875445       -1.47013024370854
C           -3.13119144325051       -0.38870274883465       -1.33378821503418
C           -3.65087102444025       -1.30562894114102       -0.22291588295483
C           -5.18693289974030       -1.33166070976302       -0.29198242711336
O           -5.72179394132525       -0.19067325112302       -0.92966183918282
C           -5.06920838705477        0.99280149932191       -0.53432660814829
C           -3.61911962518205        1.04223703834871       -1.05289333565227
C            2.82510058327772        0.23938916468289       -0.52278956991582
C            4.89087441660386       -0.33894483846962        0.73158098280592
O            5.57071849702534       -0.24959201209829        1.73922531893966
C            5.29992575057355       -1.26139364048901       -0.36571466191433
C            5.57495616325027       -0.87311977127106       -1.59932068430271
H            3.13785232728736        2.30641440465691        1.09922395192379
H            4.21252663434120        1.47061824070057        2.25666113547245
H            1.77660427277576        1.53739453752465        3.02782629991613
H            2.42587738530489       -0.09686035595693        2.85238905236127
H           -0.63462853026003        0.67855700793277        2.59956737350188
H           -1.29666941629133       -0.58387326418060       -2.38633624552606
H           -3.55293283666516       -0.73023737404545       -2.28487325280653
H           -3.25188386659112       -2.31198323971954       -0.34549825621595
H           -3.30440000817700       -0.91347664407919        0.73220938912137
H           -5.54009786495161       -2.17739694832717       -0.88700038247752
H           -5.60493440746690       -1.41966824420995        0.72270014493498
H           -5.66198400676683        1.80993575574219       -0.94950490778077
H           -5.08287845977527        1.07349525266191        0.56171988325773
H           -2.97265455623509        1.48880172996433       -0.29863735035227
H           -3.55426763874461        1.63493658022553       -1.96592977751257
H            3.03217824598186       -0.68018320751206       -1.07310079060035
H            2.89660444074177        1.07385505413702       -1.23645138449871
H            5.50734120802919       -2.27084721400759       -0.03744402998718
H            5.42654258259499        0.14418418144719       -1.92331216673171
H            5.97420811170174       -1.55317497362010       -2.33356348699550