57
 
N           -0.88917197941930        0.75712352219004        0.18693185506981
N           -1.04686895142688        1.82193189271898        0.97053112134766
C            0.14910537891096        2.34754655942132        1.12743799173183
C            1.12396221393149        1.60119404107346        0.43435762940407
C            0.39564402893727        0.57831349169589       -0.15555238865682
C            2.55137919778787        1.82158971919610        0.35118053283817
N            3.29082864997582        0.85649355113867       -0.21161918596482
C            4.59895683089607        1.04452714609111       -0.29611127288248
C            5.20503297444137        2.24315015425453        0.13913768034391
N            4.47067414705621        3.19267489867097        0.70881469175150
C            3.16273382029702        2.97563483412492        0.83199577156939
N            6.55449271422886        2.48622544530275        0.03298060385591
N            5.35230487226249        0.02371725362274       -0.87792874397100
N            4.98744520842429       -0.58422449994452       -2.03315295291187
N            5.83951879652720       -1.47838549664397       -2.35062762314081
C            6.81558061982676       -1.52133931113487       -1.40785508631605
C            6.51524796609345       -0.54184427563314       -0.42542782854679
C            7.30192496667660       -0.37036284336229        0.70383553679394
C            8.41673587634785       -1.18052660731729        0.81120662516609
C            8.73719166797001       -2.13054069322754       -0.16482777113737
C            7.95370238095621       -2.32184137371667       -1.27989744831331
C           -2.02157720320569       -0.06832177843948       -0.16741075702848
C           -2.52400033013617       -0.80708376866957        1.08197176301238
C           -3.97066110639325       -1.26107567595232        0.91182733021257
N           -4.84075063182460       -0.12236677542360        0.75262234224114
C           -4.21185217946133        1.09126294104745        0.28764902220260
C           -3.15351979784010        0.78367017608751       -0.76919463840051
C           -6.23480354358690       -0.24405451483898        0.57670035680302
O           -6.86898603573181        0.78589994617044        0.27784030442916
C           -6.81723548045006       -1.49567162495895        0.81948045573603
C           -8.24973659166982       -1.67643274285406        0.68909292310472
H            0.27350201306140        3.22586169891557        1.72937277093538
H            0.72856420788218       -0.22348757316150       -0.78127294336536
H            2.60222954050058        3.76907696134678        1.30417081883871
H            7.04869922072326        2.01392186464380       -0.70680486910220
H            6.80202600183630        3.45298825734246        0.17537663164146
H            7.05575132930219        0.35892244058229        1.45922825635883
H            9.05781492093406       -1.08140730827693        1.67528896126176
H            9.62361710610980       -2.73434753383831       -0.02788006272465
H            8.18989988288693       -3.06105189979969       -2.02844469112629
H           -1.65985380627547       -0.78877360176677       -0.90950201221478
H           -1.88776735947015       -1.67049483936058        1.28781051043957
H           -2.46324776195335       -0.12680165032668        1.93222250059136
H           -4.26911663965484       -1.82430662120592        1.80409780079826
H           -4.03644818452271       -1.94638853560896        0.04776733076337
H           -5.01638873488552        1.70779708523745       -0.12462597632572
H           -3.74650883072520        1.63768047389630        1.11717469871414
H           -2.74196761774000        1.71276583401855       -1.16524123959339
H           -3.62139722979427        0.23752446355908       -1.59026469120963
H           -6.22127245129542       -2.37098070351190        1.01451965706696
H           -8.68269296729435       -2.37337762145484        1.40565657740537
H           -8.77701366518365       -0.72475220848520        0.68721413995299
S           -8.77565669239921       -2.48547193239546       -0.96453375815787
C           -8.11610512616497       -1.21510109094941       -2.06753449407119
H           -8.19245093103107       -1.58357052846572       -3.08615372512118
H           -8.68897996638655       -0.29958943322310       -1.94577467181294
H           -7.07853473886077       -1.03608617759823       -1.79785636030786