22
 
C            3.25774746556728       -0.53764027912130       -1.16204400212408
C            2.36950627809101       -0.71809070093592       -0.19907033047325
C            1.50700664234975        0.40114855078104        0.27182508770268
O            1.92771681560277        1.54365260602508        0.33906007716050
N            0.25311492061578        0.07386042042027        0.67708737528327
C           -0.44848074243825       -1.15057937931586        0.37581225881618
C           -1.56727018161986       -0.86799499684736       -0.63478837445402
N           -2.45648082495532        0.12688569301840       -0.06875825366344
H           -3.25525878349526        0.27775317273889       -0.67595735622373
C           -1.74943778828015        1.37428831426743        0.16403162958811
C           -0.62937523147161        1.11098804594388        1.17068798545675
H            3.33959909897165        0.41507871833454       -1.65797231945042
H            3.92387224399971       -1.31899596318679       -1.48752798898096
H            2.29106456218924       -1.66054076292093        0.32371391428409
H            0.23029897687680       -1.89683171543424       -0.03270256589497
H           -0.89855827834927       -1.53068881144550        1.29977458302158
H           -1.10804428887861       -0.53501728151203       -1.58387749619559
H           -2.13246485439320       -1.78327812878505       -0.82176004676805
H           -1.30677212897955        1.78513529549363       -0.76022864355784
H           -2.44883865435918        2.10537774645988        0.57295280975213
H           -0.03384665462588        2.01032335025209        1.33102301147683
H           -1.06509859241717        0.77516610576759        2.11683240980331