49
 
C           -4.94203412079144        4.59718521872113       -0.18268493398784
C           -5.98064831549021        3.68184867454628       -0.01950438541450
Cl          -7.60108248766667        4.18481316425999       -0.34168112632310
C           -5.70296283169017        2.39345440984187        0.39494228229142
Cl          -6.97127782944886        1.24202373085234        0.60371622048387
C           -4.39291819441896        2.00910329390208        0.65080612018846
C           -3.34275606971918        2.90655152118238        0.49428377389634
N           -2.04816068718662        2.58968001529005        0.77480952751120
C           -1.56087751416862        1.25654138485653        0.96133398298894
C           -0.04094126374793        1.28829611341343        0.83923821748260
O            0.54795521185955        2.31049267656460        0.54296296904960
N            0.60355368491243        0.12607015426957        1.07933581463560
C           -0.05246275680476       -1.13874140304011        1.35140613682802
C            0.98505781144674       -2.18903114927227        1.73206505267920
N            1.96834563552995       -2.34267911574061        0.67905697363966
C            2.28239414260465       -3.59261138543720        0.24978947908161
O            1.80350763923973       -4.58174575433966        0.76775902621908
C            3.27766715722442       -3.66281515691086       -0.89439666985863
C            3.47244241805738       -5.10344260940316       -1.34254299870325
S            4.68631456901100       -5.24430490440302       -2.69159680738724
C            6.22918072936119       -5.14093818245522       -1.73950452624492
C            2.44799516917733       -1.11810072237135        0.06951626733419
C            2.04422315396030        0.07797409968115        0.92369598017765
C           -3.63785843115422        4.22667668285890        0.06677171210841
O           -2.55164154464539        5.04530028043039       -0.07033205981859
C           -2.76081765877112        6.36312242445805       -0.51649886202644
H           -5.18980361867428        5.59330702338695       -0.50876624612118
H           -4.20600799713516        1.00142701412286        0.98133879064599
H           -1.33896816003670        3.26009672285189        0.50151307706356
H           -1.96367750037597        0.56347692835307        0.20681055515374
H           -1.84177248860523        0.87898454444504        1.95405994086189
H           -0.60416129497571       -1.47727653337707        0.46473914159259
H           -0.76338638895378       -1.02916701883242        2.17578897774998
H            0.50860427607791       -3.16266151257481        1.86904247808845
H            1.47440019032394       -1.91167657189140        2.67235084743898
H            4.22889291445767       -3.24273156182141       -0.55666782353378
H            2.92379008888671       -3.06222651331164       -1.73488156634622
H            3.80105145185417       -5.73143441164435       -0.51560363462767
H            2.54082715330090       -5.50718362629622       -1.73568382218977
H            6.32570033865013       -4.15971812163869       -1.28339732235643
H            6.23769960661605       -5.91986011794839       -0.98240512977027
H            7.03919625450390       -5.29815805292574       -2.44352773219594
H            2.02443645350097       -1.00163563043574       -0.93717516676710
H            3.53837119641477       -1.13797332222738       -0.01899563389858
H            2.52859656373045        0.02370656649783        1.90439926727273
H            2.34797069253465        1.00956319100882        0.44135224646857
H           -1.77178388925047        6.81592589662761       -0.56351737007707
H           -3.38565080478291        6.92850451815052        0.18174456507438
H           -3.21652265484817        6.38198712773772       -1.51146530885315