27
 
N           -2.32829806711736       -1.56481303175559        0.86718730687865
C           -2.45467344819373       -0.17111545556895        1.26107801827160
C           -1.24684602356377        0.66873546327214        0.78882620850018
N           -0.68143090807177        0.05316069625085       -0.38139476414235
C           -1.66073404409262       -0.49847726231846       -1.27958336167009
C           -2.39704611128009       -1.66630443012880       -0.58876768719282
C            0.59508308499454        0.40313858260474       -0.93187402747264
O            0.91589769523886       -0.19018393631417       -1.97921702469811
C            1.33478075801036        1.38522933232276       -0.27338850020430
C            2.67347098568951        1.68670029295388       -0.64786096145224
H           -3.38470950359391        0.20733580754523        0.82565329225728
H           -2.54547457481975       -0.12260931624596        2.35038509020150
H           -0.48654414638963        0.67819377683098        1.57609252328313
H           -1.56621832207019        1.71456924785287        0.60981611235171
H           -2.38963044795979        0.27483592499304       -1.58794837825196
H           -1.11050266900780       -0.83475760652069       -2.16160667858952
H           -1.96949023035423       -2.62729423117403       -0.87977590906578
H           -3.45742729922322       -1.66226308719093       -0.87080867785517
H            0.93517056091344        1.88565825698923        0.59635903438656
H            2.99665536453782        2.71581054271860       -0.52138449100201
H            2.96056598358060        1.27000855809917       -1.60714509978139
H           -1.40207816525112       -1.87333391739992        1.15631346509362
S            4.07225092947091        0.83574803067061        0.56357310250305
C            3.27462447780179       -0.76518044645585        0.75278653275078
H            3.38078513349925       -1.09787883398897        1.78326890719362
H            3.72248914292183       -1.48981747972473        0.07509736126082
H            2.21932984431441       -0.61764462163710        0.50431860644938