43
 
O           -0.46068450805858       -1.55540830934168       -0.74537734025461
C           -0.82810520368318       -0.28523171995298       -1.25428422429484
C           -2.22772341627551        0.11396476345316       -0.85357145402052
C           -3.01822618848110        0.86342399596066       -1.71194883531324
C           -4.29738688221110        1.23052483907267       -1.32717272293019
C           -4.79595491266893        0.85000578830553       -0.09920836442001
C           -4.01388336791984        0.08326638179044        0.76553462775343
O           -4.59115822182093       -0.24999858928623        1.95271181207787
C           -3.84168856589467       -0.99793683198555        2.87933085274240
C           -2.73149883441292       -0.28526643414849        0.37899481239904
C            0.24458993387500        0.73384860286153       -0.77541105021809
N            1.51838436142557        0.18169195280884       -1.23186844555938
C            2.71193594407870        0.80094755454934       -1.14904669817263
O            2.88144656337596        1.96042670670627       -0.83045259831349
C            3.89103851699624       -0.09789273704312       -1.52029488431932
C            4.56280842865454       -0.60401220330463       -0.25108913483464
S            3.47592931681030       -1.77434099708340        0.64405757856280
C            4.59065282161588       -2.15209426389345        2.02259617443839
C            0.00117310960913        2.09543128298024       -1.42200835271848
C            0.26589711564630        0.85453629771441        0.74890198242333
H           -1.16663112742577       -2.17867408164056       -0.94463041926636
H           -0.77449876170972       -0.31057965379121       -2.35675477064338
H           -2.63692585510224        1.15848371869120       -2.67749312943286
H           -4.91110915046678        1.81681037514103       -1.99432663403693
H           -5.78898096268016        1.12849386625525        0.21490519484187
H           -3.58118289232367       -1.98500142935027        2.48365453071312
H           -2.92832364696048       -0.47267674749865        3.17573838945810
H           -4.48572957348891       -1.11883052213672        3.74891790500953
H           -2.10353613349150       -0.88216996555425        1.02101720165429
H            1.51743870821521       -0.82764136070513       -1.27673078657174
H            3.56879140922641       -0.93731729791913       -2.13693640358730
H            4.61143419994595        0.50523788237375       -2.07636896114245
H            5.48640540975113       -1.13678079547130       -0.48589533003866
H            4.77884466235860        0.23021674816704        0.41827830091169
H            4.07023617302868       -2.85080333532640        2.66872162274183
H            4.81652072512910       -1.23858256061713        2.56617547976786
H            5.50193670897325       -2.60563959626622        1.64124899852723
H            0.79667558176209        2.77475654968219       -1.13255085814734
H            0.00022621923271        2.00654285338912       -2.50602354678046
H           -0.95295655629976        2.49923600945469       -1.09577318305481
H           -0.66560393457333        1.27858358123336        1.11281425018413
H            0.42278277595577       -0.12626419813439        1.19115095977852
H            1.08664001028458        1.50671387986054        1.03494115834448