37
 
N            1.91954913901893        0.12722691346664        0.06438568126366
C            1.46588701246793        0.20612742333746       -1.31987154782490
C            0.25654559771027        1.18952503057673       -1.36941475673342
O           -0.23158198626774        1.17969684289762       -2.69195199409642
C           -0.80973214164155        0.84156403942005       -0.35730352767663
C           -1.79979851466924       -0.07286155927767       -0.66736049563126
C           -2.76625942936023       -0.42935979474583        0.27403452102777
C           -2.73188457340835        0.14613846995135        1.53964608454108
C           -1.75253282203752        1.07841868795264        1.84002399338750
C           -0.79999135800292        1.43335613680555        0.90515177521023
O           -3.68493129221102       -1.33932669406098       -0.14483336427541
C           -4.67575229494523       -1.76403747948448        0.75932447947532
C            2.57915670747103        0.77463747777476       -2.20076807246885
C            1.06112702879711       -1.18475254245865       -1.81083989438241
C            3.00241799750474       -0.56793951685465        0.48545126445043
O            3.80294556970283       -1.11463971400139       -0.24922640253542
C            3.17401470695257       -0.60840558760190        1.96671004912546
C            2.73545175319307        0.29324702974491        2.82996831369190
H            1.24054699365818        0.38494371011832        0.76407047777101
H            0.64681528080181        2.19399269948081       -1.12656055694308
H           -1.03589409663546        1.70776583909878       -2.72566086798520
H           -1.84204932379238       -0.52466102210834       -1.64572055148667
H           -3.46149133324802       -0.11149106727592        2.29048551807287
H           -1.74135898175630        1.53506017842874        2.81870792852315
H           -0.06331272238121        2.18807618160148        1.14325705416034
H           -5.31296513806906       -0.93274834811695        1.07829598413692
H           -5.27802639223547       -2.49013946367301        0.21588745078900
H           -4.23712212410117       -2.24541889722335        1.63937264033887
H            2.91645101625153        1.73274489529335       -1.81095156905423
H            3.41997947294665        0.08879458545964       -2.21553226580281
H            2.20049120899503        0.91235130334772       -3.20880715124152
H            1.94067802623404       -1.82204179414795       -1.82676620348052
H            0.65019481994681       -1.11230197006560       -2.81264748106232
H            0.32071403572277       -1.62389998814969       -1.14585164659708
H            3.77633130274591       -1.44273928426247        2.29886804688594
H            2.17609937812068        1.16530046556156        2.53169922375697
H            2.93928747652080        0.20779681319035        3.88472786266682