26
 
C            6.16008453107893        0.00424751184818       -0.03538715088801
C            4.96409265364191       -0.56700800573169       -0.02221073195324
C            3.73828300237928        0.26477364482240        0.01644358228237
O            3.73182291037813        1.46951050085009        0.03794331421561
N            2.58065688514104       -0.49702148937212        0.02549737295650
C            1.29420557275732       -0.01054269158236        0.05921046271726
C            0.10688578067976       -0.69582210419072        0.07020502451946
C           -0.86857147451709        0.33646010119239        0.10753658060809
C           -2.31918884699935        0.21886829111790        0.13373554974949
C           -3.09963980290082        1.37455542764655        0.16944370373859
C           -4.47729464030840        1.28397229970615        0.19469951411581
C           -5.09446910526615        0.04263532663514        0.18472412127702
C           -4.32620186446674       -1.10891329672696        0.14932696750744
C           -2.94610834812567       -1.02497696793383        0.12390562469856
N           -0.27551568760606        1.51006949092059        0.11679174609022
O            1.06159657142328        1.30312089617365        0.08704923000937
H            6.23772909041342        1.07938726713747       -0.01782402568074
H            7.07486186818127       -0.56208758670405       -0.06326952776814
H            4.84327961464942       -1.64128695517188       -0.03891878686406
H            2.65605646338404       -1.50335729255524        0.00617464085740
H           -0.03384612019314       -1.75512877565292        0.05415724667257
H           -2.59954371729948        2.32985384376932        0.17663052675724
H           -5.07521651047390        2.18310558722573        0.22229976468986
H           -6.17214263139037       -0.02745237425241        0.20449431341450
H           -4.80458226823252       -2.07767006538053        0.14147850785713
H           -2.35723392633719       -1.92929258379063        0.09639034620018