26
 
C            6.02221764335090       -0.53361226463781       -0.80060673920438
C            4.85687382420014       -0.68453217090725       -0.18593385845173
C            3.61136416894011       -0.17249827600925       -0.78756280207088
O            3.54737005347069        0.41106572220054       -1.85185580838780
N            2.48441129684414       -0.40375705738458       -0.04101375393140
C            1.24601956714080        0.01960618999417       -0.44817981264355
N            0.17261909108622       -0.17227348159520        0.23359928062749
C           -0.91975046515863        0.36160102251866       -0.39319377498647
C           -2.23025082020741        0.23960627436985        0.23384468419680
C           -3.32500535034034        0.98167530785380       -0.20738760167540
C           -4.55615271305056        0.84118087983059        0.40389408186229
C           -4.71604965251189       -0.03811607064205        1.46246868446595
C           -3.63258128652090       -0.77546764227954        1.91124403497828
C           -2.39942733297113       -0.63786742614099        1.30442310158443
C           -0.63062865338310        0.96207783940599       -1.58738515494565
S            1.04950255822808        0.87386903153226       -1.95720959527099
H            6.06758759158792       -0.03253902734031       -1.75390159427064
H            6.94596095439951       -0.89585398585795       -0.38358427198826
H            4.77414711887380       -1.18135839107027        0.77036990346179
H            2.52319405030054       -0.88564742256435        0.84563118971834
H           -3.21083416372984        1.67847582604920       -1.02370566796891
H           -5.39696346184501        1.42293045812129        0.05460753161594
H           -5.68060947113814       -0.14531943389262        1.93657165865489
H           -3.75155711002419       -1.46097783927636        2.73785021544189
H           -1.54848527684123       -1.20631754409111        1.64574554333775
H           -1.30297216060733        1.43404948182036       -2.27308297555625