25
 
C            2.70950261663832        0.05022060494109       -2.38947916696003
C            1.40035316718018        0.42769644759934       -1.93484286720612
C            0.71926019208052       -0.29444268880193       -0.96446349744631
O            1.05018301318972       -1.36572319454258       -0.43385113320939
N           -0.54939416657975        0.30816631494965       -0.62916763797328
C           -1.52393001792511       -0.09430780710787        0.23063825999395
C           -2.68154639580174        0.69021777229325        0.36682211339618
C           -3.69119105818875        0.32347860111135        1.23084392758500
C           -3.58563329719876       -0.83271758745968        1.98728743014950
C           -2.44640714559200       -1.61568228983923        1.86083229444662
C           -1.42962300001297       -1.26232264733393        1.00189912518666
H            2.91857165390857        0.23965581098604       -3.44032475288349
H            2.97241295769785       -0.96308870411048       -2.09875294929569
H            0.98583906076056        1.35867294564901       -2.30259454702974
H           -0.73685468367664        1.17004610205931       -1.12135975518325
H           -2.77474951734050        1.59710681493016       -0.21975256277698
H           -4.57329648291035        0.94731928581806        1.31646495032287
H           -2.35331898322823       -2.52098549584332        2.44770155053234
H           -0.54217971972627       -1.86506547461648        0.89691575544687
H           -4.37925277778265       -1.11832660091410        2.66517306781580
S            4.17220357858440        1.10649881909094       -1.59289100368665
C            3.66570561797398        0.94986530630409        0.12994880030535
H            3.96861722887463        1.84585515962294        0.66531465683375
H            4.12507757964637        0.06919249942249        0.57371397047735
H            2.57965057940115        0.84867000580711        0.13365307853234