20
 
C            4.17410182911192       -0.13622022378061       -0.72501825540022
C            2.98640750337040       -0.68862789758563       -0.52712381442718
C            1.77751399967495        0.15651979904258       -0.34382887652514
O            1.81381488669824        1.36926733834025       -0.36525015337981
N            0.64189804899448       -0.58238177876893       -0.15187927624135
C           -0.67053009613055       -0.14919617840709        0.05339512661354
C           -1.65412569668665       -1.12299492379873        0.22393619988405
C           -2.97005045039299       -0.75841776798322        0.43064751473956
C           -3.32330247466861        0.58028843044807        0.47017571337082
H           -4.35208051952644        0.86472636973996        0.63178852996683
C           -2.34822721456094        1.54844645512167        0.30107669572254
C           -1.02724266254429        1.19573385732350        0.09339993394007
H            4.26517752895630        0.93749502723336       -0.75355699332495
H            5.07047513424014       -0.71637982950016       -0.86163737333834
H            2.85826693163180       -1.76223120943901       -0.49274117315295
H            0.74771743580646       -1.58797966427621       -0.15593991731548
H           -1.38154543892470       -2.16967333136924        0.19361003991715
H           -3.72186742945211       -1.52291631800312        0.56126023286135
H           -2.61586277581816        2.59422366793567        0.33061833819411
H           -0.27053853977931        1.95031817772694       -0.03787251318454