26
 
C           -2.92564844517106        0.69997409349988        2.05477548448275
C           -1.79217873369808        0.76943808209375        1.26909773183879
C           -1.34408424756245       -0.35657353687915        0.58004607582058
N           -0.19246539871718       -0.21617413747274       -0.20040191307398
C            0.51081924638194       -1.16809082407094       -0.86314943932986
O            0.20902734111975       -2.33807220569731       -0.94664304982887
C            1.76343823035301       -0.61418813149603       -1.54310967090086
C            2.74644558456077        0.03332501597800       -0.57171846496670
S            2.30723783584874        1.73871296439329       -0.07899670226464
C            2.81209149536568        2.63635105811320       -1.57377099656907
C           -2.04917130412805       -1.55117571388310        0.68716699885976
C           -3.18220154341576       -1.60852590838644        1.47865177980404
C           -3.62584228672098       -0.49053452387494        2.16365767444394
H           -4.51066602442122       -0.54466832860426        2.77981865918588
H           -3.26230167487479        1.57846243189376        2.58543544788684
H           -1.24146434274998        1.69659761665690        1.18752340607216
H            0.22197808091354        0.71088457247520       -0.16640835830565
H            2.25489163421808       -1.45641079032185       -2.03414061026464
H            1.46242566840703        0.09788695221004       -2.31549066463466
H            3.74401959596547        0.08588733233646       -1.00870770611671
H            2.79995434846402       -0.53191377212517        0.35835160754230
H            2.24879357074953        2.28219841613651       -2.43277643405830
H            2.59279649204688        3.68388183633039       -1.39511074851595
H            3.87888439166498        2.50031604058926       -1.73008945437290
H           -1.70460418432816       -2.42277675705776        0.15696284933106
H           -3.72217533027691       -2.54046506140266        1.55902649795406