23
Properties=species:S:1:pos:R:3:charge:R:1:forces:R:3 energy=-14095.995271691227 pbc="F F F"
C        4.31204427      -0.17813819       0.87161478      -0.27958798       0.00007251       0.00061650      -0.00050012
C        3.32886037       0.39276076       0.19048137      -0.16275986      -0.00341393       0.00018881       0.00495761
C        2.21462165      -0.42366577      -0.37718393       0.44168705      -0.00107629      -0.00032438       0.00488013
O        2.18126728      -1.63580476      -0.27603808      -0.45453528      -0.00547516       0.00506948      -0.00072692
N        1.24306104       0.28303459      -1.01773385      -0.40542158       0.00061428       0.00044918       0.00321149
C        0.04760894      -0.34328787      -1.55404392      -0.03336029       0.00358222      -0.00029083       0.00059826
C       -1.18078078      -0.10734372      -0.70407642       0.02770384      -0.00106833      -0.00311946      -0.00338298
C       -1.17321064      -0.46312895       0.64104515      -0.11186457       0.00211977       0.00291344      -0.00311355
C       -2.30025167      -0.26424631       1.42404193      -0.13796559       0.00285451       0.00136478      -0.00093791
C       -3.44662979       0.29161366       0.87298102      -0.14634477      -0.00158123      -0.00649270      -0.00028598
C       -3.46059452       0.64421284      -0.46729998      -0.14071001      -0.00245950       0.00453341       0.00233233
C       -2.33224801       0.44496552      -1.25009368      -0.14945574      -0.00126708      -0.00408998      -0.00341864
H        4.31998146      -1.24870914       1.02209201       0.16016425       0.00678275       0.00118431      -0.00477152
H        5.12211832       0.40318811       1.28939410       0.14741573       0.00088518      -0.00117683      -0.00144649
H        3.30195574       1.46359795       0.03069249       0.12018266       0.00111218      -0.00136301       0.00351364
H        1.26759024       1.28475699      -0.96381239       0.27452153       0.00072400      -0.00136063      -0.00316547
H       -0.13069326       0.02517941      -2.56270130       0.08618871       0.00143410      -0.00219225       0.00301044
H        0.25873437      -1.40759752      -1.62132901       0.10403290      -0.00154433      -0.00047985      -0.00003367
H       -0.28273692      -0.89232970       1.08035397       0.12387576       0.00004169       0.00122568      -0.00098735
H       -2.27566153      -0.54547273       2.46688473       0.13465640       0.00009267      -0.00120133      -0.00138240
H       -4.32509477       0.44568915       1.48243775       0.13733110      -0.00100700       0.00245798       0.00072684
H       -4.35120350       1.07318392      -0.90377596       0.13652204       0.00194944       0.00441586       0.00094514
H       -2.34510819       0.72070010      -2.29627400       0.12772389      -0.00337314      -0.00232773      -0.00002318
