19
Properties=species:S:1:pos:R:3:charge:R:1:forces:R:3 energy=-20766.85882643384 pbc="F F F"
C       -2.76862743      -0.90593901      -0.31243451      -0.14698623       0.00100906       0.00009339      -0.00235414
N       -1.68488654      -0.02679428       0.01942172      -0.15751594       0.00013473      -0.00022163      -0.00051427
C       -0.36878027      -0.12665741      -0.57950984      -0.00247509       0.00243139      -0.00073271      -0.00023202
C        0.39196321       0.98006220       0.09249686      -0.13166541       0.00512999      -0.00107699      -0.00042833
C       -0.40792650       1.61798299       0.94746353      -0.20230474      -0.00118107       0.00401905       0.00395335
C       -1.76396256       0.99083580       0.93025370       0.48874822      -0.00244763       0.00150080       0.00046175
O       -2.75521585       1.29851835       1.57973910      -0.58185703       0.00024079      -0.00344373      -0.00092250
H       -3.63243766      -0.62065511       0.27956991       0.08432588      -0.00308592      -0.00001221      -0.00224319
H       -3.02447564      -0.83718897      -1.37323027       0.06046987      -0.00305569       0.00231234       0.00351484
H       -2.51444993      -1.94604224      -0.09230418       0.06045218      -0.00261960       0.00022109      -0.00129769
H       -0.39556226       0.01504499      -1.66141833       0.08448284       0.00009449      -0.00164911       0.00064527
H        0.09547587      -1.10053974      -0.41474575       0.09293834      -0.00036839      -0.00155189      -0.00140663
H        1.43132394       1.16373561      -0.14563988       0.13617209      -0.00093412      -0.00247905       0.00003573
H       -0.17802640       2.45556445       1.58589325       0.12290890       0.00245198      -0.00053076       0.00030842
S        2.94045549      -0.46951861      -1.78094843      -0.84893727      -0.00268830      -0.00399631      -0.00011140
C        3.55567516      -0.61125312      -0.06930131      -0.30230024       0.00384699       0.00421032       0.00518998
H        4.38760126      -1.31389495      -0.01236323       0.07726377      -0.00136597      -0.00069729       0.00024074
H        3.91642229       0.34595320       0.31764295       0.08339669      -0.00383481       0.00170245      -0.00257776
H        2.78962614      -0.96566713       0.62891079       0.08288320       0.00624129       0.00233193      -0.00226260
