29
Properties=species:S:1:pos:R:3:charge:R:1:forces:R:3 energy=-23994.298798835178 pbc="F F F"
C        4.72235222      -0.76127924       0.48687569      -0.19730274      -0.00143606      -0.00155777       0.00034786
S        4.10526523      -0.06527939      -1.06326333      -0.21421489       0.00716494      -0.00107408       0.00335378
C        2.71840107       0.90483534      -0.43162022      -0.10486644      -0.00460167       0.00130534       0.00173920
C        1.48236754       0.06782499      -0.15579862      -0.12617773      -0.00442207      -0.00178795       0.00046806
C        0.35461045       0.92033475       0.40775302       0.41480049       0.00179846       0.00349974       0.00657949
O        0.48812868       2.12117075       0.56903404      -0.47413313      -0.00909110       0.00274943       0.00300581
N       -0.80083060       0.27764987       0.72311251      -0.19715486       0.00315816      -0.00064081      -0.00869488
C       -1.95631046       1.04235812       1.15873075      -0.06045802       0.00675927       0.00016471      -0.00168077
C       -3.04780489       1.00353366       0.09464761      -0.14665778      -0.00043897      -0.00279967       0.00073305
C       -3.40408194      -0.43811231      -0.25879871      -0.13663794      -0.00010556      -0.00086527      -0.00233405
C       -2.15988016      -1.22340882      -0.66279130      -0.13523468       0.00228615      -0.00126393       0.00073298
C       -1.09052670      -1.11573206       0.42314029      -0.06379656       0.00357434      -0.00497949       0.00345377
H        5.65087446      -1.27771465       0.25802876       0.11442116      -0.00565347       0.00186345      -0.00438952
H        4.92704680       0.02792762       1.20663865       0.09211048       0.00108813      -0.00477162      -0.00271521
H        4.02646864      -1.47485718       0.92191860       0.08554690      -0.00385361       0.00579034       0.00054672
H        3.02396981       1.43821850       0.46504105       0.09857003      -0.00295571      -0.00034254       0.00352489
H        2.49356810       1.65882370      -1.17967320       0.11125932      -0.00488843       0.00060280      -0.00397006
H        1.70046451      -0.74055978       0.54280294       0.06945723       0.00016626      -0.00288277       0.00155379
H        1.13606084      -0.40835332      -1.07414887       0.07693303      -0.00116676      -0.00212267      -0.00608717
H       -1.63463029       2.05588661       1.36303834       0.09930775       0.00505996       0.00304801      -0.00062708
H       -2.32683254       0.60829272       2.09031754       0.07953408       0.00007755       0.00204903      -0.00020196
H       -3.92681367       1.54227549       0.44885979       0.07250455       0.00221553       0.00274353      -0.00010462
H       -2.68332350       1.51683946      -0.79734757       0.09160179      -0.00196363       0.00018458       0.00179131
H       -3.86430252      -0.91930223       0.60821159       0.07660551      -0.00007525       0.00304433       0.00024720
H       -4.14610431      -0.46473628      -1.05593678       0.07080239       0.00113120      -0.00084379      -0.00233975
H       -1.76184478      -0.81793940      -1.59509328       0.07903487       0.00523232      -0.00018255       0.00038697
H       -2.39814343      -2.27248508      -0.83744351       0.07143627      -0.00185659       0.00223264      -0.00332603
H       -1.44776976      -1.59593839       1.33855702       0.08147316      -0.00260874      -0.00363619       0.00519794
H       -0.18894168      -1.63709838       0.12678762       0.07123578       0.00540596       0.00047258       0.00280848
