29
Properties=species:S:1:pos:R:3:charge:R:1:forces:R:3 energy=-26036.989889899134 pbc="F F F"
C        4.94061077       0.21556460      -0.32660605      -0.16229251      -0.00137689       0.00118126      -0.00247543
C        4.40997040       1.34534446       0.27900541      -0.14124948       0.00252149      -0.00031268       0.00002122
C        3.04613284       1.44348848       0.48994891      -0.15503944       0.00258780      -0.00283825       0.00066453
C        2.19057926       0.41406994       0.09838113       0.14600907      -0.00021845      -0.00048429      -0.00162909
N        0.81798249       0.59895088       0.35608001      -0.36507055      -0.00456868       0.00016568      -0.00310532
C       -0.23964583      -0.21594367       0.05152755       0.41495895      -0.00769464      -0.00286059       0.00481881
O       -0.12786016      -1.28082081      -0.51510871      -0.41976070       0.00311882      -0.00223132       0.00580747
C       -1.58600212       0.34850683       0.47814110      -0.13450621      -0.00965887       0.00084089       0.00044163
C       -2.67657451      -0.71527855       0.48387315      -0.02419348      -0.00448277       0.00087902       0.00285453
S       -4.32419061       0.04909890       0.61050050      -0.21230237       0.00458862       0.00292284      -0.00171393
C       -4.49617181       0.71082590      -1.06079410      -0.20007184       0.00012052       0.00060046      -0.00067387
C       -2.51983541      -1.69877937       1.63636685      -0.20189159       0.00181702      -0.00293630      -0.00232181
C        2.71776909      -0.72207017      -0.50946162      -0.11535361       0.00238882      -0.00134766      -0.00009335
C        4.08749945      -0.80583526      -0.71470856      -0.13392982       0.00166538       0.00190620      -0.00167687
H        6.00476395       0.13403787      -0.49332079       0.13555248      -0.00468335       0.00130339       0.00037551
H        5.05976997       2.15175607       0.58791482       0.13395135       0.00108795       0.00036001       0.00054828
H        2.63279323       2.32520811       0.96345592       0.12750556      -0.00421091      -0.00382927      -0.00210071
H        0.59585810       1.46106780       0.81864137       0.25817609      -0.00193136      -0.00043292       0.00139399
H       -1.49917810       0.80608460       1.46530603       0.07630317       0.00241345       0.00341331      -0.00361483
H       -1.83836509       1.15197401      -0.21495563       0.06713765       0.00206593       0.00386033      -0.00110887
H       -2.63497902      -1.25606929      -0.45763257       0.11190615       0.00104065       0.00457042       0.00377789
H       -5.50375607       1.11223275      -1.13065294       0.11900231      -0.00078010       0.00076968      -0.00071013
H       -4.37962591      -0.07433702      -1.80383398       0.09430339       0.00485776       0.00076612       0.00422173
H       -3.78829089       1.51162011      -1.26090867       0.08578292      -0.00084067      -0.00242102       0.00163598
H       -2.54654612      -1.17415594       2.59202837       0.07275549       0.00216086      -0.00014639      -0.00491637
H       -1.57224979      -2.22791775       1.55828934       0.07894550       0.00354805      -0.00086589      -0.00111673
H       -3.32783821      -2.42748589       1.62901221       0.07727066       0.00096955      -0.00120756      -0.00227996
H        2.06102871      -1.51741204      -0.81085848       0.13367780       0.00391570      -0.00157275      -0.00138956
H        4.48778866      -1.69055399      -1.18906932       0.13242315      -0.00042170      -0.00005315       0.00436488
