34
Properties=species:S:1:pos:R:3:charge:R:1:forces:R:3 energy=-28603.767214846754 pbc="F F F"
C        4.73080517       0.67744035       0.33233197      -0.14767110      -0.00132927       0.00043532      -0.00032282
N        3.29926599       0.55106863       0.30919033      -0.38397232      -0.00323565       0.00201709      -0.00044205
C        2.61076256       0.62747745      -0.84844844       0.46306974      -0.00310152      -0.00182381      -0.00354986
O        3.13839342       0.86252157      -1.93665657      -0.56991911       0.00081908      -0.00216223      -0.00129629
C        1.14520595       0.40724110      -0.74775689      -0.16181521      -0.00070045       0.00120115      -0.00232274
C        0.46896274       0.58535617       0.37895752      -0.11435682       0.00195006      -0.00219469       0.00294153
C       -0.94949382       0.17374215       0.59888386       0.00188089       0.00229446      -0.00225533       0.00254336
N       -1.65018328      -0.15213982      -0.63985296      -0.27052248       0.00607079      -0.00153851      -0.00425522
C       -2.72833275      -1.11624478      -0.50801272      -0.04548765      -0.00232878       0.00383653       0.00146217
C       -4.01353629      -0.50158487       0.03105879      -0.01344049      -0.00213170      -0.00089830       0.00094238
O       -4.43238423       0.58779487      -0.78323562      -0.31089404      -0.00292352      -0.00666945      -0.00165460
C       -3.41810973       1.58206544      -0.84012084      -0.01119450      -0.00670517      -0.00281061       0.00050671
C       -2.11399846       1.00951012      -1.38177301      -0.04710721      -0.00204740       0.00124190       0.00084952
H        5.08185982       0.89136800      -0.67257947       0.09604143       0.00187441      -0.00124335      -0.00206807
H        5.19495236      -0.24545817       0.68310360       0.07405765       0.00402802       0.00163079       0.00654346
H        5.03518234       1.48462906       1.00087199       0.07324129       0.00284987       0.00438323      -0.00295132
H        2.85174147       0.12845182       1.13140685       0.22932500       0.00389961      -0.00388779      -0.00137806
H        0.66011082       0.08818689      -1.66016508       0.12042093       0.00178163       0.00424707       0.00448933
H        0.97499354       0.98003633       1.25083996       0.12721382       0.00142947       0.00394230      -0.00378168
H       -0.91334781      -0.69193402       1.26456986       0.09599487       0.00532850      -0.00716241      -0.00213896
H       -1.45907996       0.96842752       1.16014176       0.06691958       0.00164678       0.00462269      -0.00112203
H       -2.93780275      -1.53772148      -1.49399143       0.07575113       0.00131024       0.00475926       0.00326446
H       -2.40149734      -1.93216383       0.13405670       0.06533947      -0.00219650       0.00053295      -0.00466209
H       -3.86483477      -0.15425005       1.05973354       0.05860595       0.00092531       0.00140230      -0.00281898
H       -4.82929758      -1.22256582       0.02665176       0.06835718      -0.00028827       0.00072366      -0.00237160
H       -3.79176960       2.37057954      -1.49222564       0.06758688       0.00191076       0.00214324       0.00187519
H       -3.26353099       2.00293080       0.15798606       0.05956760      -0.00206617      -0.00428920       0.00064541
H       -1.34532054       1.78063933      -1.37008175       0.06972868       0.00094468       0.00288817       0.00220604
H       -2.27931606       0.71411908      -2.42088010       0.07515957      -0.00043288      -0.00055931       0.00272239
S        2.03417672      -1.15716365       2.76570883      -0.77807438       0.00189771       0.00218056       0.00279445
C        2.25314325      -2.26562814       1.34422357      -0.28572410      -0.00185380      -0.00142163      -0.00109063
H        1.94802931      -3.28401195       1.58957467       0.09270629      -0.00697470      -0.00187540       0.00117997
H        1.66335347      -1.94599753       0.48211228       0.07874713      -0.00195454      -0.00094917       0.00039754
H        3.29393055      -2.30462398       1.01703304       0.08046439      -0.00069075      -0.00044633       0.00286265
