20
Properties=species:S:1:pos:R:3:charge:R:1:forces:R:3 energy=-13025.509270872395 pbc="F F F"
C        4.17990929      -0.01629709      -0.56759840      -0.27694669       0.00016896       0.00336368      -0.00050181
C        3.11783074      -0.25012359       0.18777677      -0.15195140      -0.00175514      -0.00116630       0.00114436
C        1.74460291       0.05825210      -0.31964640       0.44835690      -0.00257414       0.00295659      -0.00093202
O        1.55659762       0.52678309      -1.42400114      -0.43434796      -0.00447556      -0.00062123      -0.00433682
N        0.74330027      -0.23411729       0.56824953      -0.36161456       0.00287582      -0.00008813       0.00583359
C       -0.64821376      -0.06550533       0.40859274       0.12606400       0.00235545      -0.00311599       0.00175407
C       -1.45879186      -0.44463648       1.47738418      -0.16812387       0.00359211       0.00199522      -0.00169308
C       -2.83372080      -0.31290361       1.40055325      -0.13868146       0.00073473      -0.00244793       0.00031317
C       -3.41984189       0.20067216       0.25302133      -0.15797852       0.00017755       0.00278025      -0.00025050
C       -2.61134874       0.57724985      -0.80788476      -0.13591629       0.00044500       0.00396473      -0.00217599
H       -3.05579348       0.97938640      -1.70700553       0.13515849      -0.00429940       0.00031816      -0.00284575
C       -1.23098491       0.45073236      -0.74443250      -0.12448759       0.00397389      -0.00228550       0.00326613
H        5.18133204      -0.22809952      -0.22017765       0.14658746       0.00601644      -0.00513427      -0.00101612
H        4.05944353       0.39722511      -1.55855661       0.15896095       0.00292277       0.00498749      -0.00691009
H        3.22088651      -0.66672873       1.18273182       0.12171395      -0.00197649      -0.00045987       0.00627607
H        1.01782460      -0.61749293       1.45374529       0.26804680      -0.00174116      -0.00216489       0.00341979
H       -1.00504593      -0.84522132       2.37529859       0.13082379       0.00171528      -0.00171149      -0.00160127
H       -3.44806053      -0.61212682       2.23782521       0.13601136      -0.00181469       0.00053830       0.00301738
H       -4.49285682       0.30597312       0.18894041       0.13750079      -0.00621045       0.00011369      -0.00404411
H       -0.60596987       0.74383310      -1.56765076       0.14082390      -0.00013100      -0.00182265       0.00128203
