20
Properties=species:S:1:pos:R:3:charge:R:1:forces:R:3 energy=-13025.509239053768 pbc="F F F"
C       -4.22007528       0.39579720       0.00857110      -0.27684224       0.00026649       0.00202986       0.00524934
C       -3.11036314      -0.32659069       0.02227777      -0.15207356       0.00240766      -0.00006801       0.00120210
C       -1.77199366       0.34169104      -0.00248838       0.44843137       0.00686188       0.00160264       0.00267915
O       -1.65624950       1.54992760      -0.03736336      -0.43437877       0.00949237       0.00139132      -0.00271924
N       -0.71403471      -0.52839924       0.01838011      -0.36158514       0.00285238      -0.00219771       0.00252772
C        0.66566673      -0.23419973       0.00147622       0.12596045       0.00126420       0.00105021       0.00147381
C        1.17415852       1.06012477      -0.04037896      -0.12448675      -0.00172756       0.00175100       0.00038615
C        2.54898574       1.24887471      -0.05565797      -0.13593157      -0.00028664      -0.00318823       0.00242370
C        3.42469675       0.17472559      -0.02870288      -0.15792593      -0.00225164      -0.00218499       0.00139310
C        2.91248323      -1.11396561       0.01344048      -0.13868134      -0.00046363      -0.00256549       0.00036902
H        3.57917263      -1.96447240       0.03445835       0.13598545       0.00278939       0.00429932       0.00128779
C        1.54397326      -1.31628969       0.02876178      -0.16806163      -0.00201248       0.00353017       0.00082238
H       -5.19829758      -0.06400746       0.02736884       0.14669365       0.00001428      -0.00259741      -0.00284047
H       -4.16291535       1.47452807      -0.02076145       0.15889567      -0.00539531       0.00446586      -0.00181096
H       -3.14737053      -1.40918387       0.05197659       0.12174258      -0.00435512      -0.00334406      -0.00017023
H       -0.93014425      -1.50746360       0.05228742       0.26797697      -0.00325112      -0.00325746      -0.00353042
H        0.49729156       1.89414453      -0.05922447       0.14074583      -0.00399214       0.00021385      -0.00370804
H        2.93564675       2.25762747      -0.08883444       0.13518827      -0.00267635      -0.00458035       0.00119137
H        4.49262453       0.33765413      -0.03931426       0.13753158      -0.00354289       0.00022532      -0.00344568
H        1.14784365      -2.32366857       0.06298170       0.13081509       0.00400523       0.00342333      -0.00278063
