26
Properties=species:S:1:pos:R:3:charge:R:1:forces:R:3 energy=-24955.5989411001 pbc="F F F"
C        2.33616563      -1.71286783       1.38582560      -0.11580304      -0.00335538      -0.00080005      -0.00048752
C        1.21834610      -0.76887710       1.25537941      -0.46019512       0.00125776       0.00011732       0.00168297
C        0.47715039      -0.74129563       0.07920452       0.31605375      -0.00099340      -0.00410374       0.00272615
O        0.61856108      -1.50376632      -0.91196744      -0.56041074       0.00175587       0.00481793       0.00028235
N       -0.54250180       0.26861265      -0.07944340      -0.24597564       0.00307340       0.00296730      -0.00095808
C       -1.17128079       0.87972950       1.07074269      -0.06405664      -0.00116194       0.00099865      -0.00347875
C       -2.19015442       1.79221570       0.39906186      -0.15896912      -0.00149485       0.00143379      -0.00219441
C       -2.70752798       0.95983497      -0.77461999       0.06830837       0.00497557      -0.00023350      -0.00094830
C       -1.58687887      -0.04903477      -1.04465926      -0.06062876       0.00288454      -0.00332272       0.00012810
O       -3.90908444       0.24150269      -0.45270155      -0.50965095       0.00558993      -0.00027462      -0.00051623
H        2.24493803      -2.52228347       0.65625654       0.08406542      -0.00115528       0.00227219       0.00189606
H        2.42616121      -2.15543092       2.38007977       0.06954896      -0.00327611       0.00313238      -0.00245684
H        1.13867366       0.00454043       2.00359567       0.11094031       0.00263457      -0.00239174      -0.00274995
H       -0.45120221       1.43596384       1.66622716       0.05326417      -0.00138644      -0.00586325      -0.00395753
H       -1.66633638       0.14900664       1.72744870       0.06678983       0.00474971       0.00028873      -0.00167079
H       -1.67834011       2.67780997       0.01999924       0.07137309      -0.00058368       0.00244496       0.00037133
H       -2.99398820       2.11490560       1.06178418       0.05977885      -0.00265433      -0.00584434       0.00447364
H       -2.90818033       1.58736885      -1.64686336       0.05217281       0.00591866       0.00434234       0.00298797
H       -1.19586770       0.02138008      -2.06020174       0.06660755      -0.00264678      -0.00084974      -0.00248930
H       -1.96523915      -1.06793604      -0.91322871       0.08948666      -0.00550196      -0.00220429       0.00055456
H       -4.50023912       0.86034534      -0.02288701       0.31502366      -0.00105220       0.00134440       0.00261739
S        4.04260625      -1.00153030       1.11375239      -0.31945685      -0.00026340       0.00510920      -0.00380780
C        3.78181621      -0.45551227      -0.58360178      -0.20649816      -0.00137697      -0.00132778       0.00655641
H        4.71201711      -0.03064892      -0.96139395       0.09100061      -0.00601737      -0.00044515      -0.00601980
H        2.99028911       0.28877811      -0.59920442       0.10150424       0.00004069      -0.00484704      -0.00056035
H        3.47512962      -1.28952380      -1.21036556       0.08572678       0.00003923       0.00323904       0.00801908
