23
Properties=species:S:1:pos:R:3:charge:R:1:forces:R:3 energy=-14096.175099892778 pbc="F F F"
C       -4.77656947       0.37669807       0.25685046      -0.06580882       0.00133585       0.00099962       0.00118131
C       -3.38385700       0.02532718       0.64608286      -0.02620470       0.00119415      -0.00162412       0.00145802
C       -2.31541856       0.27079457      -0.10078574      -0.05957523       0.00145445      -0.00094818       0.00012003
C       -0.95653015      -0.11087515       0.36967799       0.17783229       0.00264511       0.00104004       0.00016808
O       -0.75844116      -0.65493809       1.43770335      -0.30459696      -0.00234200      -0.00221226      -0.00074505
N        0.04741509       0.20942471      -0.51425511      -0.10453729      -0.00086949       0.00080713       0.00004448
C        1.43449556      -0.01409459      -0.37888701       0.04550590      -0.00388880      -0.00012873      -0.00059831
C        2.25447270       0.40336297      -1.42782496      -0.04932120      -0.00332034       0.00263964       0.00016586
C        3.62583103       0.22305961      -1.37091723      -0.03819073      -0.00003129      -0.00143000      -0.00040719
C        4.20192152      -0.37936932      -0.26220447      -0.04227497      -0.00010271      -0.00556113       0.00134753
C        3.38588064      -0.79628119       0.77775047      -0.04025120      -0.00476502       0.00166753       0.00441955
C        2.01029684      -0.62108473       0.73360641      -0.05317740      -0.00270430       0.00103226      -0.00605212
H       -5.39994082      -0.51607249       0.22992805       0.03845876       0.00360682       0.00068908      -0.00100406
H       -5.21738282       1.04622664       0.99424900       0.03841520      -0.00270478       0.00083135      -0.00189445
H       -4.80761324       0.85716821      -0.71729213       0.03632259      -0.00309249      -0.00035235      -0.00010428
H       -3.22950205      -0.46196120       1.60186225       0.03158145       0.00132670      -0.00118868       0.00398044
H       -2.41399626       0.75410766      -1.06776467       0.04915792       0.00050068       0.00096041       0.00118826
H       -0.22867756       0.66207412      -1.36689795       0.14961538       0.00092726      -0.00142724      -0.00434746
H        1.80889156       0.87368840      -2.29542176       0.04817915      -0.00078176       0.00066737       0.00106900
H        4.23961650       0.55499187      -2.19730786       0.04695888       0.00306970       0.00259362      -0.00038120
H        5.27056359      -0.52248999      -0.20999659       0.04631811       0.00348943      -0.00129336      -0.00047761
H        3.81963026      -1.26960443       1.64752414       0.04540005       0.00206715       0.00018599       0.00266781
H        1.38253935      -0.94699386       1.54449630       0.03019281       0.00298529       0.00205191      -0.00179848
