24
Properties=species:S:1:pos:R:3:charge:R:1:forces:R:3 energy=-25387.480697084702 pbc="F F F"
C        2.52121775      -1.46496209      -0.54317092      -0.04955886      -0.00134998      -0.00250537      -0.00160570
C        1.95494902      -1.48775164       0.79731426      -0.24112746       0.00144177      -0.00499608      -0.00541279
C        0.68441961      -1.02843315       1.11952897       0.09864661       0.00549652      -0.00472919       0.00211198
O        0.13957156      -1.06067545       2.24283278      -0.40631402       0.00041741       0.00536237      -0.00234574
N       -0.02386852      -0.45059346       0.00805131      -0.13530129       0.00263286      -0.00546606      -0.00109483
C       -1.30139729       0.02435241      -0.04694380       0.11663152      -0.00038446       0.00123414       0.00324471
C       -2.21841261      -0.12322374       1.01098912      -0.06542785      -0.00210894      -0.00229807      -0.00264525
C       -3.49135814       0.36772723       0.84365931      -0.02904687      -0.00207434       0.00465523       0.00215671
C       -3.84904449       1.00181684      -0.34719894      -0.08537295       0.00181325      -0.00301069       0.00110336
C       -2.87549708       1.10194573      -1.32072231       0.00553786      -0.00388280       0.00420640       0.00215776
N       -1.63435129       0.63401716      -1.19747370      -0.24520674      -0.00293074       0.00410810       0.00589419
H        1.78121928      -1.70802367      -1.30860913       0.01683088      -0.00542441       0.00612757       0.00315221
H        3.34140128      -2.17156158      -0.66013179       0.00644532      -0.00078083       0.00190672       0.00646628
H        2.57237162      -1.77597064       1.63260309       0.00759473      -0.00472175      -0.00052986      -0.00685454
H        0.52262298      -0.22288063      -0.80487675       0.08512796       0.00504746       0.00418829       0.00434597
H       -1.87721590      -0.60884984       1.90937210       0.02195146       0.00031090       0.00119804      -0.00381964
H       -4.20882698       0.25875091       1.64640326       0.02329602      -0.00258158      -0.00223122      -0.00011372
H       -4.84071842       1.40044252      -0.50771436       0.02865515       0.00909286      -0.00320529      -0.00061964
H       -3.09574208       1.58856546      -2.26588887       0.01019397       0.00201514      -0.00507017      -0.00215082
S        3.33098146       0.13944633      -1.17117826      -0.14570864       0.00430188      -0.00469686       0.00242985
C        3.17237662       1.22427353       0.26281012      -0.08154270      -0.00215879      -0.00243669      -0.00406718
H        2.76916408       2.18554322      -0.04865864       0.01816691       0.00856767       0.00252994       0.00036043
H        2.48275168       0.75399151       0.95976535       0.03100030      -0.00607512       0.00071730      -0.00272077
H        4.13055872       1.38882573       0.75490859       0.01451957      -0.00666417       0.00494155       0.00002663
