34
Properties=species:S:1:pos:R:3:charge:R:1:forces:R:3 energy=-28603.12633872365 pbc="F F F"
C        4.89827518      -1.24050909       1.19470103      -0.02972887       0.00339837      -0.00152883       0.00313034
N        4.10544056      -0.71370042       0.10804174      -0.19498640       0.00129892      -0.00282972      -0.00089719
C        2.78776280      -0.25575333       0.44688316       0.09739412       0.00111035       0.00500389       0.00242722
O        2.60266516       0.14262960       1.62529133      -0.42588210       0.00193092       0.00392156       0.00420534
C        1.86150251      -0.26985114      -0.59043824      -0.23348883       0.00020458      -0.00177122      -0.00166346
C        0.52287475       0.34268713      -0.40492325      -0.02440886      -0.00058246       0.00353691       0.00054556
C       -0.61395633      -0.53086123      -0.91364873       0.00153863      -0.00098359      -0.00063403      -0.00089315
N       -1.93562560       0.07247200      -0.76604024      -0.12959161      -0.00235104       0.00736360      -0.00168042
C       -2.18388876       0.46882237       0.61407630       0.00331850      -0.00045570       0.00057905       0.00355086
C       -3.67056428       0.63838957       0.85257647       0.01882632      -0.00305249      -0.00179092      -0.00145583
O       -4.39693349      -0.57765583       0.69072911      -0.22107637      -0.00340354      -0.00326106       0.00391304
C       -3.76816363      -1.48497829      -0.20665704       0.01838766      -0.00106199       0.00042048       0.00189276
C       -3.00833161      -0.75462784      -1.30297757       0.00883658      -0.00171562      -0.00097685      -0.00052085
H        4.43641159      -2.08673498       1.72211412       0.00894119      -0.00120139      -0.00122135      -0.00447134
H        5.87213635      -1.56228542       0.81867798       0.01205435      -0.00680950       0.00015899      -0.00092845
H        5.05745961      -0.46002647       1.93492153       0.00460940      -0.00354620      -0.00056853       0.00109874
H        4.07781012      -1.32147425      -0.69482902       0.09830235       0.00340683      -0.00530716      -0.00136947
H        2.17315818      -0.48664343      -1.60696793       0.01154954       0.00133083       0.00444280      -0.00536503
H        0.37649656       0.54862231       0.65193839       0.01429371       0.00114547       0.00533664       0.00143495
H       -0.44740022      -0.73951368      -1.97114242       0.00913448       0.00145423      -0.00209396      -0.00330915
H       -0.57174158      -1.49208653      -0.38086666       0.01973345      -0.00040158      -0.00276466       0.00263774
H       -1.66720115       1.40655492       0.80903883       0.02016829       0.00725520      -0.00006171      -0.00105736
H       -1.78262395      -0.26508400       1.33306064       0.02345074       0.00032245      -0.00343176       0.00204076
H       -4.05408833       1.39448590       0.15865489       0.00982936       0.00004282      -0.00027313      -0.00441724
H       -3.86116219       0.97818429       1.86947756       0.01428753       0.00380347      -0.00042029      -0.00261627
H       -4.55638280      -2.11099452      -0.62679653       0.01469685       0.00594457      -0.00053266       0.00179465
H       -3.07306929      -2.12586939       0.34655249       0.01520118      -0.00360013       0.00363565       0.00125366
H       -2.60220868      -1.47738915      -2.01190288       0.02070785       0.00227228      -0.00263664      -0.00055744
H       -3.72178795      -0.12911584      -1.84835077       0.01015134      -0.00173467      -0.00164423      -0.00326043
S        0.37685046       2.04104395      -1.20167503      -0.17305860       0.00316052       0.00565907       0.00756423
C        1.51554121       2.87929699      -0.09040165      -0.08074807      -0.00117208       0.00379419       0.00468990
H        2.39538968       2.25497089       0.04282716       0.02574122      -0.00631504      -0.00028032      -0.00287104
H        1.78914262       3.84836339      -0.50829914       0.01251137      -0.00206093      -0.00625367      -0.00163076
H        1.05924393       3.03073248       0.88731235       0.01929519       0.00236628      -0.00356978      -0.00321570
