29
Properties=species:S:1:pos:R:3:charge:R:1:forces:R:3 energy=-24447.037890211283 pbc="F F F"
C        3.97800558      -0.95586922       0.19890218      -0.02867916      -0.00248398       0.00212742       0.00065954
N        2.61599289      -0.99707378       0.67866249      -0.20004027       0.00162735       0.00371294       0.00129925
C        1.64895719      -0.27542501      -0.09967884       0.09193236       0.00180460       0.00126516       0.00004066
O        1.86417000      -0.18991805      -1.34154346      -0.41567516      -0.00402706       0.00026510       0.00059796
C        0.57809094       0.24325991       0.60449135      -0.23242947       0.00051292      -0.00315824      -0.00038164
C       -0.52808276       0.90965046      -0.11326099      -0.02825164      -0.00097302       0.00020211       0.00005386
C       -1.91102598       0.44923968       0.32626019       0.00241499      -0.00449437      -0.00382227      -0.00005233
N       -2.11933705      -0.99698427       0.19769381      -0.13063493       0.00181529      -0.00531775       0.00248180
C       -3.41835012      -1.37693554       0.70060197      -0.01341401       0.00129940      -0.00132078       0.00090731
C       -1.92224064      -1.49033211      -1.15882029      -0.03063217      -0.00062624       0.00038996       0.00013100
H        4.38589555       0.05798569       0.07242104       0.00987978      -0.00215749       0.00024881       0.00196189
H        4.03557667      -1.43804772      -0.77464682       0.00296430      -0.00078247       0.00295412      -0.00215730
H        4.62897403      -1.49933394       0.88783042       0.00996338      -0.00180023      -0.00357372      -0.00153713
H        2.53146263      -0.73824240       1.64896548       0.09564807      -0.00280273       0.00120419       0.00343663
H        0.43992474       0.04335535       1.65807247       0.01319513       0.00366793      -0.00049028       0.00205736
H       -0.39648139       0.76457175      -1.18241695       0.01220757       0.00102595       0.00277705      -0.00141384
H       -2.68333695       0.98283174      -0.24905823       0.00439293      -0.00208222       0.00198839      -0.00532311
H       -2.03597218       0.71017275       1.38023359       0.00465825       0.00271416       0.00126950       0.00087043
H       -3.50543587      -2.46531361       0.70328605       0.00704050      -0.00380383       0.00151559      -0.00009693
H       -3.53475567      -1.02466137       1.72641243       0.00775527       0.00505594      -0.00107353      -0.00189540
H       -4.25631499      -0.96950677       0.10554832       0.01087931       0.00470693       0.00106022       0.00126632
H       -2.58300109      -0.98986429      -1.88864334       0.01124146       0.00178495       0.00266246      -0.00136822
H       -0.89012919      -1.33988981      -1.46328399       0.01500168      -0.00045098      -0.00529697       0.00022103
H       -2.13787954      -2.56071025      -1.18000918       0.00801264      -0.00248518       0.00286631      -0.00036404
S       -0.51034528       2.78638152       0.03815344      -0.19067030       0.00895295       0.00179486      -0.00124421
C        1.17228792       3.05016299      -0.54461450      -0.08800591      -0.00715193      -0.00492392       0.00137772
H        1.27001000       4.06758420      -0.92225979       0.00923440      -0.00123862       0.00173149      -0.00033790
H        1.40425184       2.32158298      -1.31679104       0.02224616       0.00196002      -0.00051383      -0.00122359
H        1.87053085       2.89450076       0.27153634       0.01975632       0.00043194      -0.00054398       0.00003370
