22
Properties=species:S:1:pos:R:3:charge:R:1:forces:R:3 energy=-21836.16143376046 pbc="F F F"
C        2.94728500       1.14628015       0.52719455      -0.02551691       0.00330542       0.00017645      -0.00074666
N        2.00065156       0.06120968       0.40858832      -0.18182260       0.00647477      -0.00308547      -0.00058854
C        1.23127530       0.01756793      -0.79645946       0.09124215       0.00199279      -0.00160274       0.00370582
O        1.71516007       0.51919403      -1.84021872      -0.46457553       0.00110459      -0.00617125       0.00189304
C       -0.00222163      -0.60584744      -0.71338395      -0.20085126       0.00170510      -0.00006204       0.00360140
C       -0.78749267      -1.30264068       0.34535644      -0.01130901      -0.00006571      -0.00036944      -0.00030511
C       -1.87312881      -1.57593729      -0.73502338      -0.06901946       0.00062405      -0.00385333       0.00221732
C       -1.00438515      -0.86992887      -1.81327563      -0.06708182      -0.00027062       0.00205606       0.00057479
H        3.70025335       0.91135170       1.28512101       0.00297362      -0.00046066       0.00230252       0.00112570
H        2.49574662       2.11646253       0.78030582       0.01032032       0.00476123       0.00061196      -0.00178732
H        3.43129633       1.25313350      -0.43880338       0.00565550       0.00322128      -0.00046537       0.00058054
H        1.42174430      -0.07059588       1.22187818       0.08894303       0.00157510       0.00483466      -0.00453617
H       -0.36265723      -2.19140455       0.81044084      -0.00069876      -0.00166208       0.00429448       0.00241790
H       -2.82285245      -1.08180300      -0.52860313       0.00578882       0.00437908       0.00455968      -0.00071716
H       -2.07666954      -2.63257690      -0.90632785       0.01019668      -0.00166262      -0.00316185      -0.00358002
H       -0.66990987      -1.51523590      -2.63574290       0.00209056      -0.00394816       0.00043433      -0.00416576
H       -1.46579558       0.01436697      -2.27647604       0.00722401      -0.00421306       0.00705509       0.00437266
S       -1.42588543      -0.34211846       1.83623620      -0.18677005       0.00084194      -0.00066768       0.00014618
C       -1.59292598       1.27572610       1.07169428      -0.08249658      -0.00522960      -0.00085571      -0.00430812
H       -2.11629117       1.94253489       1.75292959       0.00729917       0.00023680      -0.00503308      -0.00461033
H       -2.13759670       1.20411502       0.13619188       0.02589533      -0.00457844      -0.00169001       0.00251189
H       -0.61125785       1.67926858       0.85211996       0.03250279      -0.00813104       0.00069248       0.00219808
