26
Properties=species:S:1:pos:R:3:charge:R:1:forces:R:3 energy=-22923.71544702927 pbc="F F F"
N       -1.99556341       0.54268992       0.85284012      -0.11277756      -0.00027545       0.00354589      -0.00049293
C       -1.44232735       0.81013374      -0.36360030       0.18612808      -0.00526815      -0.00391123      -0.00227822
O       -1.90545539       1.63132797      -1.13121377      -0.34397960      -0.00164590      -0.00704054       0.00221996
C       -0.20803474      -0.01505009      -0.69868370      -0.01620374       0.00106090       0.00001239       0.00022240
C       -0.43893730      -1.55210882      -0.67318747      -0.03701719       0.00219877       0.00134550       0.00146265
C        0.57081937      -2.11159937       0.34218620      -0.03640633      -0.00476832      -0.00462759       0.00117840
C        1.71599163      -1.10689999       0.32089968      -0.03858154      -0.00315586      -0.00416629      -0.00019898
C        0.96668088       0.22615647       0.28018136      -0.01135126       0.00555340       0.00088712      -0.00226428
S        1.95490429       1.70155430      -0.01636022      -0.12248164       0.00668129       0.00649809      -0.00066659
C        2.68163257       1.33828546      -1.62260037      -0.06507979      -0.00137429       0.00312656       0.00312140
C       -3.15591144       1.24386238       1.34488593      -0.00715516      -0.00182017       0.00195794       0.00195741
H       -1.56126901      -0.14183165       1.44251185       0.12310742      -0.00426462       0.00389413      -0.00711277
H        0.07680925       0.29864418      -1.69909134       0.03022823       0.00166428       0.00404654       0.00053439
H       -0.23306601      -1.95952750      -1.66097261       0.03224327       0.00053902       0.00552126       0.00581028
H       -1.46518515      -1.82165413      -0.42963113       0.03103514       0.00304322       0.00348389      -0.00550681
H        0.12164430      -2.12648106       1.33637187       0.03309803       0.00391847       0.00519167       0.00537447
H        0.88416779      -3.12447362       0.10535414       0.03451502      -0.00482174      -0.00702916      -0.00095761
H        2.31188305      -1.23635776      -0.58173399       0.03004182       0.00051657      -0.00503884       0.00138010
H        2.38437126      -1.18199832       1.17373613       0.03405993      -0.00192649       0.00002108      -0.00151320
H        0.54820369       0.39008392       1.27351729       0.03001092      -0.00236500      -0.00017753      -0.00595695
H        3.30899927       2.19063110      -1.87544011       0.04114267       0.00132569       0.00054429      -0.00080673
H        1.92652928       1.22925268      -2.39556362       0.03519640      -0.00099317      -0.00359530      -0.00268508
H        3.30829841       0.45180997      -1.59217585       0.03717370      -0.00051477       0.00424280       0.00248766
H       -2.93616118       1.76597679       2.27644823       0.04386495       0.00169430      -0.00404345       0.00416334
H       -3.99698547       0.56710448       1.49972180       0.04286608       0.00185438      -0.00074935       0.00288097
H       -3.42700832       1.97375799       0.58944066       0.02632211       0.00314363      -0.00393984      -0.00235376
