29
Properties=species:S:1:pos:R:3:charge:R:1:forces:R:3 energy=-28068.77654181544 pbc="F F F"
C        5.22943418      -0.27508244       0.62696383       0.01456252       0.00027453      -0.00266688      -0.00007540
O        4.43087609       0.82705852       0.28002641      -0.18223789       0.00295214      -0.00623768      -0.00183759
C        3.08404407       0.57896273       0.07470891       0.04417259       0.00296394       0.00211266       0.00531268
C        2.47432551      -0.65215749       0.24879635      -0.07528462       0.00390823       0.00068026      -0.00667228
C        1.11150301      -0.77989935       0.00145596      -0.07514684       0.00070004       0.00009533       0.00253647
C        0.32977102       0.29609717      -0.41750116       0.04511796      -0.00393011      -0.00218156      -0.00184936
C        0.95860821       1.53838097      -0.56835432      -0.07262252      -0.00141766      -0.00184239       0.00016719
C        2.31476236       1.66254477      -0.33045458      -0.07271609       0.00042973       0.00018679      -0.00070703
N       -1.01105252       0.08805137      -0.70477109      -0.14148510      -0.00560889       0.00061517      -0.00323002
C       -2.02336555       1.08501219      -0.89700791       0.09718635      -0.00591771      -0.00016785       0.00387282
O       -1.73338447       2.29525435      -0.81994086      -0.41244903       0.00171615      -0.00130538       0.00135546
C       -3.28151892       0.53556432      -1.14729287      -0.24317226      -0.00193140       0.00165283      -0.00795688
C       -3.49185686      -0.88822543      -1.29903440      -0.05079108       0.00083774       0.00538240      -0.00318626
H        4.92980471      -0.70724336       1.58513643       0.02639632       0.00104728       0.00430532      -0.00246994
H        6.24958091       0.09349113       0.70654962       0.01882600      -0.00587633      -0.00128060       0.00350650
H        5.19013078      -1.05797892      -0.13453767       0.02608667       0.00780269       0.00356692       0.00017205
H        3.02186525      -1.52356879       0.57081242       0.02547074      -0.00035351       0.00098809       0.00115610
H        0.64832670      -1.74793820       0.13554670       0.02880691       0.00114134      -0.00274984      -0.00208939
H        0.34534006       2.37203709      -0.86451311       0.01746110      -0.00118593      -0.00009482      -0.00160828
H        2.79553585       2.62171459      -0.45827774       0.01614872       0.00150827       0.00095093       0.00038581
H       -1.37922956      -0.80626694      -0.41099044       0.09133472       0.00273649       0.00006870       0.00545461
H       -4.12194807       1.20753209      -1.08334153       0.01144737       0.00208520      -0.00206641       0.00757397
H       -4.46383256      -1.14445563      -1.71122909       0.00818872       0.00313957      -0.00267458       0.00199734
H       -2.72583853      -1.36486925      -1.91550852       0.01298747      -0.00140197      -0.00183064       0.00401124
S       -3.45392022      -1.99336418       0.28533649      -0.13907810       0.00037803      -0.00137914      -0.00405966
C       -3.81566642      -0.76226291       1.55873292      -0.08163297      -0.00157016       0.00129431      -0.00059074
H       -3.57497976       0.20855356       1.13608754       0.02802988      -0.00225182       0.00391705      -0.00262346
H       -4.85842038      -0.78296143       1.87248902       0.01567786      -0.00519492       0.00210119       0.00074948
H       -3.18745893      -0.95080595       2.42657044       0.01870605       0.00301956      -0.00144045       0.00070463
