23
Properties=species:S:1:pos:R:3:charge:R:1:forces:R:3 energy=-14095.545029621393 pbc="F F F"
C       -0.92226131       1.68315727       0.75863796       0.00092574      -0.00141474       0.00247590       0.00083899
N       -0.58271366       0.42680164       0.11053311      -0.07366522       0.00238972      -0.00126666       0.00457666
C        0.79685682       0.07735095      -0.02108139       0.04132152       0.00043608      -0.00177333       0.00005199
C        1.62215374       0.09246872       1.09445583      -0.04568904       0.00108774       0.00143022      -0.00185173
C        2.97093400      -0.21059754       0.96474895      -0.03492721       0.00042992      -0.00230709       0.00088239
C        3.49871674      -0.51609533      -0.28116481      -0.03825727      -0.00046434       0.00103018       0.00027981
C        2.66739351      -0.53229778      -1.39488475      -0.03755179      -0.00080063       0.00155750      -0.00065542
C        1.31679967      -0.25429554      -1.26485211      -0.04491182      -0.00001680      -0.00148019       0.00137644
C       -1.52568312      -0.51126919      -0.23989919       0.17745139       0.00328332       0.00041250       0.00005499
O       -1.21234929      -1.57759208      -0.73303911      -0.32831061      -0.00209398      -0.00171342      -0.00324565
C       -2.95965591      -0.16166363       0.01216436      -0.04549441       0.00540466       0.00004505      -0.00353160
C       -3.92280808      -1.00102523      -0.34439366      -0.06254905       0.00012035       0.00434035       0.00226861
H       -0.02771916       2.29251305       0.80905193       0.03840799      -0.00266843      -0.00035182       0.00108655
H       -1.30807399       1.54395138       1.76872470       0.04845523       0.00033790      -0.00259756      -0.00195372
H       -1.66229687       2.22922187       0.17734392       0.04547774      -0.00147446       0.00220528      -0.00067880
H        1.20569643       0.33967594       2.06193057       0.04493999       0.00367781       0.00024576      -0.00016116
H        3.60931195      -0.20763424       1.83750413       0.04867306       0.00000802       0.00259899       0.00227922
H        4.54933221      -0.74319492      -0.38512614       0.04740793      -0.00163056      -0.00016444      -0.00106719
H        3.07356406      -0.77149839      -2.36791660       0.04808157      -0.00357695      -0.00169419       0.00047647
H        0.65205624      -0.30217155      -2.11361557       0.03732776       0.00418147       0.00065677      -0.00091817
H       -3.20487821       0.77441194       0.49389994       0.04451948      -0.00071812       0.00188819       0.00131665
H       -3.67742458      -1.94079613      -0.81740887       0.03810346      -0.00281955      -0.00399859      -0.00138347
H       -4.96332579      -0.76626170      -0.17024089       0.05026362      -0.00367858      -0.00153926      -0.00004209
