28
Properties=species:S:1:pos:R:3:charge:R:1:forces:R:3 energy=-26021.122131580752 pbc="F F F"
C       -0.83041056       0.14712610      -2.12818013      -0.07689399       0.00171270       0.00177232      -0.00199782
C       -1.72647949       0.05838167      -0.91964181      -0.02440038       0.00244089       0.00506452      -0.00216147
C       -3.09606623       0.24093725      -1.05318316      -0.06167905      -0.00093488       0.00104687       0.00097896
C       -3.95112697       0.17959182       0.03886281      -0.08408890       0.00189380      -0.00238443       0.00084760
C       -3.40745687      -0.06429922       1.29305428      -0.06574772       0.00162458      -0.00432093       0.00325010
C       -2.04435825      -0.24513154       1.46277219      -0.07005692      -0.00385113      -0.00796360       0.00073124
C       -1.18421318      -0.20461818       0.35684424       0.05745450      -0.00204196      -0.00735418       0.00018748
N        0.16731800      -0.44731157       0.46249688      -0.14169359      -0.00155486       0.00026409       0.00410245
C        0.99016243      -0.45532211       1.64646147       0.09246013       0.00161839       0.00009785       0.00267020
O        0.48968366      -0.16484905       2.74944972      -0.41465873       0.00031610      -0.00267601       0.00044791
C        2.31429456      -0.78903782       1.38766739      -0.25103647      -0.00022585      -0.00058612       0.00133553
C        2.81510128      -1.25734355       0.09893828      -0.05290381      -0.00084614       0.00272272      -0.00183308
H       -1.42411806       0.37883198      -3.01112665       0.01953861       0.00412469       0.00695319      -0.00293318
H       -0.07619411       0.92936100      -2.01535251       0.02379776      -0.00275886      -0.00188350       0.00078368
H       -0.30193603      -0.79071870      -2.31799669       0.02703563      -0.00239973       0.00658929       0.00475848
H       -3.49545445       0.43722066      -2.04075150       0.01622725      -0.00044300      -0.00055290      -0.00024897
H       -5.01529846       0.32080144      -0.08877147       0.01946506       0.00293882       0.00071012      -0.00459486
H       -4.04883104      -0.11659728       2.16392680       0.01746380      -0.00284242       0.00450298      -0.00225662
H       -1.59909714      -0.41571693       2.42797807       0.01368742       0.00268181       0.00494741       0.00233678
H        0.68605506      -0.42328674      -0.39410684       0.08839787       0.00074573      -0.00356229       0.00255719
H        2.99234890      -0.65249719       2.21411473       0.00714921      -0.00064404       0.00092699      -0.00059686
H        2.11250802      -1.93022394      -0.40070015       0.01424087       0.00338779      -0.00000033       0.00481545
H        3.76375656      -1.78192794       0.18216068       0.00557884      -0.00109332      -0.00370334      -0.00081817
S        3.21548924       0.03236293      -1.24717347      -0.14343932       0.00402420       0.00216721       0.00291104
C        3.16982373       1.52536758      -0.24296310      -0.08172168      -0.00345569       0.00303309      -0.00314164
H        3.81935787       1.39138835       0.61552778       0.02344255      -0.00643251       0.00128875      -0.00702851
H        2.15939968       1.70202315       0.11436086       0.03066966       0.00404544      -0.00219872      -0.00174729
H        3.50526942       2.37368761      -0.83603946       0.01170274      -0.00203076      -0.00490081      -0.00335590
