29
Properties=species:S:1:pos:R:3:charge:R:1:forces:R:3 energy=-28068.774729488785 pbc="F F F"
C       -4.76526260       2.01984248       0.14008789       0.01307591       0.00080876       0.00047188      -0.00172444
O       -4.35583825       0.79655643      -0.41913737      -0.18281397      -0.00305698      -0.00051497      -0.00593056
C       -3.02709979       0.45595127      -0.25200261       0.04055677      -0.00241654      -0.00070640       0.00125514
C       -2.09952134       1.21788141       0.44127725      -0.07779609       0.00055652       0.00022944       0.00053098
C       -0.79195387       0.76010728       0.55404010      -0.06720808       0.00178134       0.00002295       0.00092713
C       -0.38856867      -0.44911323      -0.00515505       0.04176456       0.00281844       0.00012648      -0.00088948
C       -1.32664021      -1.19735003      -0.71892878      -0.06995574      -0.00026510       0.00125816       0.00158078
C       -2.62708075      -0.74175535      -0.83000145      -0.07651430      -0.00106328      -0.00034552       0.00171987
N        0.92339193      -0.87023065       0.20588602      -0.13507672       0.00029841      -0.00250468       0.00059380
C        1.59400816      -1.93647910      -0.40603586       0.15025324       0.00310888       0.00284088      -0.00432940
O        1.05767242      -2.63509699      -1.26837474      -0.38265908       0.00248819      -0.00454462       0.00320295
C        2.94756976      -2.06728008       0.05124713      -0.13334313       0.00066601       0.00274387      -0.00337268
C        3.38995399      -1.39424572       1.16257212      -0.04566659      -0.00068357      -0.00241127      -0.00262419
H       -4.21413629       2.86118992      -0.28580667       0.02870878      -0.00450019       0.00676309      -0.00088509
H       -4.63645633       2.03067315       1.22476709       0.02882055      -0.00148347      -0.00132856       0.00023906
H       -5.82116541       2.13089022      -0.09340204       0.02366103       0.00138133      -0.00001293      -0.00029576
H       -2.36123226       2.15880040       0.89856843       0.03039550       0.00111430       0.00215682       0.00010052
H       -0.06718415       1.35957005       1.09057094       0.03474059       0.00061800       0.00284141       0.00324603
H       -1.00472397      -2.11813208      -1.17301099       0.01984059      -0.00303656      -0.00103944       0.00533599
H       -3.35681134      -1.32084176      -1.37688345       0.02188275       0.00065638      -0.00446732       0.00291662
H        1.55291889      -0.18419215       0.61793836       0.08409204       0.00047192      -0.00165237      -0.00074251
H        3.64425276      -2.53317017      -0.62372940       0.02630667       0.00175770       0.00627526      -0.00075109
H        4.39917720      -1.55266717       1.50908737       0.00764842      -0.00372808       0.00544450      -0.00007128
H        2.68606936      -1.18673407       1.95276855       0.01530836      -0.00077765      -0.00317432      -0.00821353
S        3.66979030       0.92065377       0.86026468      -0.33956134      -0.00264450      -0.00597923       0.00484981
C        3.73266675       0.87802883      -0.95404855      -0.09991080       0.00139301       0.00137747       0.00452036
H        4.70442022       1.19926258      -1.32078643       0.00863638       0.00446130      -0.00438164      -0.00466890
H        2.97032051       1.51521413      -1.39382873       0.01391485      -0.00225523       0.00256717       0.00220376
H        3.56289950      -0.14415771      -1.27510852       0.02089133       0.00153029      -0.00205629       0.00127586
