27
Properties=species:S:1:pos:R:3:charge:R:1:forces:R:3 energy=-27478.538782157306 pbc="F F F"
C        4.59720441      -0.47422509      -0.39007115      -0.03042468       0.00482606       0.00351497       0.00152248
C        3.88145218      -0.41623312       0.79892968      -0.03176919       0.00373187       0.00002441       0.00415402
C        2.50008954      -0.35447186       0.80750105      -0.04057879      -0.00020011      -0.00097321       0.00714013
C        1.79781240      -0.34975808      -0.39706540       0.05455294       0.00009344       0.00467137       0.00294666
N        0.40064341      -0.29213673      -0.47286620      -0.09493634      -0.00465607       0.00409631      -0.00188163
C       -0.49455603      -0.21894007       0.57235809       0.21468273      -0.00247290      -0.00135748       0.00269109
O       -0.16461072      -0.19655113       1.73704403      -0.28352609       0.00177795      -0.00272321      -0.00172461
C       -1.94040450      -0.16714229       0.11929886      -0.03313670      -0.00290135      -0.00308555       0.00091823
C       -2.90752680      -0.19327077       1.29410445      -0.02892450       0.00252844      -0.00114897       0.00337370
S       -4.64098090      -0.18228846       0.78427412      -0.10639157       0.00552274       0.00175216       0.00765477
C       -4.78609441       1.55243927       0.31691034      -0.05404073      -0.00129978       0.00092686      -0.00286564
C        2.52195857      -0.40640061      -1.60055699      -0.00045832       0.00272649      -0.00494720       0.00165546
C        1.81574498      -0.40232242      -2.85111205       0.07931431       0.00192181      -0.00696737      -0.00585353
N        1.22195458      -0.40008686      -3.83569375      -0.25791436      -0.00259915       0.00600498      -0.00114632
C        3.91182560      -0.46837411      -1.58841236      -0.02511666       0.00280645       0.00492654       0.00045435
H        5.67561602      -0.52250225      -0.38774789       0.05258552       0.00379338      -0.00064383       0.00150145
H        4.40287606      -0.41843034       1.74567884       0.04924872       0.00880988      -0.00181211      -0.00135901
H        1.95455635      -0.31007301       1.73197720       0.03432729      -0.00493230       0.00053337       0.00402887
H        0.01506791      -0.30638465      -1.40392033       0.13805348      -0.00478066       0.00026840      -0.00227423
H       -2.13872665      -1.01272066      -0.54196100       0.04649958       0.00045488       0.00158745      -0.00643209
H       -2.08436384       0.73905557      -0.47603972       0.04679548      -0.00600791      -0.00467674      -0.00026249
H       -2.72078395       0.65049400       1.95169399       0.04170893       0.00006723       0.00320351      -0.00137541
H       -2.75390600      -1.09704723       1.87773691       0.04168417      -0.00275348      -0.00561115      -0.00071252
H       -4.14784374       1.79875832      -0.52648325       0.04521977      -0.00285826      -0.00121311      -0.00641891
H       -5.81958328       1.72350830       0.03076562       0.04562847      -0.00368042       0.00684134       0.00337186
H       -4.54225934       2.19899756       1.15606056       0.04512055       0.00116307      -0.00032366      -0.00227897
H        4.44079011      -0.51047943      -2.52892815       0.05179601      -0.00108110      -0.00286787      -0.00682805
