25
Properties=species:S:1:pos:R:3:charge:R:1:forces:R:3 energy=-24950.586498872093 pbc="F F F"
C        3.08273636      -0.50888913       1.68889882      -0.05645584      -0.00010632      -0.00093038       0.00143222
C        1.79915475       0.20701658       1.53786742      -0.24112931      -0.00232365       0.00060061       0.00005462
C        0.81643260      -0.27745699       0.69173086       0.09475235      -0.00124769       0.00452881      -0.00230029
O        0.84425082      -1.32576782       0.00457469      -0.37606499       0.00746528       0.00014953       0.00189260
N       -0.35823791       0.56604571       0.60338530      -0.14152196       0.00432066       0.00259856      -0.00542498
C       -1.55920729       0.32494047      -0.01615230       0.05915389       0.00786902       0.00373196      -0.00482777
C       -1.87285070      -0.88443671      -0.65750660      -0.06319001       0.00562573       0.00278487       0.00341419
C       -3.10956281      -1.04964383      -1.25749220      -0.05282859       0.00300086       0.00101891       0.00577118
C       -4.06773148      -0.04117280      -1.25675182      -0.08364707      -0.00106128      -0.00067532       0.00348897
C       -3.76269669       1.15799094      -0.62668377      -0.05702535       0.00329168      -0.00061979       0.00280689
C       -2.53454134       1.33732215      -0.01323346      -0.07674451       0.00311882      -0.00337575       0.00086316
H        2.97622724      -1.55347126       1.39576652       0.00851116      -0.00450002       0.00142740      -0.00499050
H        3.48486183      -0.47104995       2.70240925       0.00072412      -0.00413510      -0.00223089       0.00565271
H        1.70671030       1.17125009       2.02799860       0.01463903       0.00338371       0.00123149       0.00054895
H       -0.30275166       1.41442172       1.13470859       0.11432883      -0.00107682      -0.00247346      -0.00382197
H       -1.12559621      -1.65854903      -0.66428425       0.01390678      -0.00043388      -0.00046636      -0.00260094
H       -3.32580265      -1.99615711      -1.73812815       0.01537626      -0.00025247       0.00553745      -0.00514485
H       -5.02582197      -0.18656476      -1.73434919       0.01664720      -0.00347282      -0.00099874      -0.00116444
H       -2.30458288       2.27370670       0.48039038       0.01952445      -0.00166817      -0.00270478      -0.00522577
H       -4.48298898       1.96693431      -0.61031718       0.01613723      -0.00386393      -0.00474055       0.00432350
S        4.51314419       0.13121670       0.66905767      -0.18986043      -0.00064282       0.00011857       0.00107465
C        3.76722919      -0.11489699      -0.94482911      -0.08695483      -0.00401895       0.00214671      -0.00205631
H        2.83025554       0.43176056      -0.99256376       0.02475321      -0.00665462      -0.00130275       0.00697966
H        4.45574595       0.23459350      -1.71362541       0.00831555      -0.00088005      -0.00473883      -0.00285224
H        3.54243771      -1.16672652      -1.09404129       0.01864410      -0.00173696      -0.00061771       0.00210721
