25
Properties=species:S:1:pos:R:3:charge:R:1:forces:R:3 energy=-25403.13863673387 pbc="F F F"
C       -3.04238595       1.44840048       1.86065861       0.03046956      -0.00177565      -0.00047295      -0.00014280
N       -2.02062288       1.42354616       1.00572127      -0.21783024       0.00016286      -0.00280867       0.00256680
C       -1.35895687       0.28605950       0.87572528       0.10877577       0.00071409      -0.00111386      -0.00151835
N       -0.29442909       0.22017906      -0.03503351      -0.10981318      -0.00084212       0.00126211      -0.00443780
C        0.52013933       1.24838324      -0.46662017       0.19072743       0.00432049      -0.00127333       0.00299463
O        0.52893980       2.36018746       0.00121304      -0.32296866      -0.00849681       0.00085412       0.00040200
C        1.45950724       0.82666706      -1.58154094      -0.03277822      -0.00039761       0.00165838      -0.00164999
C        2.71970348       0.14579194      -1.03586376      -0.02314581      -0.00127832      -0.00122973       0.00096824
S        2.50366125      -1.59498604      -0.56974514      -0.09180181       0.00538953      -0.00519072       0.00424251
C        2.39948470      -2.30753599      -2.22209185      -0.05466253      -0.00110292      -0.00240027      -0.00027386
C       -1.68600327      -0.87587058       1.58017073      -0.04838923       0.00263594       0.00007061       0.00151963
C       -2.74587868      -0.83069869       2.46125945      -0.02310560       0.00029352      -0.00016739      -0.00247838
C       -3.44878884       0.35971544       2.61096628      -0.04257382       0.00449673       0.00024801       0.00405657
H       -3.55725596       2.39804749       1.94302474       0.04500248      -0.00449494      -0.00175743      -0.00233291
H        0.01524478      -0.71250916      -0.26276220       0.11787607       0.00332552       0.00206027      -0.00276129
H        1.74580161       1.73024567      -2.11129905       0.04983429       0.00149933       0.00390123       0.00006216
H        0.94473673       0.16795606      -2.27735545       0.04185093      -0.00024499      -0.00276216      -0.00141607
H        3.52094775       0.18987261      -1.77031537       0.04387351       0.00233677      -0.00172551       0.00157134
H        3.06165007       0.67417705      -0.14875275       0.04062113       0.00283401       0.00119810       0.00043440
H        2.28618836      -3.38130044      -2.10242928       0.04482819      -0.00551917      -0.00375095       0.00216829
H        1.54264492      -1.92783761      -2.77101437       0.04318728      -0.00102485       0.00051306      -0.00226045
H        3.30775224      -2.11452181      -2.78590848       0.04334893      -0.00278609       0.00853625      -0.00130879
H       -1.11075678      -1.77922087       1.43286722       0.05497569       0.00065253      -0.00017896       0.00224187
H       -3.01884621      -1.71304291       3.02520918       0.05429368      -0.00272770       0.00082682      -0.00195772
H       -4.28566379       0.44246619       3.28846940       0.05740413       0.00202932       0.00370310      -0.00069021
