65
Properties=species:S:1:pos:R:3:charge:R:1:forces:R:3 energy=-66096.62574871765 pbc="F F F"
C       -4.76297619       0.27375290       2.33832777       0.09925620      -0.00243569      -0.00233860       0.00001102
N       -4.87498623      -0.84279088       1.58292230      -0.20534720      -0.00017310      -0.00132225      -0.00006739
C       -3.88551683      -1.09213824       0.75681459       0.12903416       0.00263336      -0.00267025       0.00269762
N       -3.90004728      -2.19334925      -0.04644287      -0.10207058      -0.00172019      -0.00130070       0.00108423
C       -4.80191405      -3.26151641      -0.14571969       0.05856000      -0.00322284       0.00167036      -0.00263399
C       -6.01890962      -3.32510208       0.52252015      -0.04222011      -0.00115165       0.00322535      -0.00112231
C       -6.84184101      -4.42600369       0.34445944      -0.04477039       0.00204748       0.00319942       0.00193661
C       -6.46383332      -5.45573777      -0.48918941       0.07745481      -0.00452131       0.00013353       0.00489368
F       -7.26383485      -6.51813849      -0.65557310      -0.11167251      -0.00142922      -0.00121482      -0.00319791
C       -5.25222917      -5.39905168      -1.16019845       0.00577820      -0.00391886      -0.00137121       0.00546502
Cl      -4.78978753      -6.70026856      -2.20452015      -0.07625312       0.00296716       0.00008670      -0.00266493
C       -4.42383704      -4.30605965      -0.98896545      -0.04611059       0.00084185      -0.00261733       0.00300272
C       -2.74751498      -0.21788968       0.66138667      -0.02185092      -0.00122601       0.00199611      -0.00112684
C       -1.66141315      -0.44024999      -0.20973650      -0.03379735       0.00197405      -0.00288529       0.00396962
C       -0.61348547       0.43389401      -0.24407759       0.05007008      -0.00429883       0.00456525      -0.00636747
N        0.50813765       0.32589694      -1.06665869      -0.09046610      -0.00034082       0.00146155       0.00043013
C        0.94020819      -0.77532794      -1.74632909       0.20042029       0.00177856       0.00631340      -0.00313884
O        0.27661241      -1.78522075      -1.87356483      -0.28048718       0.00119254       0.00528387       0.00015648
C        2.32108635      -0.61432894      -2.34667142      -0.03068830       0.00227152      -0.00032392      -0.00183567
C        3.46964506      -0.65661450      -1.33187983       0.00092353      -0.00031220      -0.00143603      -0.00001612
S        3.26542803      -1.95966631      -0.08567360      -0.09593789      -0.00042740      -0.00059169      -0.00176380
C        3.03101796      -3.39389776      -1.15413407      -0.06282158      -0.00084135      -0.00231726      -0.00116431
C        3.66651425       0.66131000      -0.59027586       0.01542423      -0.00008442      -0.00228687       0.00030864
N        4.95483730       0.70085907       0.06904737      -0.17248653       0.00137016      -0.00393343      -0.00116388
C        4.97052626       1.47016634       1.29621067      -0.01218647      -0.00085458       0.00027735      -0.00467031
C        6.03272903       1.12252435      -0.80967780      -0.01433395       0.00153133       0.00027498      -0.00029528
C       -0.62439243       1.56588511       0.60776686       0.07763694       0.00248208      -0.00356797       0.00522246
O        0.47005221       2.37507522       0.47687282      -0.13180178      -0.00172374       0.00372781      -0.00247719
C        0.63270648       3.45823036       1.40896033       0.07121481       0.00457188       0.00004688       0.00284754
C       -0.24106075       4.65599508       1.02231239       0.02898075       0.00183631       0.00359226      -0.00368933
O        0.61417950       5.62665079       0.44465016      -0.22679335       0.00292926       0.00268622      -0.00887347
C        1.86623122       5.02313087       0.14577077       0.03766122       0.00179140      -0.00270694      -0.00070463
C        2.05260583       3.97533053       1.23486818      -0.04375006       0.00387299       0.00004732      -0.00050540
C       -1.66957788       1.79572418       1.46452641      -0.06792241      -0.00410843       0.00525986      -0.00312771
C       -2.75845931       0.90163442       1.50133816       0.04365813       0.00320380      -0.00401496       0.00841686
N       -3.79674746       1.14250495       2.35427989      -0.22174510      -0.00192056      -0.00166776       0.00237522
H       -5.59190763       0.45496140       3.01297688       0.04085897      -0.00526038      -0.00379161      -0.00137177
H       -3.08434665      -2.27521471      -0.62372926       0.12416033      -0.00053145       0.00274461       0.00345798
H       -6.30227939      -2.51601491       1.17016321       0.02899183       0.00067874       0.00060684       0.00043336
H       -7.78989075      -4.49321033       0.85666036       0.05664025       0.00534851      -0.00004348      -0.00520650
H       -3.48229043      -4.28109665      -1.51860539       0.05074223       0.00293847       0.00413423       0.00034668
H       -1.63625932      -1.30129110      -0.85770435       0.03527828      -0.00347023      -0.00061643      -0.00079123
H        1.09524301       1.13806846      -1.04726181       0.11324468      -0.00136099      -0.00051295       0.00003650
H        2.37898938       0.32161466      -2.90545619       0.05009141       0.00008379      -0.00233132      -0.00107848
H        2.43456497      -1.43331739      -3.05182483       0.04350112      -0.00200038      -0.00217415      -0.00122656
H        4.38379973      -0.88046550      -1.88231556       0.03733884       0.00013603      -0.00163632       0.00023607
H        3.82205241      -3.45777517      -1.89653884       0.04461411       0.00357189      -0.00020448       0.00249093
H        3.08986425      -4.26691158      -0.50841730       0.04616506       0.00165562      -0.00192387       0.00062013
H        2.05929220      -3.35883902      -1.63439102       0.03325803       0.00146358      -0.00003116      -0.00618090
H        3.54429499       1.50690605      -1.28559470       0.03667540      -0.00076782       0.00260607       0.00703099
H        2.87764155       0.73819992       0.16029169       0.01929027       0.00188252       0.00458185       0.00082312
H        4.16757724       1.14350609       1.95501757       0.03014363       0.00015722      -0.00159393      -0.00209532
H        5.91484243       1.30191988       1.80827078       0.03224859      -0.00062408       0.00208329      -0.00117900
H        4.86578383       2.55180362       1.13427942       0.03218172      -0.00263516       0.00159017      -0.00006338
H        5.95852574       2.18322334      -1.09281138       0.03257687       0.00503750       0.00074581       0.00048117
H        6.04520324       0.53675188      -1.72678958       0.02931766       0.00435115      -0.00043038       0.00226611
H        6.98388773       0.97358342      -0.30454480       0.03248140      -0.00064391       0.00003256       0.00213440
H        0.43284002       3.08284829       2.41118387       0.04370361      -0.00541137      -0.00027285       0.00470808
H       -0.71733496       5.10657057       1.89171342       0.03873184      -0.00432123      -0.00008550       0.00175120
H       -1.01394491       4.35949498       0.31024921       0.02464871      -0.00319071       0.00019865      -0.00510106
H        2.63027453       5.79575652       0.15013186       0.03491482      -0.00270734      -0.00166052       0.00400321
H        1.83943101       4.55844069      -0.84418031       0.02669865      -0.00299938      -0.00341327       0.00230582
H        2.73598907       3.18254880       0.94902746       0.03734972       0.00050158      -0.00072490      -0.00427303
H        2.39743370       4.44490996       2.15514749       0.04033700      -0.00040455      -0.00375518       0.00140980
H       -1.68738341       2.65246772       2.11736517       0.04325512       0.00393807       0.00059754       0.00182127
