29
Properties=species:S:1:pos:R:3:charge:R:1:forces:R:3 energy=-26037.043554558182 pbc="F F F"
C        3.68557485       1.95917969      -0.39231360      -0.04636536       0.00494112      -0.00125494      -0.00053857
C        3.13163711       1.24960323      -1.44676588      -0.04205890      -0.00060813      -0.00441045       0.00171930
C        2.04789502       0.41324687      -1.22940677      -0.04956979      -0.00251978      -0.00367178       0.00117453
C        1.50769066       0.27774480       0.04705701       0.04549032       0.00235032      -0.00540722       0.00539399
N        0.43565015      -0.61964120       0.22108237      -0.10166848      -0.00230445       0.00379006      -0.00056250
C       -0.61141500      -0.44285096       1.08073789       0.19568776       0.00164608      -0.00014084       0.00163760
O       -0.69595388       0.48543700       1.86033472      -0.31115699       0.00005034      -0.00245168       0.00461316
C       -1.71904749      -1.47453456       0.97951228      -0.00196369       0.00434405      -0.00072686      -0.00126885
C       -1.29956034      -2.82684180       0.41468766      -0.06829543      -0.00009568      -0.00223227      -0.00096195
C       -2.88929523      -0.84569998       0.19799801      -0.03197834       0.00094633       0.00173394       0.00157091
S       -2.55606077      -0.49285358      -1.55395760      -0.10970446       0.00193334       0.00017596      -0.00287018
C       -2.24393345       1.28411390      -1.47151096      -0.06460068      -0.00255876      -0.00140576      -0.00014454
C        2.04771535       1.00284272       1.10357017      -0.05264442       0.00010151      -0.00099325       0.00370297
C        3.13852081       1.82633882       0.87602688      -0.04379376      -0.00469588       0.00413443       0.00028087
H        4.53147655       2.60950873      -0.55570524       0.04455945       0.00713824       0.00110589      -0.00406182
H        3.53754675       1.34249456      -2.44446278       0.04574447       0.00116158      -0.00059514       0.00006429
H        1.61266254      -0.13343499      -2.05569742       0.04274663      -0.00149176      -0.00143129      -0.00631362
H        0.29007647      -1.26391593      -0.53657354       0.12678191      -0.00071672       0.00516997       0.00337884
H       -2.06709768      -1.60992490       2.00340283       0.04492027      -0.00192857      -0.00050717      -0.00453305
H       -2.08938674      -3.55681871       0.57607938       0.03977274      -0.00529511      -0.00186681      -0.00554657
H       -1.11743663      -2.78810899      -0.65699669       0.02658259       0.00351572       0.00648313       0.00044090
H       -0.40301370      -3.19694658       0.90652096       0.03694195       0.00564467       0.00726413      -0.00342663
H       -3.18891628       0.07893033       0.68457913       0.03925817       0.00265204       0.00557601       0.00245714
H       -3.73717798      -1.52932690       0.21781280       0.03957903      -0.00332080       0.00268016       0.00105438
H       -3.16297734       1.82391891      -1.26160308       0.04318252      -0.00530335      -0.00798629       0.00076476
H       -1.50867278       1.51281624      -0.70471658       0.03251301       0.00195371      -0.00265034      -0.00265482
H       -1.85731654       1.59113640      -2.43840832       0.04178407      -0.00526823      -0.00205106       0.00055922
H        1.61190730       0.92388527       2.08391189       0.03388826      -0.00086542      -0.00042531       0.00511522
H        3.56034113       2.37288383       1.70743103       0.04436711      -0.00140614       0.00209482      -0.00104447
