31
Properties=species:S:1:pos:R:3:charge:R:1:forces:R:3 energy=-27091.599861265713 pbc="F F F"
C        3.16158566       1.79770498      -1.58487686      -0.09405690       0.00319551       0.00072003       0.00072451
C        2.59707955       0.86154736      -0.50991371       0.02582165      -0.00296707      -0.00198222      -0.00427411
C        1.20138651       0.47525198      -0.87893718      -0.22960031      -0.00136178      -0.00515053       0.00058046
C        0.20475716       0.11216724       0.00702826       0.10319531       0.00215629      -0.00158814       0.00260839
O        0.24479313       0.02631004       1.25600465      -0.35216248       0.00326708      -0.00036965       0.00713949
N       -1.03972492      -0.24978371      -0.64926836      -0.14645305       0.00143936      -0.00323593       0.00051789
C       -2.28995614      -0.43114767      -0.11021810       0.05860268      -0.00015851      -0.00037298      -0.00477329
C       -2.58663362      -0.24816343       1.24979463      -0.05991199       0.00222446       0.00238625      -0.00047700
C       -3.87708188      -0.44776664       1.71039531      -0.05116491       0.00043876       0.00289892       0.00409470
C       -4.90897569      -0.83647397       0.86335781      -0.08162452      -0.00050895      -0.00248342       0.00044558
C       -4.62016565      -1.02406022      -0.48172630      -0.05643987      -0.00156093      -0.00036647      -0.00436311
C       -3.33865452      -0.82162246      -0.96172697      -0.07588185      -0.00125647       0.00051548      -0.00275005
C        2.74509580       1.50580810       0.87131546      -0.08817710      -0.00321493      -0.00161167      -0.00540270
H        2.58740753       2.72651083      -1.59506157       0.01267246       0.00298608       0.00272539       0.00119148
H        3.08670433       1.33155289      -2.56725653       0.00769415       0.00091211      -0.00184586       0.00084401
H        4.20938303       2.03210526      -1.39035027       0.00764616       0.00639413       0.00067225       0.00511385
H        1.02622534       0.39445469      -1.94697399       0.01365805       0.00013742       0.00565875       0.00050101
H       -0.99571794      -0.22899271      -1.65046996       0.11396914      -0.00143135      -0.00868686      -0.00137933
H       -1.78747841       0.04580177       1.90701148       0.01439984       0.00321264      -0.00263436       0.00113430
H       -4.07692313      -0.29473116       2.76393251       0.01683795       0.00029279       0.00171572       0.00960071
H       -5.90939001      -0.99002483       1.24111378       0.01817390      -0.00228327      -0.00120929       0.00076091
H       -5.39642315      -1.33413592      -1.17061287       0.01755992      -0.00599671       0.00679595      -0.00365924
H       -3.12592039      -0.96857146      -2.01335914       0.02027857      -0.00030153      -0.00169401      -0.00259268
H        2.09892225       2.38474258       0.91228695       0.01437368      -0.00387734      -0.00108657      -0.00227597
H        3.78015811       1.81361621       1.03813070       0.00943536      -0.00313512       0.00255716       0.00070592
H        2.43059007       0.83375665       1.66113345       0.01028678      -0.00517550       0.00429016      -0.00013869
S        3.77625038      -0.64266877      -0.53989299      -0.19865298       0.00256326       0.00368904      -0.00311192
C        2.84355389      -1.78564849       0.47529741      -0.08879792       0.00284155       0.00049002      -0.00506796
H        2.71241641      -1.40689100       1.48316201       0.02100450       0.00429081       0.00015731      -0.00181136
H        3.38629091      -2.72903085       0.50488392       0.01186613       0.00269634      -0.00245966       0.00104384
H        1.85614306      -1.92405564       0.04724818       0.02543901      -0.00581919       0.00150527       0.00507042
