31
Properties=species:S:1:pos:R:3:charge:R:1:forces:R:3 energy=-27091.49456852846 pbc="F F F"
C        2.48099356      -1.45549043      -0.65445397      -0.08965702       0.00229896       0.00131990      -0.00041822
C        2.31407740      -0.29159692       0.33230767       0.03075798       0.00002045      -0.00224449       0.00314755
C        1.11676836       0.57420842      -0.01906486      -0.23517554      -0.00013223      -0.00386404       0.00020888
C       -0.14577001       0.02869189      -0.03422101       0.08948077       0.00031293       0.00552503      -0.00055075
O       -0.48269081      -1.15670334       0.21852109      -0.37046432       0.00442974       0.00464173      -0.00334775
N       -1.19249994       0.96664501      -0.39878127      -0.14546463      -0.00302286       0.00433004      -0.00013739
C       -2.55450930       0.80623942      -0.39479522       0.05294507      -0.00572493      -0.00244033      -0.00782565
C       -3.19547663      -0.40066962      -0.06930297      -0.06613142      -0.00147147      -0.00157179       0.00611311
C       -4.57696796      -0.47978570      -0.09833975      -0.05342162      -0.00209303      -0.00062021       0.00358926
C       -5.36996644       0.60935161      -0.44334872      -0.08304316       0.00066411      -0.00188550       0.00025119
C       -4.74156789       1.80460024      -0.76683312      -0.05802888      -0.00067227      -0.00143193       0.00101537
C       -3.36195857       1.90350635      -0.74326444      -0.07830305      -0.00213822       0.00357989       0.00602224
C        2.20125467      -0.86655399       1.75098547      -0.08975370       0.00119684       0.00125065       0.00303664
H        1.57145298      -2.04983448      -0.62236181       0.01361037       0.00031024       0.00406265      -0.00311658
H        2.61760890      -1.07749160      -1.66791829       0.00687563       0.00302847       0.00028850      -0.00225619
H        3.33199688      -2.08627191      -0.38906108       0.01651529      -0.00051849      -0.00452477       0.00199409
H        1.29792090       1.61706424      -0.26211639      -0.00003587      -0.00099075      -0.00306828       0.00154621
H       -0.86434462       1.89585524      -0.58800036       0.11504751       0.00336781       0.00101811      -0.00117750
H       -2.57775297      -1.24088772       0.19882307       0.01453532       0.00131102       0.00079124      -0.00501490
H       -5.04329573      -1.42339722       0.15810572       0.01658550      -0.00002174       0.00113597      -0.00067483
H       -6.44731206       0.52922791      -0.45905586       0.01803720       0.00262190      -0.00224455      -0.00158874
H       -5.32664296       2.67377178      -1.04165978       0.01744498      -0.00108388      -0.00272858       0.00182909
H       -2.88338207       2.84164238      -0.99674812       0.02054297      -0.00004156       0.00163958      -0.00441708
H        3.05302026      -1.50551867       1.99365199       0.01653233       0.00238793      -0.00085806      -0.00232470
H        2.13701047      -0.06177647       2.48363562       0.00684529       0.00453563       0.00372543      -0.00008499
H        1.28881264      -1.45516600       1.79790407       0.01391799      -0.00074791       0.00353390       0.00074564
S        3.77847298       0.83282422       0.22658378      -0.16399716      -0.00354108      -0.00624383       0.00279545
C        5.16316664      -0.23777033       0.64976998      -0.07402205      -0.00520588       0.00032810      -0.00063341
H        6.05534249       0.38373572       0.60168320       0.01296909       0.00039507      -0.00896606       0.00206692
H        5.07664814      -0.64185254       1.65400959       0.02242834      -0.00008334       0.00214603      -0.00394766
H        5.27528746      -1.05903317      -0.05182330       0.02241823       0.00060821       0.00337576       0.00315486
