49
Properties=species:S:1:pos:R:3:charge:R:1:forces:R:3 energy=-64521.23382383579 pbc="F F F"
C       -4.93207329       4.51668096      -0.23672041      -0.06037187      -0.00121431      -0.00054338      -0.00017915
C       -5.93962481       3.57268408      -0.03883138       0.00624001      -0.00254099       0.00302441      -0.00161227
Cl      -7.57353899       3.99740727      -0.43513738      -0.07494616      -0.00043907      -0.00272277      -0.00130940
C       -5.60981667       2.33115171       0.46727094       0.00578081      -0.00205719       0.00343151      -0.00086232
Cl      -6.82338965       1.12261987       0.73057477      -0.07506537       0.00161745       0.00102623       0.00336322
C       -4.28720015       2.02932800       0.77518275      -0.05204161      -0.00106005       0.00068734      -0.00050111
C       -3.27286821       2.95531806       0.57829045       0.03101689       0.00095541       0.00117053       0.00264170
N       -1.95401592       2.72063125       0.90393230      -0.14855705       0.00282405      -0.00003874       0.00151470
C       -1.47759272       1.37169528       1.04113891       0.01204595       0.00213247      -0.00380698      -0.00289925
C        0.03365336       1.34238548       0.86739930       0.19380231       0.00484497       0.00044479      -0.00020128
O        0.64252212       2.35658967       0.56881629      -0.32731205       0.00116552       0.00535895       0.00025355
N        0.64419909       0.14574795       1.05373628      -0.08119279       0.00117873       0.00118485       0.00713187
C       -0.08874465      -1.10941168       1.19013854       0.02611380      -0.00226247      -0.00269283      -0.00055469
C        0.84521150      -2.20938514       1.65846752       0.01929496      -0.00027913       0.00107823       0.00061856
N        1.91736434      -2.37736566       0.69126340      -0.08594111      -0.00412752      -0.00051824      -0.00340393
C        2.20545656      -3.62968928       0.22575429       0.20334446      -0.00174669      -0.00042650       0.00209719
O        1.62624550      -4.61670945       0.64798394      -0.33223909       0.00131635      -0.00346389      -0.00117023
C        3.28533725      -3.72317142      -0.83919404      -0.03761257      -0.00215531       0.00047763       0.00164325
C        3.47589809      -5.15054707      -1.32958553      -0.03599850      -0.00214479       0.00026990       0.00044779
S        4.67905885      -5.28221904      -2.66506939      -0.12895229       0.00168167      -0.00050604      -0.00574729
C        6.19859393      -5.06700942      -1.72135376      -0.06129702      -0.00024166      -0.00021357       0.00048448
C        2.43810907      -1.16414419       0.06963936       0.02446351      -0.00196820      -0.00018096      -0.00048398
C        2.09103916       0.04753430       0.91374989       0.02047082       0.00120549      -0.00146649      -0.00119332
C       -3.62098303       4.22009443       0.06368225       0.05901335      -0.00230410       0.00003617       0.00225223
O       -2.57124523       5.07209972      -0.10279179      -0.14441633      -0.00260828      -0.00145199       0.00042333
C       -2.84779622       6.39212392      -0.53763680       0.02639425       0.00102037      -0.00389434       0.00004941
H       -5.20604387       5.48150061      -0.62994706       0.04599173       0.00008496      -0.00280842      -0.00104975
H       -4.06822374       1.05637462       1.18320688       0.04337825      -0.00088862      -0.00007244       0.00349704
H       -1.27766765       3.34434817       0.49392271       0.10491006       0.00309120       0.00011466       0.00017968
H       -1.90504176       0.69917029       0.29192235       0.04370238      -0.00208904      -0.00313147      -0.00424549
H       -1.73851018       0.97392332       2.02286922       0.04386304       0.00123266      -0.00113972      -0.00007049
H       -0.53371721      -1.40612953       0.23642412       0.03852775      -0.00581376      -0.00107150      -0.00299368
H       -0.89845689      -0.98422641       1.90258274       0.05001481       0.00216058       0.00026223       0.00515743
H        0.32076177      -3.15403794       1.73905397       0.03546746      -0.00365359       0.00407245       0.00012324
H        1.24078261      -1.95022158       2.64484032       0.03733701       0.00011366      -0.00462855       0.00142541
H        4.21502030      -3.33497935      -0.42240582       0.04214726      -0.00292076       0.00261439      -0.00221593
H        3.02633802      -3.08079826      -1.68093187       0.04038603       0.00640419       0.00014796      -0.00043638
H        3.77686061      -5.79776266      -0.51033763       0.03849359       0.00517609       0.00323891       0.00226573
H        2.53433092      -5.53710138      -1.71098013       0.03713221      -0.00275894       0.00318541      -0.00315792
H        6.27786477      -4.06721311      -1.30452163       0.04221816       0.00071866       0.00009744       0.00080103
H        6.25863536      -5.79935948      -0.92017157       0.04188388       0.00114817       0.00024862       0.00162483
H        7.02767131      -5.22594533      -2.40517855       0.04181089       0.00016207       0.00057914       0.00433500
H        2.01673390      -1.02652378      -0.93019092       0.03838195       0.00337240      -0.00027862      -0.00032356
H        3.51758853      -1.23759817      -0.03565476       0.04869261      -0.00327384       0.00090539      -0.00180330
H        2.57422929      -0.04384820       1.89024453       0.03740065      -0.00070316       0.00178414      -0.00120621
H        2.44029511       0.95843084       0.44416665       0.03681577      -0.00016426      -0.00119293      -0.00254910
H       -1.89208577       6.90456980      -0.56266288       0.04450946      -0.00205897      -0.00034675      -0.00155517
H       -3.51540926       6.90547080       0.15603038       0.04199837       0.00604507       0.00089547      -0.00107689
H       -3.28577379       6.39670311      -1.53681863       0.04289940       0.00182363       0.00026023       0.00047154
