40
Properties=species:S:1:pos:R:3:charge:R:1:forces:R:3 energy=-25947.149353661327 pbc="F F F"
N       -1.17257211      -0.28426471      -0.10644363      -0.08709148       0.00184788      -0.00159838       0.00460689
C       -1.83545864      -1.38425181      -0.79885160       0.01804792       0.00229153       0.00536468       0.00422296
C       -3.08962851      -1.76539772      -0.04980190       0.01823468       0.00563541      -0.00275186       0.00190776
N       -3.98974171      -0.61728671       0.00910415      -0.08311848       0.00381587      -0.00278245       0.00616322
C       -3.37530254       0.70666867      -0.02236652       0.02333034      -0.00151760       0.00123334       0.00067966
C       -2.00977933       0.65405601       0.63035328       0.01777362       0.00215884       0.00172818      -0.00344124
C       -5.27518207      -0.86826700       0.39422314       0.17140505      -0.00078518      -0.00487730      -0.00727637
O       -5.62261347      -1.97214787       0.78272780      -0.36135826      -0.00401221       0.00341371       0.00118135
C       -6.28885680       0.23122441       0.33152408      -0.05013424      -0.00174580      -0.00146907      -0.00479499
C       -6.36473017       1.16845495      -0.60311674      -0.06720553       0.00297656       0.00234137       0.00228769
C        0.18078658      -0.14995394      -0.12171539       0.15343121       0.00033396       0.00484648      -0.00799224
N        0.70406697       0.88158117       0.56127809      -0.19512360      -0.00243646       0.00167572      -0.00121590
C        2.02394768       0.98628888       0.53683944       0.04834957      -0.00107988      -0.00434811       0.00614024
C        2.86043685       0.11083447      -0.14135748      -0.01710384       0.00093142      -0.00024864      -0.00125278
C        2.19718393      -0.90667462      -0.81449435       0.04866229       0.00039028      -0.00256181       0.00044384
N        0.88279638      -1.05889390      -0.81884108      -0.19475055      -0.00152444       0.00048352      -0.00453821
C        4.33004056       0.24738144      -0.14433567      -0.00537557       0.00542238       0.00176082       0.00159873
C        5.06478866      -0.00566687      -1.30064254      -0.03687687       0.00363071       0.00477113      -0.00153827
C        6.44387679       0.12165426      -1.30437820      -0.03764381       0.00268057       0.00226675      -0.00076046
C        7.11089945       0.50166151      -0.14746620      -0.04193443       0.00076279      -0.00600033       0.00034848
C        6.38901721       0.75492111       1.01110848      -0.03762789      -0.00055204       0.00121927      -0.00288582
C        5.00961751       0.63069719       1.01002596      -0.03693709       0.00273420      -0.00030971       0.00192150
H       -1.15166130      -2.22340465      -0.84901946       0.03297374      -0.00771682       0.00154041       0.00586341
H       -2.09459847      -1.09591780      -1.82178683       0.03740146      -0.00024023      -0.00420466       0.00343448
H       -3.61108898      -2.57435913      -0.55295954       0.04080993      -0.00050515       0.00297212      -0.00055230
H       -2.84363992      -2.11153859       0.95799907       0.03779899      -0.00372430       0.00177788       0.00503613
H       -3.27260217       1.07306544      -1.04970984       0.04004445       0.00003404       0.00424238      -0.00097526
H       -4.00891081       1.40284961       0.51833622       0.04174475      -0.00445212      -0.00120963       0.00337489
H       -1.54268263       1.63341346       0.60852924       0.03405760      -0.00015014       0.00211573      -0.00181243
H       -2.11015632       0.34818922       1.67602432       0.03694471       0.00476800      -0.00073176      -0.00542888
H       -7.05652928       0.13865495       1.08927622       0.04519212      -0.00166261       0.00045598      -0.00199847
H       -7.18546930       1.87012764      -0.62314436       0.05088545       0.00086330      -0.00146768       0.00104115
H       -5.61636322       1.26392606      -1.37798681       0.03438750      -0.00096893      -0.00401058      -0.00245811
H        2.44165671       1.82473270       1.08220906       0.04505242       0.00026870      -0.00207455       0.00222940
H        2.75948830      -1.64689517      -1.37199273       0.04501360       0.00538319      -0.00256422       0.00002666
H        4.55443241      -0.29275991      -2.20843955       0.04497700       0.00059672       0.00075376       0.00150661
H        6.99997173      -0.07571669      -2.21104609       0.04747609      -0.00055496       0.00491236       0.00107946
H        8.18613771       0.59844315      -0.14792677       0.04587684      -0.00373670       0.00139539      -0.00412646
H        6.90304431       1.04958291       1.91635398       0.04750514      -0.00693156      -0.00612308      -0.00306782
H        4.45772682       0.82222706       1.91861856       0.04490513      -0.00322896      -0.00193671       0.00102215
