46
Properties=species:S:1:pos:R:3:charge:R:1:forces:R:3 energy=-37888.21332880578 pbc="F F F"
C       -3.42501923      -0.75652658       0.90041805       0.04407641       0.00063169      -0.00114099       0.00839846
N       -2.13107000      -1.02783754       0.85383438      -0.20026225      -0.00054789       0.00313236      -0.00403312
C       -1.36008946      -0.12143680       0.23050381       0.14955202      -0.00012274      -0.00143119      -0.00536216
N       -0.02928804      -0.39355817       0.13842246      -0.09089152       0.00304430      -0.00301037       0.00103609
C        0.52124409      -1.66282053       0.60212407       0.01637514       0.00231602      -0.00359691       0.00011200
C        1.69935015      -2.04267825      -0.27077641       0.01807216      -0.00106202      -0.00197084      -0.00008367
N        2.72937208      -1.02006028      -0.17048029      -0.08538735      -0.00127792      -0.00368854      -0.00259040
C        4.03753041      -1.39298658      -0.05893449       0.20248669      -0.00147092      -0.00010663      -0.00310950
O        4.37704895      -2.56411148      -0.09715142      -0.33414498       0.00013257       0.00425626      -0.00194867
C        5.04688625      -0.26920458       0.11007149      -0.03760187      -0.00329452       0.00121680      -0.00332597
C        6.45833870      -0.80019920       0.30927710      -0.03623432      -0.00364367       0.00157202       0.00044767
S        7.67802342       0.50861480       0.53839632      -0.13076979      -0.00293867       0.00410085       0.00277768
C        7.81366586       1.08671126      -1.16315532      -0.06165101       0.00067352       0.00058222       0.00004225
C        2.27472975       0.35174493       0.00958873       0.02666579       0.00274168      -0.00415201       0.00221925
C        0.87494717       0.52517203      -0.53943574       0.01940983       0.00332516      -0.00214276       0.00193176
N       -1.79076619       1.03145916      -0.30686097      -0.20028193      -0.00351339      -0.00269563      -0.00258469
C       -3.09324980       1.25989494      -0.22762825       0.04356998      -0.00209308       0.00203296       0.00765753
C       -3.99856708       0.38907301       0.36323815      -0.02173571       0.00328109      -0.00761287      -0.00357065
C       -5.45070665       0.64829259       0.40937697      -0.00929420       0.00892827      -0.00188319       0.00198596
C       -6.35936234      -0.38199540       0.17892687      -0.04028516       0.00674186       0.00333774      -0.00183177
C       -7.72323528      -0.14224137       0.21081056      -0.04117053       0.00323672       0.00031256       0.00044320
C       -8.19823206       1.13243595       0.48841779      -0.04543856      -0.00014157       0.00422432      -0.00719265
C       -7.30083160       2.16469437       0.72696777      -0.04124055       0.00238212       0.00343435       0.00255151
C       -5.93725900       1.92402506       0.68219413      -0.04017726       0.00373548      -0.00241944      -0.00517709
H       -4.04625213      -1.48922116       1.40238858       0.04368533      -0.00082706      -0.00835467       0.00392728
H        0.84638354      -1.58242778       1.64278377       0.03566822      -0.00327811       0.00771263      -0.00204477
H       -0.25313186      -2.41973396       0.55052379       0.03231024       0.00180057      -0.00047878      -0.00057287
H        2.13774196      -2.98236198       0.04598980       0.03673037      -0.00058724       0.00176220      -0.00014524
H        1.35953173      -2.15271658      -1.30524384       0.03698757       0.00252139       0.00318454       0.00125102
H        4.76583485       0.35554351       0.95846143       0.04156651       0.00688595      -0.00288950       0.00071822
H        5.00274079       0.36680539      -0.77443398       0.04174784       0.00106906       0.00041186      -0.00280841
H        6.49699989      -1.42697150       1.19648334       0.03768309      -0.00294235      -0.00342927      -0.00279943
H        6.75372415      -1.41985348      -0.53273221       0.03767550       0.00004518       0.00441405       0.00176113
H        8.08835752       0.26914955      -1.82495886       0.04174679      -0.00369305      -0.00440855       0.00121793
H        6.88940894       1.53842783      -1.51162216       0.04182020      -0.00056943      -0.00012973       0.00115383
H        8.59859420       1.83722989      -1.18886335       0.04159943       0.00027521       0.00048442       0.00165180
H        2.94900915       1.02812840      -0.50966091       0.04887298      -0.00118745       0.00284062       0.00337787
H        2.27833898       0.63095525       1.06797064       0.04031797      -0.00710216       0.00381481       0.00195470
H        0.53092347       1.54046278      -0.37051503       0.03336238      -0.00271635      -0.00230759      -0.00180975
H        0.87787104       0.34720401      -1.61969454       0.03664932       0.00778121      -0.00140836      -0.00022549
H       -3.43936716       2.18742788      -0.66875647       0.04375191      -0.00366072      -0.00255233      -0.00468762
H       -5.99629384      -1.37629035      -0.03780406       0.04363596       0.00089284       0.00072400      -0.00078228
H       -8.41696572      -0.94914387       0.01735139       0.04614503      -0.00277808      -0.00262762       0.00293288
H       -9.26074448       1.32033782       0.51636658       0.04447074      -0.00576634       0.00322979       0.00491057
H       -7.66533128       3.15847680       0.94845985       0.04609556      -0.00291725       0.00784178       0.00165860
H       -5.24465620       2.73186128       0.86981367       0.04383602      -0.00430978      -0.00018525       0.00056694
