48
Properties=species:S:1:pos:R:3:charge:R:1:forces:R:3 energy=-45471.84316028513 pbc="F F F"
F        5.78346149       3.73175341      -2.50800981      -0.12173606      -0.00333436      -0.00454201       0.00522475
C        5.21657022       2.51688939      -2.39505033       0.08780818       0.00025523      -0.00664248       0.00025125
C        4.08016225       2.23889078      -3.13036603      -0.04449707       0.00437013      -0.00055208      -0.00035987
C        3.50306763       0.98698245      -3.01013807      -0.03674865       0.00111705      -0.00319395       0.00870682
C        4.05255999       0.02873970      -2.16040014      -0.01426708       0.00296832      -0.00249385      -0.00130338
C        5.20244780       0.33971888      -1.43679257      -0.03562941      -0.00481174      -0.00093538      -0.00387404
C        5.79081134       1.58806969      -1.54918455      -0.04554054      -0.00248129       0.00156688      -0.00570050
S        3.32306539      -1.58523118      -2.04529880      -0.06098834      -0.00380440      -0.00262739       0.00328478
C        2.25906665      -1.33273178      -0.58663656      -0.00867886      -0.00153896      -0.00345629       0.00073748
C        1.41259052      -2.56767389      -0.29988246       0.01957281      -0.00156527      -0.00295212      -0.00240093
N        0.29534167      -2.02433713       0.48468992      -0.08177094      -0.00491403      -0.00121147      -0.00679907
C        0.11270079      -0.57792901       0.22341467       0.03967572       0.00196533       0.00304030       0.00081866
C        1.23021503      -0.22320607      -0.75580529      -0.04353577       0.00166854      -0.00033770       0.00091813
C       -1.27803402      -0.22120579      -0.33263382       0.19159234       0.00190771       0.00259446       0.00005284
O       -1.40830752       0.31313803      -1.41941090      -0.29993898       0.00262572       0.00066948      -0.00212228
N       -2.31745019      -0.51466056       0.47582165      -0.10385293       0.00174489       0.00131544       0.00153114
C       -3.66546304      -0.10253255       0.12581105       0.02127684       0.00171412       0.00003772       0.00196277
C       -4.03620759       1.23567183       0.70639999      -0.00175378      -0.00199018       0.00024894       0.00164046
C       -4.74035323       1.31782111       1.89925187      -0.02972994      -0.00593616      -0.00018056       0.00187045
C       -5.05985995       2.54363603       2.46591870      -0.04651773      -0.00055713       0.00160906       0.00213414
C       -4.66906840       3.69279167       1.81165005       0.08715189      -0.00193177      -0.00001650      -0.00452557
C       -3.97806761       3.65128108       0.61982945      -0.04803456       0.00306623       0.00317518      -0.00284298
C       -3.66727175       2.41539044       0.07072972      -0.03215558      -0.00507683       0.00018253      -0.00181271
F       -4.97437697       4.89087635       2.35496291      -0.12445579       0.00176637      -0.00309815      -0.00121345
C       -0.27068182      -2.60590064       1.57313784       0.17749366       0.00201973       0.00071205       0.00056754
O       -0.88324222      -1.93925154       2.40847093      -0.30723763      -0.00077489       0.00136139      -0.00236170
C       -0.16118298      -4.07992454       1.76554952      -0.04082695       0.00151598       0.00043230       0.00014663
C       -0.17002344      -4.99814948       0.80721427      -0.06113751       0.00822507       0.00045982       0.00063449
H        3.67149241       2.99687030      -3.78028864       0.05602340       0.00008784       0.00357968      -0.00085141
H        2.62366121       0.74705804      -3.59010801       0.04244776       0.00160007       0.00307639       0.00156262
H        5.65001921      -0.40280516      -0.79117364       0.04362831      -0.00050269      -0.00160357      -0.00037490
H        6.68031149       1.85224544      -0.99918250       0.05600322       0.00300525       0.00186434       0.00086754
H        2.91427429      -1.13031719       0.25805737       0.03696139      -0.00288416      -0.00139849      -0.00008843
H        1.04673630      -3.02125484      -1.22137639       0.03587963      -0.00047317       0.00526227      -0.00638893
H        1.96236590      -3.31977006       0.25561798       0.04225767       0.00352978      -0.00021038      -0.00107580
H        0.22955373      -0.05074774       1.16875410       0.04689134       0.00340479      -0.00236714       0.00431976
H        0.83413422      -0.22921594      -1.76944779       0.03126498      -0.00059980       0.00828199       0.00227775
H        1.63798322       0.76493387      -0.56853821       0.03991588      -0.00036581      -0.00186564      -0.00570257
H       -2.13331918      -0.89519492       1.39333333       0.11131079      -0.00469129      -0.00184238       0.00252310
H       -4.36417267      -0.85659103       0.48317853       0.04617230      -0.00004765       0.00144827       0.00044495
H       -3.72376091      -0.06932575      -0.95769058       0.03696550      -0.00118514      -0.00398825       0.00246314
H       -5.04951022       0.41192736       2.40281160       0.04923177       0.00096760      -0.00264525       0.00252389
H       -5.60030083       2.61857300       3.39718849       0.05487772      -0.00338195      -0.00002846       0.00203443
H       -3.69152986       4.57166800       0.13499576       0.05519079       0.00131224       0.00681848      -0.00182676
H       -3.13637089       2.37317185      -0.86698981       0.04145408      -0.00312388      -0.00147817       0.00046096
H       -0.18240746      -4.36251119       2.80956164       0.04776954      -0.00219798       0.00171748       0.00149727
H       -0.15150721      -4.73921773      -0.24246762       0.03781335       0.00517886      -0.00045894       0.00123437
H       -0.21272945      -6.04705279       1.05686035       0.05240323       0.00215405       0.00067345      -0.00106671
