64
Properties=species:S:1:pos:R:3:charge:R:1:forces:R:3 energy=-64295.007360148535 pbc="F F F"
C        2.39427866      -1.77031264       1.98677244       0.03618102      -0.00105772       0.00096178      -0.00081801
N        1.92201841      -0.97389883       1.04233015      -0.18670765      -0.00334449      -0.00125240      -0.00138909
C        2.83429267      -0.24244221       0.40725240       0.16396540       0.00062030      -0.00704005      -0.00289531
N        2.46763721       0.61157276      -0.59773984      -0.13240930       0.00140604      -0.00058512       0.00436933
C        1.22574440       0.84762223      -1.19282874       0.03185085       0.00566893      -0.00165422       0.00196966
C        0.07012855       0.14359112      -0.89936214      -0.06651676       0.00589492       0.00141245       0.00296278
C       -1.11889279       0.45692907      -1.56414940       0.05347720       0.00312581      -0.00352618      -0.00046770
N       -2.33392173      -0.21127515      -1.31272947      -0.09493323      -0.00289545       0.00258316      -0.00309310
C       -2.60175408      -1.17595994      -0.38760911       0.19242436      -0.00213187       0.00274802      -0.00101678
O       -1.78710072      -1.64683564       0.37753690      -0.30335206      -0.00122365       0.00006081       0.00002204
C       -4.05939113      -1.61825918      -0.38575874      -0.03333553       0.00147907       0.00279198       0.00213217
C       -5.02979669      -0.52227783       0.06966665       0.00511599       0.00153884       0.00335908       0.00004101
S       -5.43769331       0.68167330      -1.23403768      -0.08307809      -0.00088953      -0.00263963      -0.00020878
C       -6.52060552      -0.29672314      -2.29428852      -0.05891836       0.00261682       0.00115438       0.00090857
C       -6.25898377      -1.19292071       0.67718906       0.02290516       0.00194705      -0.00234025       0.00126385
N       -7.34962255      -0.29286563       0.99472720      -0.17203462       0.00007512      -0.00310602       0.00055362
C       -8.53792845      -1.04167731       1.36016890      -0.01476430      -0.00186907      -0.00079487      -0.00280244
C       -7.00252156       0.66144572       2.03812424      -0.01824115      -0.00057785      -0.00327559       0.00095363
C       -1.13567123       1.45939655      -2.51415469      -0.04378544      -0.00203138      -0.00580620      -0.00442711
C        0.02358517       2.16673363      -2.81209108      -0.04958314      -0.00478853       0.00390680       0.00450484
C        1.19905126       1.87268244      -2.15964823       0.05615725      -0.00236228      -0.00309218      -0.00009447
O        2.39983380       2.50216850      -2.37083843      -0.14466791      -0.00315454      -0.00079247       0.00145721
C        2.41492030       3.58262060      -3.28730222       0.02596816      -0.00059917      -0.00269177       0.00076068
N        4.14492837      -0.23455828       0.64371256      -0.19018082      -0.00053513       0.00018204       0.00016791
C        4.62574054      -0.99274448       1.63257474       0.05858260      -0.00156889       0.00235497       0.00213995
C        6.03762079      -0.88639056       1.91979430      -0.04856308      -0.00073161      -0.00060864       0.00091522
C        6.76233109      -1.17886557       3.09040383      -0.00405077       0.00061883       0.00706374       0.00306706
N        8.04447997      -0.88526229       2.99736347      -0.18049264       0.00282830      -0.00284187      -0.00284518
N        8.18313527      -0.39300645       1.74534298       0.01266320      -0.00106517       0.00656490       0.00065263
C        9.37600377       0.03468278       1.24459690       0.02577504       0.00032892      -0.00163854      -0.00161900
C        9.42080582       0.51560858      -0.01870803      -0.04223618       0.00190115      -0.00261189      -0.00071685
C        8.23246074       0.56337798      -0.79815883      -0.02617226       0.00005556      -0.00028712       0.00132286
C        7.04825726       0.13408408      -0.28718672      -0.03785645       0.00008780      -0.00131496       0.00090649
C        7.00718650      -0.36344084       1.04386428       0.03163417      -0.00113774       0.00188332       0.00074075
C        3.73174487      -1.83395794       2.32113186      -0.00204203      -0.00086763      -0.00441344      -0.00362083
Cl       4.21623129      -2.99544116       3.52408423      -0.05155301       0.00267122      -0.00402062      -0.00015725
H        1.67723493      -2.39422278       2.50703433       0.05283704       0.00319429       0.00210398       0.00121056
H        3.23056478       1.16010695      -0.95923525       0.10516490      -0.00559832       0.00298541      -0.00214440
H        0.10161646      -0.63426302      -0.15718045       0.01896698       0.00179919      -0.00170763      -0.00280193
H       -3.11812308       0.13105675      -1.84709951       0.11230963      -0.00691116       0.00294016       0.00177014
H       -4.12485553      -2.45732709       0.30200226       0.04537774       0.00334695      -0.00164206      -0.00257934
H       -4.34278014      -1.97042768      -1.37765060       0.04297405      -0.00034770       0.00199869       0.00339674
H       -4.53953253       0.07649889       0.83611069       0.03639858       0.00157762       0.00211584       0.00206825
H       -6.77719496       0.32861569      -3.14564085       0.04529771      -0.00509869      -0.00351854       0.00207471
H       -6.02323776      -1.19428808      -2.64936283       0.04290739      -0.00055278       0.00199639       0.00227824
H       -7.42489563      -0.55208220      -1.75035155       0.03090304       0.00455025       0.00270454      -0.00117424
H       -5.93100080      -1.73498340       1.57644728       0.03651524       0.00312349       0.00038405       0.00589813
H       -6.59955228      -1.95137230      -0.03353787       0.03386632      -0.00281885       0.00111705      -0.00319634
H       -8.39712710      -1.65148031       2.26530236       0.03141858      -0.00261218      -0.00139163      -0.00441597
H       -9.36194986      -0.35154670       1.53294148       0.03128714       0.00003319       0.00111111      -0.00202580
H       -8.81988343      -1.70306675       0.54237474       0.03200780       0.00207933      -0.00182233      -0.00227594
H       -6.19515927       1.31181377       1.71178822       0.02581510      -0.00479696       0.00154288       0.00091693
H       -7.86689757       1.28889148       2.24607036       0.03240139       0.00169486       0.00069513      -0.00287529
H       -6.69346562       0.17212057       2.97377177       0.03304546       0.00193763       0.00051805       0.00331856
H       -2.04432781       1.70982795      -3.03913943       0.05037505      -0.00271559       0.00424153      -0.00342978
H       -0.01214843       2.94368024      -3.55773271       0.04901917       0.00170833       0.00165123      -0.00263413
H        2.16174383       3.24976562      -4.29520158       0.04254335      -0.00229789       0.00151382       0.00071276
H        3.43044313       3.96427042      -3.27834065       0.04446184      -0.00228020       0.00009002      -0.00604887
H        1.72843749       4.37268383      -2.97866377       0.04183628       0.00767505       0.00148483       0.00285102
H        6.37975547      -1.58378143       4.00769738       0.04451083       0.00063836       0.00223746       0.00167892
H       10.20948324      -0.04977668       1.92171496       0.05346348      -0.00065355       0.00081668      -0.00126601
H       10.36278982       0.85692457      -0.41714816       0.05764958       0.00267161      -0.00290719       0.00264021
H        8.27986678       0.94731273      -1.80640414       0.05477769      -0.00050464      -0.00269710       0.00053731
H        6.13155462       0.15709971      -0.85056717       0.04064292       0.00112363       0.00074520      -0.00012548
