62
Properties=species:S:1:pos:R:3:charge:R:1:forces:R:3 energy=-51302.25640663439 pbc="F F F"
N       -1.33936329      -0.96406165      -1.02629053      -0.00549596      -0.00171403      -0.00072878       0.00411730
N       -0.15666552      -0.42486085      -0.63584820      -0.15423244      -0.00113791       0.00128831      -0.00112788
C        0.64573213      -1.42589319      -0.34396469       0.04503892      -0.00237741       0.00012635       0.00136157
C       -0.05184442      -2.66780187      -0.50878167      -0.06099049       0.00051063      -0.00275623      -0.00091627
C       -1.32514149      -2.30073088      -0.96600550       0.09218042       0.00090302      -0.00243638      -0.00734135
N       -2.33012304      -3.13879272      -1.29160953      -0.23430336      -0.00307042      -0.00147482       0.00044959
C       -1.98561797      -4.39506074      -1.09378632       0.09612571       0.00401031      -0.00091268      -0.00155058
N       -0.82948345      -4.89683047      -0.62492332      -0.27497169       0.00358558      -0.00300313       0.00062293
C        0.14888905      -4.04496742      -0.30997667       0.13742599       0.00396226      -0.00250580      -0.00190013
N        1.29731141      -4.57050836       0.18721081      -0.16521427      -0.00052148      -0.00468086       0.00516971
C        2.04010424      -1.18889641       0.06194168      -0.01834657      -0.00258758      -0.00112680      -0.00021995
C        3.08405198      -1.98446087      -0.41047947      -0.02936485       0.00000921       0.00161649      -0.00095176
C        4.39111712      -1.74698814      -0.01851224      -0.06400943       0.00230913      -0.00212521      -0.00118922
C        4.67025562      -0.71269474       0.84935866       0.07258190      -0.00001468      -0.00293455       0.00300713
C        3.65125395       0.10767843       1.31029237      -0.05779333      -0.00028873       0.00345741      -0.00324422
C        2.34971326      -0.12681535       0.91135163      -0.02725506      -0.00086989      -0.00052867      -0.00203912
O        5.97280215      -0.58348119       1.30437409      -0.15316841       0.00128665      -0.00240809      -0.00331634
C        6.65194104       0.59899567       1.08838467       0.07600692      -0.00274919      -0.00012870       0.00359228
C        7.78901433       0.78511933       1.85844200      -0.06073476       0.00170395      -0.00054167      -0.00313473
C        8.56038863       1.92369415       1.68516843      -0.04686580      -0.00252422       0.00069024       0.00188801
C        8.20238953       2.87631667       0.73861184      -0.06196167      -0.00053136       0.00050544       0.00096702
C        7.06829010       2.67167445      -0.03287647      -0.03977935      -0.00210931       0.00042986       0.00104633
C        6.28799816       1.53556444       0.13243274      -0.05694855       0.00330246      -0.00320324      -0.00066978
C       -2.47488189      -0.12752067      -1.37279311       0.03806718      -0.00043194      -0.00125249       0.00395746
C       -3.03066925       0.57093018      -0.14074273       0.00251860      -0.00199729       0.00483476      -0.00194339
N       -4.32467235       1.20325324      -0.42195149      -0.14599384      -0.00412839      -0.00175563      -0.00062419
C       -4.47043335       1.54137008      -1.84690575       0.01186739       0.00127651       0.00168449      -0.00461275
C       -3.16109805       2.04470857      -2.44974799      -0.04452096       0.00269333       0.00014837      -0.00140379
C       -2.10604642       0.92950583      -2.42037769      -0.04578443      -0.00102397      -0.00293997       0.00235623
C       -4.52845606       2.40444197       0.39494722       0.11022370      -0.00210500      -0.00136939       0.00124102
O       -3.55509908       3.18395650       0.50351490      -0.38487124       0.00591524       0.00482947      -0.00167092
C       -5.81279987       2.55319604       0.89600630      -0.18614686      -0.00914791       0.00080957      -0.00086039
C       -6.89948568       1.55797610       0.79664476      -0.04348703      -0.00032945      -0.00045649       0.00312945
H       -2.73230108      -5.14074963      -1.33603829       0.02381952      -0.00024241       0.00235973       0.00141671
H        1.26111068      -5.52927134       0.47413202       0.11833721      -0.00053979       0.00184620      -0.00046360
H        1.95154330      -3.96776424       0.65202167       0.10761084      -0.00024221       0.00329549      -0.00205825
H        2.87187651      -2.77339084      -1.11659852       0.03663128       0.00266635      -0.00082158       0.00259860
H        5.20831145      -2.35389625      -0.38266544       0.03703315       0.00499431      -0.00415236       0.00120220
H        3.89002596       0.92148542       1.97813138       0.03644137      -0.00110854       0.00208373       0.00132923
H        1.55757957       0.52198171       1.25398890       0.03117155      -0.00180805       0.00013014      -0.00107397
H        8.05175697       0.02757543       2.58176647       0.03326339      -0.00225403       0.00204401      -0.00179229
H        9.44396876       2.06549219       2.29188247       0.03328077      -0.00258462       0.00129800       0.00148584
H        8.80111537       3.76552181       0.60514118       0.03320205       0.00109676       0.00133925      -0.00165627
H        6.77919145       3.40017117      -0.77747898       0.03410419      -0.00257888       0.00095435       0.00025702
H        5.40989499       1.37905081      -0.47276297       0.03062323       0.00056338      -0.00137581       0.00284782
H       -3.22880889      -0.81071992      -1.76473854       0.02490690      -0.00150589      -0.00009288       0.00341349
H       -2.30355883       1.30947258       0.20705077       0.02249513       0.00572574      -0.00174441      -0.00283721
H       -3.15868909      -0.15881877       0.65843756       0.03492764       0.00556140       0.00428092      -0.00191567
H       -4.80838735       0.66008163      -2.40374659       0.02378178      -0.00025138       0.00009112      -0.00375765
H       -5.24578825       2.29522793      -1.94144197       0.01960062      -0.00192155       0.00153032       0.00646411
H       -3.31517610       2.39854996      -3.47127199       0.03132531      -0.00205601       0.00085411      -0.00047339
H       -2.83709419       2.88132424      -1.83447452       0.01759811       0.00213949      -0.00001089       0.00011199
H       -1.14430302       1.36587999      -2.15578121       0.02176619      -0.00151621      -0.00167157      -0.00020929
H       -2.00124868       0.43784504      -3.39019901       0.02939345      -0.00032608       0.00377490       0.00044602
H       -6.00132408       3.45594860       1.46700938       0.02114094       0.00342868       0.00293674       0.00202974
H       -6.74460325       0.85092225      -0.01561681       0.01801997      -0.00150605       0.00367198      -0.00027307
H       -7.87911086       2.01944009       0.67295153       0.02269688       0.00087711      -0.00357975       0.00357180
S       -7.20260507       0.47067288       2.29754678      -0.16876084      -0.00386539       0.00190605      -0.00036021
C       -5.50710794      -0.10427843       2.54455447      -0.08070104      -0.00283318      -0.00072314      -0.00241949
H       -5.14161719      -0.61406727       1.65858436       0.03056424       0.00105689      -0.00029340      -0.00022277
H       -5.48945850      -0.78579443       3.39376479       0.02905897       0.00237886       0.00201453      -0.00182070
H       -4.87426382       0.75640202       2.73345968       0.02686339       0.00484225      -0.00309715      -0.00003061
