20
Properties=species:S:1:pos:R:3:charge:R:1:forces:R:3 energy=-15727.600769469256 pbc="F F F"
C        4.24951062       0.02968693       0.16451204      -0.06119263       0.00057805       0.00029482      -0.00150205
C        3.07718666      -0.49074121       0.49249141      -0.04179396       0.00001890      -0.00004475       0.00067165
C        1.81047883       0.14370127       0.01463504       0.17885672       0.00020844       0.00457311      -0.00131199
O        1.80527097       1.13994905      -0.67891946      -0.30112162      -0.00274575       0.00548111      -0.00291342
N        0.67185892      -0.49899805       0.42924281      -0.09790894       0.00313788      -0.00108641       0.00328699
C       -0.67165991      -0.15501051       0.15299196       0.05205113       0.00073170      -0.00077456       0.00181581
C       -1.66276025      -0.97393658       0.68900257      -0.03929789       0.00172661      -0.00272868      -0.00292284
C       -3.00509785      -0.71283144       0.46811436      -0.04691903       0.00025757       0.00372820       0.00307685
C       -3.34635050       0.38424731      -0.29687938       0.08583722      -0.00215644      -0.00020240      -0.00155996
C       -2.38421591       1.21063430      -0.83788392      -0.04997659      -0.00252772       0.00282331       0.00189326
C       -1.04149651       0.94389367      -0.61519134      -0.04348802      -0.00314939      -0.00527751      -0.00046401
F       -4.64958161       0.65246801      -0.51895343      -0.12372907      -0.00198163       0.00138231      -0.00237363
H        4.29638677       0.91880431      -0.44723958       0.03823472       0.00625177      -0.00058987      -0.00320068
H        5.17576123      -0.41528965       0.49529017       0.05024618       0.00054105       0.00384584       0.00194239
H        3.02051056      -1.38050478       1.11001513       0.05472054      -0.00074290      -0.00426101      -0.00042053
H        0.79354415      -1.31549158       0.99989890       0.15143742       0.00176774      -0.00607002       0.00379332
H       -1.38434154      -1.83050412       1.28879804       0.05250846      -0.00394377      -0.00166971      -0.00031308
H       -3.77588894      -1.34622560       0.88074085       0.05477741       0.00189777       0.00297906      -0.00111242
H       -2.68451499       2.06072394      -1.43109617       0.05327104       0.00135854       0.00079414      -0.00237343
H       -0.28350224       1.58227937      -1.03403330       0.03348692      -0.00122812      -0.00319636       0.00398776
