29
Properties=species:S:1:pos:R:3:charge:R:1:forces:R:3 energy=-26015.99874568784 pbc="F F F"
C       -4.56321060      -0.39471645      -0.69779646      -0.03829145      -0.00003351      -0.00121279      -0.00331142
C       -3.55513497      -1.22965401      -0.23233899      -0.03803105       0.00328551       0.00142137      -0.00393963
C       -2.45900781      -0.70027027       0.42935482      -0.03377792       0.00359186       0.00397394      -0.00406017
C       -2.36199396       0.67323746       0.64331253      -0.00489725      -0.00164498       0.00311878       0.00550143
C       -1.15462177       1.23300959       1.34029071       0.01726517       0.00316514       0.00370381       0.00083039
N        0.03542012       1.18935324       0.50308048      -0.10704281       0.00132115      -0.00667642       0.00045032
C        1.00678095       0.24838587       0.64351775       0.15834656       0.00581739       0.00119126      -0.00039925
O        1.00954404      -0.57382298       1.55291141      -0.31203499      -0.00439758       0.00604531       0.00424371
C        2.11171725       0.29667796      -0.39321981      -0.04256983       0.00136835      -0.00008645      -0.00442691
C        3.47436997       0.43462473       0.27162682      -0.02554197      -0.00062085      -0.00316716      -0.00219486
S        4.88621566       0.31002838      -0.87942515      -0.10048660       0.00403980      -0.00350979       0.00031334
C        4.91657373      -1.48984572      -1.15625119      -0.06746779      -0.00240866       0.00633587       0.00273666
C       -3.37376444       1.50218966       0.17396636      -0.03990712      -0.00029706      -0.00094336      -0.00489226
C       -4.47018638       0.97382209      -0.49333258      -0.03675762       0.00072716      -0.00271199      -0.00397833
H       -5.41625794      -0.80968092      -1.21815926       0.03934424      -0.00387905       0.00042294       0.00236227
H       -3.62193302      -2.29850967      -0.38736948       0.03871285       0.00086298       0.00074707      -0.00342924
H       -1.66903097      -1.35168038       0.78222714       0.03832896       0.00026294       0.00162537      -0.00149994
H       -0.92389083       0.65789655       2.23334351       0.03906987      -0.00472644       0.00290374       0.00061325
H       -1.32886968       2.26473337       1.63920969       0.03912819      -0.00070966       0.00480562       0.00073591
H        0.01002314       1.72814067      -0.34657152       0.13266809      -0.00000560      -0.00301660       0.00789825
H        2.06615631      -0.64037279      -0.94819950       0.03902352       0.00134703      -0.00500157       0.00559517
H        1.95645762       1.10095846      -1.11159204       0.04065884      -0.00327455      -0.00263574      -0.00896355
H        3.57289115      -0.31046944       1.05784218       0.03594927       0.00559845      -0.00256260      -0.00117998
H        3.56515985       1.41457276       0.73616558       0.03625890      -0.00031558      -0.00515806      -0.00028143
H        4.01907238      -1.83487078      -1.66344026       0.03763546       0.00267094       0.00380587       0.00078688
H        5.77225646      -1.68914840      -1.79421247       0.04089440      -0.00890350      -0.00118733       0.00186041
H        5.04132032      -2.03346724      -0.22249769       0.03717818      -0.00009340       0.00453770      -0.00146088
H       -3.30527102       2.57100240       0.33480479       0.03714405      -0.00139780      -0.00528437       0.00435341
H       -5.24934808       1.63201655      -0.85391033       0.03919991      -0.00135079      -0.00148486       0.00573659
