19
Properties=species:S:1:pos:R:3:charge:R:1:forces:R:3 energy=-19731.94943383977 pbc="F F F"
N       -1.41619028       0.44040239      -0.60127236      -0.12257414      -0.00192820      -0.00084346      -0.00450165
C       -1.35016798      -0.65931921       0.18608324       0.16334443       0.00486974       0.00442360      -0.00125274
O       -2.30523942      -1.39954621       0.39771948      -0.32151693       0.00582620       0.00264231       0.00230282
C        0.01846344      -0.91436859       0.80482577      -0.04137381       0.00016237      -0.00030741       0.00138744
C        1.10598967      -1.28002785      -0.20043700      -0.02497561      -0.00047562      -0.00054121      -0.00036067
S        1.73842185       0.08699868      -1.24011549      -0.06152565       0.00372755       0.00544232      -0.00398079
C        2.66429560       1.03900211       0.00088020      -0.06370574      -0.00053104       0.00032237       0.00188846
C       -2.61051787       0.81751339      -1.32043755      -0.01316767      -0.00196920       0.00027224      -0.00137331
H       -0.53795254       0.86329036      -0.87775575       0.11045910      -0.00092046      -0.00133472       0.00451743
H       -0.11255805      -1.73640862       1.50337790       0.04015676       0.00028859      -0.00159934       0.00296933
H        0.32725021      -0.04239049       1.38133018       0.03543836       0.00074445       0.00039777      -0.00125021
H        1.95776086      -1.71983280       0.31431651       0.03820597      -0.00029831      -0.00427609      -0.00167126
H        0.73230947      -2.02382173      -0.90052770       0.03782457      -0.00262617      -0.00027110       0.00057851
H        3.10508530       1.88183987      -0.52214929       0.04170150      -0.00358991      -0.00017098      -0.00021346
H        3.45956214       0.44379167       0.44192237       0.03628639      -0.00149803      -0.00252039       0.00095757
H        2.01181792       1.41734138       0.78324291       0.03606808      -0.00288831      -0.00040750       0.00080015
H       -2.47250393       0.70730356      -2.39669646       0.03631278      -0.00005749      -0.00229918      -0.00008704
H       -2.88096471       1.85228786      -1.11123649       0.03656378       0.00209705       0.00099436      -0.00026605
H       -3.42066911       0.16948520      -1.00298094       0.03647786      -0.00093374       0.00007654      -0.00044467
