33
Properties=species:S:1:pos:R:3:charge:R:1:forces:R:3 energy=-29131.04689346173 pbc="F F F"
C       -2.66224630      -0.73443838      -1.76577297      -0.04014436       0.00179240      -0.00296521       0.00691754
C       -3.71132849      -0.66853109      -0.85563171      -0.06532688      -0.00052337      -0.00009653      -0.00143019
C       -3.63984179       0.24488060       0.19188601       0.07345825       0.00329827       0.00042740       0.00109752
O       -4.59467623       0.40108339       1.15023925      -0.14488558      -0.00264401      -0.00275798      -0.00266716
C       -5.72666766      -0.44971157       1.09589892       0.01939887      -0.00401674      -0.00225816       0.00164899
C       -2.52699041       1.07741977       0.31054714      -0.05738800       0.00155453      -0.00436535      -0.00248094
C       -1.48616879       1.00097011      -0.59624189      -0.00263443       0.00380397       0.00058353       0.00350776
C       -0.26545199       1.85847776      -0.42660028       0.01704454       0.00090671       0.00662759      -0.00320835
N        0.82729287       1.13153994       0.20205048      -0.10961540       0.00015556      -0.00191804      -0.00052668
C        1.85271470       0.58965254      -0.51072750       0.16040216       0.00668458       0.00317328       0.00259457
O        2.01012645       0.79494040      -1.70804273      -0.30714497      -0.00157772       0.00534867      -0.00502120
C        2.79804961      -0.27336864       0.30607011      -0.04268291       0.00521062      -0.00571020       0.00194751
C        3.82120193      -0.97902332      -0.56019689      -0.02803112      -0.00497297       0.00299148      -0.00135554
S        4.99181137      -2.02778544       0.37539995      -0.10126801       0.00358286       0.00496371      -0.00157312
C        6.07174370      -0.75027977       1.09135290      -0.06822448       0.00082818      -0.00308200      -0.00020312
C       -1.55358790       0.08272523      -1.64439482      -0.04305767      -0.00156231      -0.00119755       0.00139629
H       -2.71853091      -1.44320936      -2.58137006       0.03902103       0.00425445      -0.00415863       0.00014493
H       -4.56027003      -1.32391849      -0.97557884       0.03907797      -0.00138436       0.00169065      -0.00355170
H       -6.29769793      -0.29902793       0.17726039       0.03401874       0.00196410      -0.00167311      -0.00101092
H       -5.44084634      -1.50086101       1.17268390       0.03414819      -0.00387807       0.00090388       0.00013193
H       -6.34191477      -0.18296730       1.94820428       0.03949991      -0.00772403       0.00433070       0.00281084
H       -2.50300594       1.78720181       1.12627761       0.03892092       0.00333832       0.00076736      -0.00089797
H       -0.49104466       2.73392558       0.17838946       0.03861446      -0.00048770       0.00368249       0.00403442
H        0.10043280       2.19850116      -1.39052978       0.03866597      -0.00020127       0.00020202       0.00001814
H        0.64764262       0.76753701       1.12368823       0.13171032       0.00133654       0.00096579       0.00064128
H        3.29507059       0.35860798       1.04554058       0.03836587      -0.00158546       0.00049883      -0.00203173
H        2.21828171      -0.99938145       0.87951749       0.04039190      -0.00529442      -0.00256591      -0.00017302
H        4.37219914      -0.25546848      -1.15568796       0.03363734      -0.00034553      -0.00030217      -0.00106174
H        3.32626463      -1.65169185      -1.25595775       0.03973960      -0.00049480       0.00444194       0.00525560
H        5.53152651      -0.10208911       1.77746191       0.03726096       0.00517682      -0.00120658      -0.00208609
H        6.84271383      -1.27228375       1.65045522       0.04019080      -0.00050790      -0.00176558      -0.00247729
H        6.54689819      -0.15041248       0.31771889       0.03649247      -0.00535922      -0.00170546       0.00344532
H       -0.73831869       0.01323937      -2.35182407       0.04034355      -0.00132824      -0.00387111      -0.00383648
