29
Properties=species:S:1:pos:R:3:charge:R:1:forces:R:3 energy=-26016.212428345094 pbc="F F F"
C        4.30168551       1.14720506       0.61205888      -0.04904642      -0.00349738       0.00059120       0.00277007
C        4.09587156       0.04226022      -0.20078689      -0.04103262       0.00214256       0.00153905      -0.00297691
C        2.82032459      -0.34778652      -0.57677029      -0.04539705       0.00123132       0.00004252       0.00033301
C        1.72039261       0.38614840      -0.13276521       0.04276944      -0.00011893       0.00224891      -0.00339707
N        0.39654025       0.07656979      -0.47193557      -0.10128592       0.00055793       0.00378294       0.00099577
C       -0.08800596      -0.98563957      -1.18005643       0.17637134       0.00346875       0.00483586      -0.00347406
O        0.59743720      -1.91073662      -1.59306938      -0.28738138      -0.00437990      -0.00560246       0.00487927
C       -1.59521490      -0.95093818      -1.40638232      -0.04594527       0.00350984       0.00011572      -0.00099789
C       -2.45351007      -1.03440822      -0.13816205       0.01085982      -0.00043672       0.00510786      -0.00085300
S       -2.54054638       0.54586889       0.81418942      -0.05772110      -0.00098783      -0.00542347       0.00124825
C       -3.49778255       1.57388755      -0.33879749      -0.06323183       0.00155212       0.00152896      -0.00074435
C       -2.00493784      -2.13896870       0.79872804      -0.08134884      -0.00338540       0.00376045      -0.00324829
C        1.92647271       1.49906865       0.68849083      -0.05299335      -0.00299638      -0.00346542       0.00065581
C        3.20563821       1.87385988       1.05573257      -0.03997491      -0.00572754       0.00148496      -0.00257474
H        5.30268152       1.43871677       0.89825040       0.04080286      -0.00031051       0.00164383      -0.00248368
H        4.94175328      -0.53299495      -0.55364076       0.03985075       0.00536471      -0.00457749       0.00157019
H        2.66814557      -1.21120809      -1.20150338       0.03567971       0.00285782       0.00027250      -0.00099701
H       -0.30750407       0.68344861      -0.06605007       0.11252071      -0.00002407       0.00477271       0.00151984
H       -1.86571289      -0.05956721      -1.97130657       0.03692999       0.00090362      -0.00177660       0.00078012
H       -1.81895043      -1.81162888      -2.03170885       0.03994974       0.00041024      -0.00058433      -0.00150073
H       -3.47768752      -1.23372638      -0.45297241       0.03411186       0.00038823       0.00187452       0.00088688
H       -3.70824570       2.50609908       0.17628043       0.04358148      -0.00127896      -0.00028959      -0.00062589
H       -2.94032941       1.79460064      -1.24538780       0.03665602       0.00172411      -0.00292525       0.00021404
H       -4.43924231       1.09484941      -0.59511866       0.03750774       0.00313013       0.00062249       0.00673420
H       -2.67130983      -2.22423710       1.65494025       0.03309280      -0.00023360      -0.00446557      -0.00264679
H       -2.00017392      -3.09618221       0.27512104       0.03325236       0.00382433       0.00152890       0.00339190
H       -0.99934115      -1.96159327       1.17116527       0.02890110      -0.00679291      -0.00161978       0.00264023
H        1.07711102       2.07171114       1.04340644       0.04135029       0.00032376      -0.00246455      -0.00284986
H        3.34588251       2.73849682       1.69131214       0.04117065      -0.00121970      -0.00255857       0.00075088
