24
Properties=species:S:1:pos:R:3:charge:R:1:forces:R:3 energy=-21854.135614408875 pbc="F F F"
C       -3.18663726      -1.32596465      -1.06763526      -0.09317847      -0.00062990       0.00153348      -0.00458673
C       -1.87383838      -1.65031799      -0.37128309      -0.05983261      -0.00277587       0.00208172      -0.00042570
C       -0.95020007      -0.46187510      -0.23031610      -0.00704261       0.00231550      -0.00348321      -0.00583448
C        0.39316351      -0.73017495       0.13521353      -0.20608504      -0.00048156       0.00321531      -0.00185708
C        1.46290091       0.05966718      -0.31913623       0.08861411      -0.00025040       0.00030211      -0.00588765
O        1.40290662       1.00283632      -1.13877170      -0.38793489       0.00217089      -0.00408775      -0.00499430
N        2.74931898      -0.29283795       0.20315710      -0.17843519      -0.00179788      -0.00212558      -0.00638435
C        3.76181249       0.73470023       0.17374732      -0.03876317      -0.00403800      -0.00177840       0.00075638
H       -3.80747165      -2.21717171      -1.19010756       0.00712805       0.00315840      -0.00334466       0.00447555
H       -2.99809395      -0.90802321      -2.05776124       0.01026127      -0.00106671      -0.00012315      -0.00428428
H       -3.74827078      -0.58757317      -0.49817485       0.00992062       0.00640763      -0.00585037       0.00301582
H       -1.34046599      -2.42096848      -0.93501680       0.00747007       0.00238515       0.00454333      -0.00032917
H       -2.07124856      -2.07244419       0.61581077       0.00794533      -0.00489341      -0.00088847       0.00260215
H       -1.02128439       0.21443710      -1.07342943       0.01176225      -0.00489834      -0.00149233       0.00696420
H        0.58664899      -1.50597637       0.87139657       0.00232172      -0.00004602      -0.00037154       0.00040461
H        2.67220073      -0.75198959       1.09701017       0.09416825      -0.00368357       0.00049618       0.00371385
H        4.72189020       0.31044713       0.47698824       0.01228463      -0.00126068       0.00120991      -0.00102861
H        3.54774894       1.60669762       0.81180845       0.00653915       0.00391068      -0.00252642       0.00529653
H        3.84569645       1.10470418      -0.84490565       0.01343387       0.00226539       0.00233742       0.00303716
S       -2.00651951       0.78073460       1.13415951      -0.25305265       0.00211790      -0.00064703       0.00113962
C       -0.74083558       2.07266899       1.13286911      -0.10155924       0.00529244       0.00514838       0.00014178
H       -1.06511832       2.90641073       1.75413045       0.01247385      -0.00006707       0.00106254       0.00222754
H        0.19440783       1.67426577       1.51781904       0.02208867      -0.00142267       0.00240672       0.00395219
H       -0.54153778       2.42452155       0.12467251       0.01947212      -0.00271161       0.00238217      -0.00211524
