25
Properties=species:S:1:pos:R:3:charge:R:1:forces:R:3 energy=-24930.944973636702 pbc="F F F"
C        2.66400727      -2.31577220      -0.83404380      -0.05204057      -0.00295048      -0.00075304       0.00018506
C        1.54185052      -1.95828082       0.00133561      -0.21472554      -0.00036284       0.00549902       0.00572657
C        0.62370732      -0.99022339      -0.39699978       0.09070157       0.00089860       0.00410513      -0.00231540
O        0.58908453      -0.38244604      -1.49304401      -0.36070445       0.00149581       0.00421851      -0.00614630
N       -0.37402639      -0.67653576       0.59822925      -0.12705649       0.00146709       0.00320027       0.00568792
C       -1.47624044       0.12527324       0.52017592       0.04083038      -0.00105250       0.00183970       0.00276995
C       -2.26341163       0.30246172       1.67747962      -0.09016210      -0.00359208       0.00141275      -0.00008195
C       -3.39522670       1.09423807       1.66421077      -0.07143734      -0.00428071       0.00082141      -0.00064825
C       -3.79708780       1.74231552       0.49999209      -0.10522514       0.00034858       0.00165339      -0.00197133
C       -3.02570420       1.57516510      -0.64653743      -0.06832243      -0.00152626       0.00171518      -0.00136453
C       -1.88655437       0.78932957      -0.65493720      -0.07249033       0.00080290       0.00020468      -0.00028132
H        2.48852156      -2.04340673      -1.87044353       0.02016510       0.00591333      -0.00630473      -0.00451485
H        2.97098019      -3.35713407      -0.76932797       0.01364462       0.00166494       0.00027331       0.00112920
H        1.50864128      -2.35818459       1.01099182       0.00962649      -0.00219888      -0.00560734       0.00672487
H       -0.25171148      -1.14559876       1.47972044       0.11170842       0.00098116      -0.00341652       0.00492273
H       -1.96649978      -0.19333094       2.59564029       0.01682191       0.00222467      -0.00259461      -0.00266850
H       -3.97163978       1.20884476       2.57549729       0.01384760      -0.00100295      -0.00848684       0.00204935
H       -4.68599656       2.35969815       0.48869979       0.01487882       0.00427100       0.00356288      -0.00046187
H       -1.28368911       0.66226821      -1.53772941       0.01768214       0.00192643       0.00382981       0.00105715
H       -3.31649192       2.07208370      -1.56593642       0.01211734       0.00137207      -0.00285345      -0.00217442
S        4.36366582      -1.44631981      -0.42781177      -0.18585403       0.00326824      -0.00071399      -0.00567912
C        3.81559213       0.26411838      -0.70260027      -0.07992031      -0.00255787      -0.00277640      -0.00270275
H        3.53808197       0.42226294      -1.74248754       0.02150949      -0.00174664       0.00130952       0.00096805
H        2.94469536       0.47783302      -0.08791340       0.02669231       0.00201325      -0.00038428       0.00287146
H        4.63226585       0.93703584      -0.43760742       0.01771257      -0.00737712       0.00024507      -0.00308219
