23
Properties=species:S:1:pos:R:3:charge:R:1:forces:R:3 energy=-21836.720119734455 pbc="F F F"
N        1.63152310      -0.12083032      -0.68992913      -0.11735190      -0.00080458      -0.00047964      -0.00122242
C        1.68172118       0.58716185       0.46442238       0.15791517      -0.00161381       0.00245715      -0.00302634
O        2.72417564       1.01342007       0.95207439      -0.32184866       0.00201015       0.00328546       0.00733057
C        0.37786412       0.74152014       1.21740221      -0.01280206       0.00216393      -0.00087440      -0.00292314
C       -0.01458443      -0.55419792       1.98902739      -0.04153353      -0.00055329       0.00045183       0.00086402
C       -1.16832862      -0.79714957       0.99529025      -0.04481834       0.00023606      -0.00055251       0.00179693
C       -1.01700154       0.66076757       0.53279537      -0.00712541       0.00404490      -0.00002321      -0.00055576
S       -1.18779068       1.08012193      -1.23663358      -0.05128798      -0.00227452      -0.00473396       0.00106008
C       -2.76867334       0.24394908      -1.58303378      -0.06113847       0.00212284      -0.00072000      -0.00211836
C        2.79324825      -0.35750557      -1.51569685      -0.01414105      -0.00478363       0.00208536       0.00001737
H        0.72157950      -0.21456963      -1.12235754       0.10285579      -0.00360859       0.00036446      -0.00292881
H        0.49908641       1.62713173       1.83203049       0.03437227       0.00817950      -0.00499396       0.00057920
H        0.75535079      -1.31966197       2.03453435       0.03069604      -0.00093553      -0.00038700       0.00700651
H       -0.36180874      -0.33085173       2.99509322       0.02963751      -0.00777595      -0.00039515      -0.00068549
H       -2.13593180      -1.09496933       1.39509600       0.03332425      -0.00474934       0.00194908       0.00346890
H       -0.88548364      -1.50301056       0.21546211       0.02728192       0.00448541      -0.00266786       0.00061328
H       -1.69684206       1.30939803       1.08151023       0.03206415       0.00165125      -0.00102722      -0.00249694
H       -3.57027273       0.63583087      -0.96190030       0.03747103       0.00372624       0.00458730       0.00071839
H       -3.00860890       0.43479725      -2.62476451       0.04142272      -0.00250772      -0.00181986      -0.00418342
H       -2.67609462      -0.82717017      -1.43296134       0.03742672       0.00045082      -0.00033292       0.00189065
H        3.67362743      -0.03395131      -0.97132559       0.03621171       0.00200868      -0.00133372       0.00195454
H        2.89229216      -1.41705161      -1.75021712       0.03584683       0.00105484      -0.00085449      -0.00246368
H        2.73457543       0.19998191      -2.45121077       0.03552125      -0.00252721       0.00601503      -0.00469643
