26
Properties=species:S:1:pos:R:3:charge:R:1:forces:R:3 energy=-22906.657613674768 pbc="F F F"
N       -2.03676675       0.50527711       0.80699615      -0.11189991       0.00095228      -0.00454663       0.00124296
C       -1.43418128       0.80279861      -0.37740793       0.16222091       0.00558190       0.00500840       0.00430800
O       -1.84584405       1.67826204      -1.12616432      -0.31624657       0.00258829      -0.00235436      -0.00196566
C       -0.20803271      -0.03771692      -0.69310304      -0.01626414      -0.00695273      -0.00358404      -0.00406936
C       -0.42134369      -1.57236067      -0.68409920      -0.04259871       0.00085718      -0.00013201      -0.00097760
C        0.57074281      -2.13513209       0.34213014      -0.03433876      -0.00056408      -0.00053704       0.00281127
C        1.69910930      -1.11319495       0.37122053      -0.04163488       0.00134043       0.00202825       0.00130535
C        0.95308750       0.21286805       0.29705446      -0.00248737      -0.00768646      -0.00129704      -0.00210868
S        1.95774537       1.70281108      -0.00981922      -0.09316184       0.00297228       0.00835754      -0.00014522
C        2.65880523       1.35814821      -1.64960665      -0.06563235       0.00010746      -0.00065469       0.00063022
C       -3.13582028       1.26606213       1.34723010      -0.01454312      -0.00000030      -0.00127849      -0.00182945
H       -1.60392376      -0.18602615       1.39421420       0.12734225       0.00090775      -0.00024350      -0.00103460
H        0.08450424       0.27670963      -1.69004628       0.02814574       0.00078342       0.00251300      -0.00220754
H       -0.19627596      -1.96481248      -1.67508295       0.02967491       0.00017591       0.00034343       0.00127161
H       -1.45071076      -1.85375277      -0.46751455       0.02978841       0.00179067       0.00434595      -0.00028059
H        0.10677366      -2.20120881       1.32988613       0.02525870       0.00141712      -0.00101212       0.00527235
H        0.91202007      -3.13660530       0.08682739       0.02932967      -0.00192617      -0.00047569      -0.00582679
H        2.33366145      -1.23377961      -0.50670440       0.02471853       0.00009220      -0.00373353      -0.00207748
H        2.34480457      -1.17978783       1.24531808       0.03278310       0.00200611      -0.00403729       0.00337990
H        0.53310272       0.42680646       1.28026760       0.02759694       0.00281528      -0.00012310       0.00240924
H        3.27012073       2.21910456      -1.90342478       0.04090170      -0.00470193      -0.00158995      -0.00222480
H        1.88117620       1.25898860      -2.40101585       0.03689104       0.00220284       0.00034376      -0.00081003
H        3.29014633       0.47371239      -1.64775306       0.03552995      -0.00147862       0.00052789       0.00291470
H       -2.85026238       1.78021189       2.26643271       0.03537484      -0.00210673       0.00173638      -0.00253978
H       -3.99626694       0.62900082       1.55372128       0.03615981       0.00047217      -0.00056592       0.00039511
H       -3.42134046       2.00690669       0.60827912       0.03709117      -0.00164617       0.00096061       0.00215658
