21
Properties=species:S:1:pos:R:3:charge:R:1:forces:R:3 energy=-28884.717249272155 pbc="F F F"
C        2.85975001      -0.72580487       0.51980184      -0.04007589       0.00105627       0.00132922       0.00027888
N        1.59668239      -0.04969274       0.37529908      -0.20104516      -0.00098830      -0.00271099      -0.00000748
C        0.49101632      -0.77968605       0.34694994       0.13273914      -0.00108965       0.00073424      -0.00693116
O        0.39855926      -2.01969872       0.40941688      -0.34035757       0.00055469      -0.00591727       0.00790171
C       -0.76299076       0.12312257       0.17555992      -0.00930249       0.00122656       0.00098584      -0.00399776
C       -0.65389000       1.38307006       0.95326412      -0.09702711      -0.00352407       0.00027776      -0.00133173
C       -1.04002518       2.56110903       0.51469522       0.16403672       0.00335893       0.00547497       0.00144915
F       -0.94008489       3.70168519       1.21287210      -0.12177043       0.00316512       0.00300705       0.00314611
F        1.81630328       2.14450449      -0.57913731      -0.40632308      -0.00032021       0.00239785      -0.00267655
F       -1.58109827       2.81805782      -0.67846432      -0.11015519      -0.00575755       0.00201798       0.00161391
H        3.44693069      -0.67094911      -0.40502914       0.01109172       0.00118004      -0.00029169      -0.00306011
H        3.45348214      -0.23784364       1.29906277       0.01431714       0.00328103      -0.00032790       0.00140589
H        2.72338999      -1.77526324       0.78053226       0.02117066       0.00145426       0.00069802       0.00565677
H        1.67557289       1.15614979      -0.11894814       0.05658967       0.00164503      -0.00087262       0.00107958
H       -0.86270328       0.35072681      -0.88661294       0.02568489       0.00484522      -0.00508365      -0.00439950
H       -0.17057680       1.35427066       1.91640088       0.03113717      -0.00366342      -0.00204686       0.00267311
S       -2.34519925      -0.69285635       0.69057130      -0.12294231      -0.00274316      -0.00513558      -0.00457327
C       -2.49260903      -1.98017459      -0.58601235      -0.08097095      -0.00166157       0.00406402       0.00061568
H       -3.41909769      -2.52247471      -0.39211646       0.02189069       0.00770608      -0.00309011       0.00424380
H       -1.64444725      -2.65406915      -0.51927710       0.02739523      -0.00495495       0.00572793      -0.00427865
H       -2.54265656      -1.53918403      -1.58119524       0.02391714      -0.00477073      -0.00123821       0.00119148
