27
Properties=species:S:1:pos:R:3:charge:R:1:forces:R:3 energy=-24952.54218653 pbc="F F F"
O       -3.32103042      -0.81862744      -1.97244280      -0.23985030       0.00025309       0.00094806      -0.00214658
C       -2.50148367       0.08147614      -1.25401650       0.06853967      -0.00408717       0.00413171      -0.00064907
C       -1.25932995      -0.55669460      -0.62831043       0.00390321      -0.00195289       0.00203450      -0.00037562
N       -0.91380207       0.35399419       0.45534260      -0.07657818       0.00362787      -0.00059001      -0.00109729
C        0.22246314       0.36038687       1.19943922       0.16608623       0.00704102      -0.00050697      -0.00580483
O        0.38522623       1.17937105       2.09886564      -0.30658498       0.00103610      -0.00074210       0.00722328
C        1.23977195      -0.72987417       0.90275915      -0.04366538       0.00411806      -0.00157446       0.00252979
C        2.60204868      -0.44362810       1.49954712      -0.02754906       0.00370213       0.00070167      -0.00052897
S        3.58045603       0.82949391       0.62030870      -0.09352303       0.00093365       0.00173650       0.00012043
C        4.03729637      -0.10456237      -0.87198130      -0.06546567      -0.00167911       0.00079021       0.00114583
C       -1.97552866       1.33244562       0.71251088       0.01260269       0.00362277      -0.00262355      -0.00172384
C       -3.15509142       0.79136571      -0.07322176      -0.04847730      -0.00168028       0.00219340       0.00041250
H       -3.71785049      -1.42956850      -1.34015500       0.15477833       0.00057508      -0.00051073       0.00286847
H       -2.18711608       0.82047450      -1.99248335       0.02008428       0.00375267      -0.00114297      -0.00318648
H       -0.45334535      -0.66000374      -1.35325646       0.04081863       0.00484588       0.00124341       0.00200754
H       -1.50724685      -1.55967779      -0.25825690       0.03148045      -0.00425866      -0.00040717       0.00260908
H        1.32003020      -0.91543372      -0.16568724       0.03425375      -0.00038102      -0.00031869       0.00424313
H        0.85451204      -1.66061850       1.33422115       0.04367358      -0.00192520      -0.00215839      -0.00141836
H        2.48647519      -0.07425571       2.51341341       0.03982695      -0.00268535      -0.00112992      -0.00093667
H        3.19367450      -1.35615235       1.53552020       0.03578511      -0.00159268      -0.00185578      -0.00126098
H        4.54997606      -1.03010592      -0.61696111       0.03543252       0.00055979       0.00149736      -0.00241643
H        3.17653592      -0.32444924      -1.49891972       0.03591444      -0.00217239      -0.00311667       0.00321540
H        4.71965489       0.52313104      -1.43823959       0.04027332      -0.00460972       0.00176178      -0.00055455
H       -1.66545602       2.31916480       0.35912903       0.03276115      -0.00373318      -0.00139135       0.00180685
H       -2.15182589       1.41194754       1.78205487       0.03860195      -0.00037126       0.00469137      -0.00530463
H       -3.85482627       1.56200175      -0.38493966       0.03668707      -0.00607115      -0.00087203      -0.00150235
H       -3.70823719       0.06181497       0.52277778       0.03019057       0.00313245      -0.00278962       0.00072431
