26
Properties=species:S:1:pos:R:3:charge:R:1:forces:R:3 energy=-24966.503678208777 pbc="F F F"
C       -3.77352647       0.93433600       1.90847394      -0.16119944      -0.00290290      -0.00370244      -0.00042025
C       -2.97377774       1.86433454       1.25917857      -0.14548708      -0.00133013      -0.00325291       0.00066885
C       -1.81239640       1.46089375       0.62570082      -0.15095614      -0.00258770       0.00162701      -0.00594077
C       -1.43017449       0.11976566       0.63457853       0.13774395       0.00576802       0.00357738       0.00302373
N       -0.23692879      -0.20753143      -0.04166940      -0.32203540      -0.00139216      -0.00118194       0.00151141
C        0.47762966      -1.36887245       0.01223501       0.40969095      -0.00081213       0.00266909       0.00140134
O        0.15175857      -2.34102495       0.66037677      -0.44751751      -0.00031141       0.00140116       0.00119679
C        1.76809712      -1.34946906      -0.79804822      -0.14141499      -0.00467919      -0.00218392      -0.00025232
C        2.82054902      -0.38156348      -0.24640239      -0.11845137      -0.00089641      -0.00690389       0.00146328
S        2.65355009       1.34582366      -0.77063647      -0.17939779      -0.00017853       0.00041967       0.00899884
C        3.05971416       1.16072066      -2.51721651      -0.18253273      -0.00197819       0.00171734       0.00466136
C       -2.22930094      -0.81846455       1.28015411      -0.11631912       0.00470806       0.00112405      -0.00422001
C       -3.39206934      -0.39815746       1.91034145      -0.13960989       0.00412412      -0.00263118      -0.00391232
H       -4.68008564       1.24504420       2.40599189       0.13597998      -0.00285279       0.00397591      -0.00157198
H       -3.25505028       2.90760609       1.24667794       0.13508923       0.00195063      -0.00283579      -0.00005616
H       -1.19151095       2.19089286       0.12203589       0.12787017       0.00368064       0.00164764       0.00202998
H        0.20668133       0.56610232      -0.51794420       0.22623853       0.00208532      -0.00393097       0.00734789
H        1.54662801      -1.10896219      -1.83654645       0.06628494       0.00237248      -0.00151083      -0.00093245
H        2.16807367      -2.35667043      -0.75664611       0.09623168       0.00253824       0.00095684      -0.00411996
H        2.80165217      -0.38710244       0.84028496       0.11091087      -0.00409781       0.00043700       0.00125660
H        3.81176018      -0.70687737      -0.55285901       0.09415662       0.00329896      -0.00223815       0.00252457
H        3.15493520       2.15856264      -2.93575200       0.11918427      -0.00505899       0.00159625      -0.00482696
H        2.28316996       0.62538805      -3.05710949       0.08137932      -0.00312301       0.00271021      -0.00375353
H        4.00520088       0.63906727      -2.63514000       0.09316836       0.00197131       0.00078332      -0.00960388
H       -1.93520865      -1.85262202       1.28886932       0.13720295       0.00285828       0.00127903       0.00592493
H       -4.00433790      -1.13323524       2.41263279       0.13378966      -0.00315473       0.00444998      -0.00239854
