24
Properties=species:S:1:pos:R:3:charge:R:1:forces:R:3 energy=-16143.843957790416 pbc="F F F"
C       -4.48816316       0.21703044       0.84166493      -0.08411019       0.00257852      -0.00189925      -0.00485392
O       -3.85118246      -0.27425317      -0.32138777      -0.24062224       0.00180096      -0.00211990      -0.00260375
C       -2.48821331      -0.22169400      -0.35995520       0.14488710       0.00064110       0.00087685      -0.00156177
C       -1.89070500      -0.70815508      -1.51899483      -0.16615951      -0.00001931      -0.00274338       0.00425000
C       -0.51718254      -0.69493003      -1.64378667      -0.16389707      -0.00088932      -0.00223956      -0.00150249
C        0.29315261      -0.20056033      -0.62400590       0.08981990       0.00199468       0.00489465      -0.00430983
C       -0.30153466       0.28559019       0.53003189      -0.11780059      -0.00124036       0.00242564      -0.00156945
C       -1.68696640       0.27352750       0.65831102      -0.16702071      -0.00277039      -0.00288565       0.00214291
N        1.69335039      -0.22517443      -0.83580371      -0.35903731       0.00344365      -0.00295067       0.00068330
C        2.68399337       0.19503494       0.00377959       0.44559312       0.00360438       0.00190749      -0.00298528
O        2.48583172       0.67227725       1.10435137      -0.43706653      -0.00351674       0.00010380      -0.00029372
C        4.06551528       0.01998246      -0.54561224      -0.15183195      -0.00026916      -0.00365695       0.00271958
C        5.12217685       0.38334031       0.16546549      -0.27882549      -0.00244133       0.00557819      -0.00500690
H       -4.19417405      -0.34839626       1.72817172       0.07867702       0.00064597       0.00263224      -0.00398325
H       -4.27074062       1.27525543       0.99922587       0.07859262      -0.00550144      -0.00341504       0.00236595
H       -5.55378628       0.09287408       0.67860143       0.09774348       0.00253787       0.00374791       0.00267020
H       -2.52298168      -1.09157369      -2.30607277       0.13800727       0.00348139       0.00392632       0.00410888
H       -0.05857574      -1.07466733      -2.54918297       0.13046774      -0.00455428      -0.00234001      -0.00080911
H        0.31025808       0.67253172       1.32437363       0.13661553       0.00048213      -0.00265016       0.00187765
H       -2.11795245       0.65821008       1.56890587       0.13060765      -0.00032775       0.00329835       0.00562228
H        1.97729307      -0.60644686      -1.71925023       0.26934454      -0.00278385       0.00055023      -0.00362939
H        4.17661048      -0.40970650      -1.53424565       0.12125737      -0.00006339      -0.00034960       0.00227703
H        6.12808662       0.26382375      -0.21303902       0.14597026      -0.00096381       0.00249108       0.00595365
H        4.99306243       0.81285230       1.14908293       0.15878806       0.00413088      -0.00518224      -0.00156267
