27
Properties=species:S:1:pos:R:3:charge:R:1:forces:R:3 energy=-27478.523104580956 pbc="F F F"
C        4.60955384      -0.47521700      -0.41045084      -0.13981333      -0.00219259       0.00102611      -0.00429645
C        3.91333488      -0.41833118       0.79032824      -0.12841864       0.00188746       0.00294349      -0.00382099
C        2.53273093      -0.35596494       0.82908968      -0.09976862       0.00368943       0.00230080      -0.00332338
C        1.80886047      -0.34842583      -0.36337802       0.11308124       0.00282635      -0.00076912      -0.00042129
N        0.41745714      -0.28903823      -0.43465688      -0.33412114       0.00656741       0.00702757       0.00243108
C       -0.49549621      -0.22048760       0.59071591       0.41325158       0.00191696       0.00292609      -0.00300720
O       -0.19201509      -0.19787342       1.76000179      -0.41634819      -0.00618081      -0.00521803       0.00223918
C       -1.93006856      -0.18488405       0.10010483      -0.13246207       0.00195907      -0.00130234       0.00127613
C       -2.91063100      -0.19259774       1.25838899      -0.11731103      -0.00014083      -0.00351223       0.00080511
S       -4.63550742      -0.17461155       0.73304063      -0.20307727      -0.00250329       0.00079429      -0.00146546
C       -4.81129513       1.57319345       0.31187808      -0.20547383       0.00311410       0.00065030      -0.00403333
C        2.51514990      -0.40625105      -1.57750875       0.07419009      -0.00299023      -0.00289408      -0.00320927
C        1.78502580      -0.40130516      -2.81364166       0.24024777      -0.00032018       0.00255837       0.00389876
N        1.15850240      -0.39415184      -3.77775608      -0.40903193       0.00001652       0.00058192      -0.00268965
C        3.90636927      -0.46897683      -1.59710029      -0.13958992      -0.00254657      -0.00318517      -0.00332201
H        5.68730112      -0.52405561      -0.42025930       0.14224948      -0.00183533       0.00076053       0.00201804
H        4.45313861      -0.42156683       1.72584247       0.13771501      -0.00389991      -0.00289960       0.00273072
H        2.00099529      -0.31297247       1.76155741       0.13578747       0.00150887       0.00055656      -0.00261525
H        0.01306834      -0.30038106      -1.35608597       0.25184506       0.00364206       0.00160109       0.00512447
H       -2.09410735      -1.04300905      -0.55362533       0.07962108      -0.00152403      -0.00231155       0.00566233
H       -2.05395594       0.70255820      -0.52491563       0.07279082      -0.00310672      -0.00108116       0.00395086
H       -2.71324771       0.64540989       1.92166090       0.10200685      -0.00266818       0.00080180      -0.00401317
H       -2.77382794      -1.09673551       1.84389850       0.11650297      -0.00638925      -0.00162004       0.00521338
H       -4.19400753       1.85305483      -0.53779682       0.09023361       0.00272466      -0.00043427      -0.00472732
H       -5.85421256       1.72607801       0.04733014       0.12001760       0.00109524       0.00207455       0.00483261
H       -4.56556396       2.20307203       1.16335990       0.09734079       0.00388289      -0.00275138      -0.00279829
H        4.41840040      -0.51311599      -2.54654634       0.13853453       0.00146668       0.00137583       0.00356066
