20
Properties=species:S:1:pos:R:3:charge:R:1:forces:R:3 energy=-13025.46411308898 pbc="F F F"
C        3.40222933       0.25813328      -1.70290146      -0.27906141      -0.00007210       0.00172957       0.00090250
C        3.09066953       0.88337037      -0.57604959      -0.14937176       0.00116938       0.00053370       0.00297152
C        1.72731601       0.96270065       0.04794652       0.46562204      -0.00644882       0.00083405      -0.00493016
O        1.47687848       1.83621141       0.85268498      -0.45740324       0.00092239      -0.00326148      -0.00183504
N        0.84315181      -0.00437213      -0.35235507      -0.33184102      -0.00343477      -0.00503789      -0.00129117
C       -0.50575558      -0.16464019       0.02227397       0.11860932      -0.00174607      -0.00567583       0.00435077
C       -1.22405662       0.80072433       0.72077184      -0.12269364      -0.00145517      -0.00166192      -0.00067889
C       -2.55761437       0.56485968       1.02366795      -0.13725381       0.00137602       0.00169263       0.00494931
C       -3.18675182      -0.61117819       0.64746629      -0.15488876       0.00147754       0.00184949       0.00481027
C       -2.46577429      -1.57100882      -0.04721710      -0.13874796       0.00091897       0.00038391       0.00487881
H       -2.93710268      -2.49600356      -0.34723927       0.13734946       0.00076439       0.00229328      -0.00408986
C       -1.13600010      -1.34799546      -0.35824058      -0.16588561      -0.00064639      -0.00338461       0.00134957
H        2.66314325      -0.26116459      -2.29766092       0.13576283      -0.00198168       0.00264698      -0.00135272
H        4.40881482       0.26621681      -2.09456293       0.15113711       0.00442289       0.00142186       0.00563495
H        3.82710110       1.44946087      -0.02517059       0.12642863       0.00660489       0.00277807      -0.00183595
H        1.22838580      -0.76773962      -0.87626540       0.25520432       0.00018653      -0.00181662      -0.00522714
H       -0.73472632       1.71002466       1.02066012       0.14372610      -0.00137553      -0.00260801      -0.00368520
H       -3.10872526       1.31794590       1.56826601       0.13603252      -0.00289969       0.00480746      -0.00143071
H       -4.22503039      -0.78004572       0.89342056       0.13832337      -0.00069960       0.00153747      -0.00057628
H       -0.57505430      -2.09864493      -0.90125177       0.12895152       0.00291620       0.00093745      -0.00291502
