20
Properties=species:S:1:pos:R:3:charge:R:1:forces:R:3 energy=-13025.509254055416 pbc="F F F"
C        4.20689383       0.47569922      -0.22541707      -0.27688199       0.00186180       0.00197450       0.00296657
C        3.10484942      -0.25537684      -0.29212366      -0.15206580      -0.00087396       0.00165166       0.00237058
C        1.76596884       0.37111051      -0.06057116       0.44838205      -0.00585018       0.00135789       0.00423084
O        1.64282838       1.55268534       0.19075141      -0.43436170      -0.00543422       0.00342610      -0.00130669
N        0.71652270      -0.50395929      -0.15794314      -0.36163685      -0.00201562      -0.00508017       0.00155668
C       -0.66127232      -0.24408283      -0.00041022       0.12613247      -0.00016973      -0.00190653      -0.00046507
C       -1.53064848      -1.32312701      -0.15102960      -0.16808979      -0.00237823       0.00029081      -0.00447128
C       -2.89672657      -1.15193856      -0.01494124      -0.13868378      -0.00160396      -0.00454921       0.00753042
C       -3.41554328       0.10120523       0.27644999      -0.15794250       0.00474455      -0.00001765       0.00120885
H       -4.48134103       0.23971775       0.38568451       0.13756594       0.00163975      -0.00278270      -0.00352286
C       -2.54863479       1.17203816       0.42678800      -0.13591503       0.00571919       0.00171786      -0.00128411
C       -1.17643926       1.01482246       0.29152248      -0.12457581       0.00587394       0.00113774       0.00250757
H        5.18511236       0.04571449      -0.38865920       0.14662814       0.00373002      -0.00507850      -0.00214981
H        4.14404264       1.53106527      -0.00223051       0.15892634       0.00118266       0.00782097      -0.00046234
H        3.14961438      -1.31521098      -0.51361636       0.12178343      -0.00160317      -0.00174041      -0.00160392
H        0.93914159      -1.45978080      -0.36589167       0.26801300      -0.00322846      -0.00491712      -0.00354833
H       -1.13005667      -2.30356425      -0.37688104       0.13084020      -0.00090063       0.00254688      -0.00124590
H       -3.55681724      -1.99903545      -0.13514300       0.13594502      -0.00474763      -0.00581177      -0.00193586
H       -2.94055744       2.15310731       0.65408278       0.13517596       0.00269646       0.00353001       0.00034151
H       -0.50583827       1.84576509       0.40883291       0.14076073       0.00135755       0.00643014      -0.00071689
