28
Properties=species:S:1:pos:R:3:charge:R:1:forces:R:3 energy=-26021.091291259196 pbc="F F F"
C       -1.81930435       1.92813372      -1.00434282      -0.24561419       0.00068528      -0.00042799      -0.00122858
C       -1.64477878       0.44923535      -1.22814111      -0.31297374       0.00004871       0.00124435      -0.00644520
C       -2.78121985      -0.28738006      -1.81010762      -0.12972243      -0.00092902      -0.00097253      -0.00014644
C       -0.54214045      -0.27298223      -0.79186280       0.32163572      -0.00398853       0.00398751       0.00801542
O       -0.38173378      -1.51694517      -0.83031325      -0.51968729       0.00067924       0.00600342      -0.00091710
N        0.51327442       0.52752795      -0.21877016      -0.36082679       0.00337683      -0.00224136      -0.00647533
C        1.73639490       0.15192685       0.28178257       0.21858677      -0.00023900      -0.00271592      -0.00080742
C        2.56887526       1.14424597       0.83187413      -0.18274660      -0.00140642       0.00011672      -0.00067541
C        3.81093137       0.83338691       1.35306763      -0.18147680       0.00044841       0.00096399       0.00055418
C        4.27495885      -0.47474026       1.34478097      -0.21278359       0.00150425      -0.00020759      -0.00305627
C        3.45894022      -1.45913362       0.79880378      -0.16607513      -0.00225724      -0.00091549       0.00295550
C        2.21016309      -1.17113375       0.27373768      -0.13747208      -0.00196621      -0.00309101       0.00155210
H       -1.13706738       2.55863416      -1.59336116       0.05704533       0.00170600       0.00002955       0.00107757
H       -1.70601592       2.23588964       0.04612000       0.05956253       0.00044661       0.00521948      -0.00103922
H       -2.83295987       2.21294732      -1.28837092       0.06298376       0.00199373       0.00161108       0.00276547
H       -2.48751146      -1.30519101      -2.06363492       0.08036749       0.00243886       0.00305665      -0.00289752
H       -3.19840382       0.19525174      -2.69855379       0.06955768       0.00391403      -0.00003754       0.00221364
H        0.31000332       1.50825227      -0.18611701       0.23047973      -0.00144687      -0.00036049       0.00153059
H        2.22111717       2.17111002       0.84692592       0.10774747      -0.00049224       0.00227481      -0.00039968
H        4.42166698       1.62405156       1.77087439       0.11246484       0.00171669       0.00261156       0.00013677
H        5.24491329      -0.71999872       1.75329671       0.11813444       0.00313851      -0.00014640      -0.00306263
H        3.80272615      -2.48604045       0.78094396       0.11111067      -0.00343245       0.00093546       0.00153497
H        1.56874744      -1.92437187      -0.14781296       0.12499705      -0.00555995      -0.00232423       0.00472276
S       -4.28760998      -0.45851773      -0.71001643      -0.29809633      -0.00495044      -0.00099570      -0.00081466
C       -3.45488150      -1.25071173       0.67512561      -0.19131851       0.00481806      -0.00660635       0.00272778
H       -2.80889284      -2.04741647       0.31678746       0.08390397      -0.00205710       0.00073242       0.00516268
H       -4.21164200      -1.66044721       1.34289432       0.09454998       0.00029780      -0.00303758      -0.00051165
H       -2.84903378      -0.52738956       1.21131239       0.08566606       0.00151241      -0.00470625      -0.00647197
