26
Properties=species:S:1:pos:R:3:charge:R:1:forces:R:3 energy=-15166.715409644745 pbc="F F F"
C       -4.22931630       0.78847800      -0.68072943      -0.20780639       0.00117831      -0.00339981       0.00082547
C       -3.04321077      -0.07087596      -0.35354689       0.04733594       0.00050472      -0.00384026      -0.00063071
C       -1.81264618       0.44472442      -0.39940946      -0.18801823       0.00104788      -0.00347510      -0.00323037
C       -0.53314026      -0.26981787      -0.14889740       0.42375273       0.00387189       0.00160365       0.00161244
O       -0.42954193      -1.46499234       0.04787190      -0.42714804      -0.00486808       0.00265764       0.00635001
N        0.54626771       0.58358104      -0.16877092      -0.35879123       0.00441201       0.00629502      -0.00276175
C        1.90791852       0.30418722       0.05433537       0.13194790       0.00497562       0.00358926       0.00707047
C        2.78999477       1.38410227       0.02637009      -0.16407095       0.00431382       0.00115797       0.00292691
C        4.14266140       1.19643952       0.24646569      -0.14120516       0.00099761      -0.00056719       0.00688316
C        4.63631238      -0.07577993       0.49593142      -0.15935548       0.00017185      -0.00114826      -0.00191754
C        3.75900382      -1.14872980       0.51773482      -0.13654640       0.00140587      -0.00128171       0.00614630
C        2.40011646      -0.97506650       0.29919494      -0.12635228       0.00167587       0.00038277       0.00177957
C       -3.38280720      -1.48325522       0.00980339      -0.19742203      -0.00504209      -0.00564842      -0.00017618
H       -4.90112580       0.84354571       0.17611110       0.07773925       0.00157518      -0.00011065      -0.00042045
H       -4.80037685       0.34567090      -1.49686590       0.07708883       0.00196760       0.00151863      -0.00191765
H       -3.94433556       1.79808085      -0.96438380       0.07255545      -0.00472973      -0.00227956       0.00479742
H       -1.71529982       1.49526780      -0.64632444       0.10348023       0.00585897      -0.00362981      -0.00506575
H        0.33960227       1.55022866      -0.33364804       0.26018798      -0.00465025       0.00724254      -0.00057408
H        2.40761707       2.37859196      -0.16715686       0.12735212      -0.00253643      -0.00294917       0.00068480
H        4.81125724       2.04562454       0.22599337       0.13435280      -0.00150341      -0.00312690      -0.00576696
H        5.69142932      -0.22699294       0.67206993       0.13581453      -0.00176709      -0.00037091      -0.00661112
H        4.13259614      -2.14419663       0.71116855       0.13324872       0.00088647      -0.00276386      -0.00401246
H        1.72031963      -1.80746947       0.31818540       0.13689424      -0.00451656       0.00506266      -0.00068031
H       -3.81562028      -1.98033950      -0.86034260       0.07961345      -0.00675810      -0.00231496      -0.00475236
H       -2.52718609      -2.04898578       0.35059181       0.08716591       0.00637053       0.00585812      -0.00448152
H       -4.15545584      -1.47873076       0.78027755       0.07818611      -0.00484217       0.00153833       0.00392224
