54
Properties=species:S:1:pos:R:3:charge:R:1:forces:R:3 energy=-51578.03428080206 pbc="F F F"
F       -5.17666682       1.29655533      -2.65752161      -0.10245197      -0.00159096       0.00120802       0.00266477
C       -5.45186417       2.14072882      -1.66451093       0.13057488      -0.00026018      -0.00299340       0.00591011
C       -6.56148759       2.96908653      -1.75502157      -0.01873545       0.00216004       0.00072787       0.00133624
C       -6.84857665       3.84778475      -0.72531596      -0.13092662      -0.00078564       0.00099792       0.00140870
C       -6.01898617       3.89618541       0.38259659      -0.13895909       0.00053886      -0.00237719       0.00112828
C       -4.90824971       3.07169897       0.47018759      -0.15150712       0.00080503      -0.00149995      -0.00026088
C       -4.62107788       2.18213052      -0.55217111       0.13169187       0.00543898      -0.00198141       0.00186162
N       -3.49349408       1.32997152      -0.50604783      -0.36848927       0.00159344      -0.00240326      -0.00326054
C       -3.62839675      -0.01787988      -0.27093122       0.31517980      -0.00177079      -0.00161378      -0.00372716
N       -4.83031159      -0.51203307      -0.10098833      -0.35443580       0.00083633      -0.00253057       0.00408484
C       -4.89756270      -1.83301046       0.19348022       0.23155011      -0.00012104      -0.00291828      -0.00080357
N       -3.92091672      -2.68500707       0.32216142      -0.42513728       0.00339917       0.00373530       0.00487645
C       -2.66422337      -2.18493707       0.10794750       0.19668816      -0.00168326       0.00340401      -0.00763089
C       -2.45729709      -0.83893398      -0.21595282       0.01750683      -0.00211283       0.00397558      -0.00304889
C       -1.14407937      -0.38509972      -0.48760774      -0.18884161       0.00075277       0.00384717       0.00521814
C       -0.07793742      -1.23049292      -0.38232065       0.11395129      -0.00350594      -0.00273591      -0.00481037
C       -0.28591258      -2.60006970      -0.03025147       0.13011900      -0.00335712      -0.00294374       0.00528695
C       -1.55651854      -3.05501629       0.20706944      -0.20829035      -0.00610081      -0.00134458      -0.00470619
O        0.83033702      -3.35536016       0.03469563      -0.22279581      -0.00410865      -0.00346245      -0.00421297
C        0.66802879      -4.75077319       0.25700123      -0.06860701       0.00049582      -0.00037975       0.00024982
O        1.17802267      -0.80478569      -0.70432641      -0.23371832       0.00097176      -0.00255629      -0.00039305
C        2.14906606      -0.76713454       0.36053404       0.03770996       0.00493112      -0.00174169       0.00015265
C        3.42861582      -1.40916929      -0.15773611      -0.13614987       0.00312186      -0.00348257      -0.00102652
C        4.28051675      -0.38654513      -0.89460657      -0.06531323      -0.00241572      -0.00018561      -0.00131595
N        4.72473621       0.62296340       0.05886124      -0.20705138      -0.00481362      -0.00129712      -0.00592387
C        3.83469393       0.90414167       1.18132743      -0.06656304       0.00226551       0.00025904      -0.00130570
C        2.39100601       0.68559005       0.75789611      -0.12918763       0.00380482       0.00137362       0.00118208
C        5.93156573       1.25389011       0.02807803       0.42350677      -0.00275034      -0.00270169       0.00218733
O        6.31993879       1.93250971       0.96568236      -0.47845420       0.00356955       0.00214318      -0.00549059
C        6.75414747       1.08738758      -1.20757012      -0.15310277      -0.00470591      -0.00538152       0.00535049
C        8.02248785       1.47086263      -1.20984677      -0.28543463      -0.00395781       0.00523259      -0.00114945
Cl      -7.57316901       2.89435032      -3.15283920      -0.04566198      -0.00388150      -0.00013642       0.00045811
H       -7.71864869       4.48187957      -0.80527146       0.13916542      -0.00213069       0.00158515      -0.00012658
H       -6.24314473       4.57847273       1.18776334       0.14100428       0.00229989       0.00105021      -0.00108555
H       -4.26826058       3.11091542       1.34254277       0.13352826      -0.00267172      -0.00192610      -0.00406616
H       -2.64165933       1.73281615      -0.16215300       0.26491177       0.00128974       0.00488407      -0.00774581
H       -5.90027671      -2.21568673       0.33869820       0.05770116      -0.00129238       0.00131410      -0.00220045
H       -0.96029652       0.62190878      -0.83284908       0.12161911       0.00247583       0.00253651       0.00047576
H       -1.76755956      -4.08049601       0.46265945       0.12970151       0.00340998      -0.00116769       0.00174163
H        0.21762764      -4.94580186       1.23052161       0.08129760       0.00211756       0.00403889      -0.00020940
H        0.06182364      -5.20686260      -0.52619827       0.08109435      -0.00312727       0.00055625       0.00522089
H        1.66723116      -5.17180091       0.23174286       0.09072026       0.00148825      -0.00287141       0.00050283
H        1.76200865      -1.34282069       1.19783746       0.08626579       0.00127103       0.00199303       0.00255683
H        3.16781717      -2.23264626      -0.81561411       0.08247527       0.00369406       0.00262616       0.00203918
H        4.01439739      -1.80624223       0.67373764       0.08950383      -0.00388186       0.00254072      -0.00058496
H        5.14293895      -0.87050691      -1.34186569       0.09448381       0.00265478       0.00264334       0.00096236
H        3.68832731       0.05998297      -1.69927712       0.08074369       0.00242095       0.00211610       0.00286517
H        4.00874762       1.92686793       1.49373541       0.10511183       0.00349702      -0.00108791       0.00207438
H        4.08637401       0.26684821       2.03420955       0.08347859      -0.00692848      -0.00377617      -0.00276945
H        2.19096404       1.32281247      -0.10490501       0.08654466      -0.00010914       0.00205399       0.00263812
H        1.70698839       0.98775745       1.54949297       0.07528517      -0.00199833      -0.00189563       0.00157284
H        6.29836333       0.67894131      -2.09681950       0.11633018       0.00399011       0.00108287       0.00215576
H        8.64760870       1.37003889      -2.08641640       0.14820285       0.00543577      -0.00201171      -0.00097980
H        8.44899805       1.90981584      -0.31945454       0.16216640      -0.00066763       0.00347722       0.00067374
