60
Properties=species:S:1:pos:R:3:charge:R:1:forces:R:3 energy=-63519.182900100706 pbc="F F F"
C        5.90816184      -0.47589691      -1.83530282       0.23050356      -0.00084243      -0.00947213       0.00213302
N        5.80393705      -0.06787003      -0.55117674      -0.38091761      -0.00317738       0.00626147      -0.00369404
C        4.60366633      -0.07184486      -0.02086504       0.32848001      -0.00038585      -0.00320218       0.00038385
N        4.40905426       0.37121644       1.26283319      -0.31417507       0.00263968       0.00320407      -0.00218768
C        5.34037574       0.68572523       2.25875719       0.11531907       0.00194323       0.00278662      -0.00170918
C        6.71751006       0.53627555       2.14697123      -0.11512983       0.00186954      -0.00059444       0.00131872
C        7.53128307       0.86113675       3.22469051      -0.13710548       0.00113051       0.00038953       0.00151536
C        7.00706883       1.33338023       4.41476723      -0.13784908      -0.00104111      -0.00411582       0.00080528
C        5.63399674       1.48659097       4.53025012      -0.01084725      -0.00026219      -0.00439465      -0.00250612
Cl       4.92393195       2.06797052       5.99497049      -0.04987155       0.00296314       0.00427647      -0.00515406
C        4.82235676       1.16572872       3.46161017       0.09113219      -0.00233259      -0.00401605      -0.00140165
F        3.48624316       1.31141771       3.57363984      -0.12580493      -0.00096277       0.00303965       0.00296518
C        3.46098078      -0.52920362      -0.76009417       0.02170386      -0.00122036      -0.00000419      -0.00021021
C        2.13735782      -0.60669076      -0.25993504      -0.18408523      -0.00238444      -0.00179110      -0.00232259
C        1.11386284      -1.05130551      -1.04612967       0.11737435      -0.00167600       0.00006674      -0.00133991
O       -0.14395428      -1.16103483      -0.53635345      -0.23177230       0.00041025      -0.00228024       0.00073693
C       -1.14298477      -0.30237575      -1.11644817       0.04601524       0.00255826      -0.00218358       0.00358683
C       -2.36167576      -1.17233786      -1.37905808      -0.12374931       0.00291638       0.00041746      -0.00144920
C       -3.63567282      -0.34788189      -1.35703681      -0.05358734      -0.00031929      -0.00183942      -0.00219928
N       -3.82390468       0.23546277      -0.02935473      -0.20837599      -0.00081869       0.00004086      -0.00162375
C       -5.00835626       0.77070693       0.38551856       0.38867566      -0.00119860      -0.00523676      -0.00021279
O       -5.10792208       1.36904025       1.44324279      -0.44396368      -0.00391809       0.00014608       0.00085885
C       -6.18607138       0.58886655      -0.55879437      -0.14026541      -0.00073439       0.00238395       0.00429216
C       -7.48874031       1.20069346      -0.05222579      -0.11192537      -0.00297310      -0.00149002       0.00146353
S       -8.63790421       0.01937088       0.70277767      -0.21481749      -0.00228297      -0.00123843       0.00128841
C       -7.72596350      -0.34778322       2.21894430      -0.20200245       0.00134445       0.00167213       0.00171493
C       -2.61934273       0.43174842       0.76419215      -0.05488137      -0.00496128      -0.00068873       0.00236179
C       -1.46812419       0.83141630      -0.15201448      -0.13265087      -0.00088103       0.00208892       0.00312272
C        1.37182798      -1.48194675      -2.38254725       0.13744351       0.00481336      -0.00221271       0.00131909
O        0.29849151      -1.93384834      -3.06173965      -0.22319479       0.00204783       0.00106086       0.00249728
C        0.52279673      -2.50291093      -4.34441726      -0.06715459       0.00217710       0.00247487      -0.00149242
C        2.64621828      -1.41295514      -2.87781255      -0.20613119       0.00597229      -0.00130003       0.00352509
C        3.70864004      -0.93761902      -2.07821367       0.20862339       0.00518879      -0.00112281       0.00082180
N        4.96513157      -0.89786192      -2.62368747      -0.42872855       0.00194054      -0.00591504      -0.00385079
H        6.90941114      -0.44428187      -2.24517029       0.05832040      -0.00503765       0.00138307       0.00285850
H        3.45790448       0.51413277       1.53895940       0.25335777       0.00248067      -0.00179351       0.00398199
H        7.11698050       0.17440051       1.21656716       0.11827154       0.00009295       0.00167302      -0.00055179
H        8.59897972       0.73944883       3.12358576       0.13631636       0.00088444       0.00211777       0.00619425
H        7.63514757       1.58300068       5.25491639       0.13745610       0.00082638       0.00529194      -0.00381099
H        1.89038752      -0.34529414       0.75758172       0.12030286       0.00006548      -0.00346037       0.00074569
H       -0.75760071       0.09846944      -2.05087896       0.08427719      -0.00352107      -0.00144236       0.00142666
H       -2.42390926      -1.93825788      -0.60585700       0.09367356       0.00235807       0.00330038      -0.00389184
H       -2.25023846      -1.67669846      -2.33492355       0.07447039      -0.00345524       0.00137834      -0.00000914
H       -4.48781330      -0.96953828      -1.61180000       0.07990823      -0.00481031      -0.00127321      -0.00619678
H       -3.56784683       0.43865666      -2.11782273       0.07163562      -0.00315596       0.00056128      -0.00241087
H       -6.32257618      -0.47443208      -0.75325492       0.07282575      -0.00065385       0.00357191       0.00107163
H       -5.89899682       1.03735240      -1.51216399       0.07612698       0.00062205      -0.00068779       0.00164863
H       -7.27861733       1.99912444       0.65515737       0.10260297       0.00051134      -0.00042990       0.00117242
H       -8.04108493       1.62548469      -0.88733412       0.10581221      -0.00151826       0.00080890      -0.00138965
H       -8.37459543      -0.95589461       2.84381435       0.12153617       0.00492316       0.00059975       0.00087853
H       -6.81772205      -0.89848061       1.99251608       0.08599262      -0.00306694       0.00281641      -0.00679180
H       -7.46262167       0.56733946       2.74073542       0.10011641       0.00263232       0.00052840       0.00184706
H       -2.82486954       1.18122615       1.51577663       0.10282546      -0.00180815       0.00061450       0.00263868
H       -2.36035639      -0.49542095       1.27425281       0.08060351       0.00062368       0.00037377       0.00001305
H       -0.58892497       1.07806957       0.43868557       0.07508929       0.00502622      -0.00262297       0.00277274
H       -1.75750144       1.72527528      -0.70756192       0.08436124      -0.00716981       0.00351993      -0.00327763
H        0.91079481      -1.76050612      -5.04176846       0.08003946      -0.00191401       0.00759466      -0.00527539
H        1.21072635      -3.34672497      -4.28713389       0.07997525       0.00516314      -0.00138018      -0.00194335
H       -0.44560369      -2.84916192      -4.68911614       0.09013453      -0.00059222       0.00119009      -0.00007004
H        2.89749142      -1.71877368      -3.87993863       0.12768403       0.00295026      -0.00144374       0.00301279
