28
Properties=species:S:1:pos:R:3:charge:R:1:forces:R:3 energy=-23977.83516018069 pbc="F F F"
C       -3.34157113      -0.06166142       0.49279558      -0.13987657       0.00428454      -0.00537421       0.00487980
C       -2.31897085      -0.62411080       1.49364752      -0.13575755       0.00833023       0.00264564       0.00301155
C       -0.94533560      -0.00635569       1.27591807      -0.04922888       0.00036423       0.00509336      -0.00198732
N       -0.42428989      -0.38549299      -0.02369348      -0.24811174      -0.00390705      -0.00900282       0.00064938
C       -1.43014006      -0.59487647      -1.05103672      -0.06552254      -0.00526468       0.00040399      -0.00183405
C       -2.65502180       0.29078652      -0.83502279      -0.14769879      -0.00122779       0.00022584       0.00138075
C        0.81615904       0.21954859      -0.45451024       0.29277229      -0.00541483       0.00118336      -0.00308760
O        1.14413729      -0.01996094      -1.64667328      -0.55142653       0.00055356       0.00269105       0.00026813
C        1.55797658       0.97954461       0.45144213      -0.45247477      -0.00267659       0.00077431      -0.00260785
C        2.87281131       1.50215443       0.05475116      -0.11016336       0.00358588       0.00088641      -0.00030408
H       -3.82359240       0.82712135       0.90321740       0.05276923       0.00072274      -0.00590661      -0.00085667
H       -2.64902585      -0.44428722       2.51666888       0.04757653      -0.00181009      -0.00324837      -0.00225724
H       -2.22314626      -1.70403658       1.36337430       0.06913712      -0.00434281       0.00469393       0.00101621
H       -1.01119611       1.08670650       1.37906512       0.06054686      -0.00140109       0.00558653       0.00069588
H       -0.25874845      -0.35164744       2.05027471       0.05153928      -0.00413644      -0.00206233      -0.00597793
H       -1.75905321      -1.64319543      -1.06095162       0.05304733      -0.00164607       0.00224323       0.00440750
H       -0.94978103      -0.39780406      -2.00165774       0.08228885       0.00205723      -0.00088550       0.00180241
H       -3.35139576       0.19163004      -1.66940508       0.05035031       0.00387485      -0.00166992      -0.00383846
H       -2.31924696       1.32869968      -0.81520508       0.07919446       0.00441550      -0.00085253       0.00107758
H        1.30502235       1.04993310       1.49738402       0.10939253       0.00121700      -0.00537927       0.00097255
H        2.97858187       1.49489225      -1.03326258       0.08355267       0.00063143       0.00009523      -0.00122776
H        3.07149308       2.51384941       0.41443158       0.06698371       0.00378253       0.00421636       0.00158309
H       -4.12840421      -0.80102360       0.33290528       0.05365773      -0.00602702       0.00366726       0.00007825
S        4.35349774       0.55174715       0.69541195      -0.32462755      -0.00278176      -0.00466412      -0.00046560
C        3.93913276      -1.02042168      -0.08021281      -0.20276667       0.00088357       0.00204414       0.00223831
H        3.00566022      -1.38483851       0.33873240       0.10076488       0.00528118       0.00237685      -0.00301132
H        3.79941173      -0.88784443      -1.15048810       0.08493721       0.00151948      -0.00001670       0.00703908
H        4.74456329      -1.73086178       0.10541837       0.08914403      -0.00086746       0.00023449      -0.00364419
