65
Properties=species:S:1:pos:R:3:charge:R:1:forces:R:3 energy=-44141.94613661806 pbc="F F F"
N       -3.95734470      -1.44758271       1.18316441      -0.18781145       0.00071430       0.00052170      -0.00138904
C       -2.60613891      -1.66700051       1.70910703      -0.03254889       0.00032672       0.00294422      -0.00336359
C       -2.38471335      -3.17441041       1.55085548      -0.14926097      -0.00130237       0.00093533       0.00105551
C       -3.78728749      -3.75161733       1.32170605      -0.14864576      -0.00373953       0.00038651      -0.00279530
C       -4.49656912      -2.64767794       0.54905403      -0.07186460       0.00125493       0.00285801      -0.00189810
C       -1.64613769      -0.82444535       0.85206446       0.37361279       0.00662328      -0.00013739      -0.00246855
O       -1.16621054      -1.26496905      -0.17168305      -0.38915998       0.00217768       0.00331050      -0.00730969
N       -1.47063048       0.45311475       1.29335126      -0.30783072      -0.00214570       0.00179954      -0.00374346
C       -0.72969944       1.45730868       0.64025039       0.03024045      -0.00188915       0.00092671       0.00034701
C       -1.09900067       2.80726291       0.91479466       0.14778911      -0.00049225       0.00053519       0.00162344
C       -0.41688657       3.83881288       0.33447102      -0.21087024       0.00026433       0.00065048       0.00226792
C        0.69293440       3.59330563      -0.50596235       0.20497322       0.00132431       0.00201721       0.00132203
N        1.29303012       4.66101999      -1.10399529      -0.40822229       0.00155222      -0.00075207      -0.00143608
C        2.29658347       4.39581533      -1.89680731       0.03457060       0.00341569       0.00063430      -0.00046528
C        2.85619506       3.12538836      -2.13675487      -0.03833793      -0.00287679      -0.00370840      -0.00595216
C        2.29208763       2.02759834      -1.47376735       0.11257561      -0.00061943      -0.00162822       0.00225978
C        1.10857661       2.26302259      -0.69890817       0.01348166      -0.00218566      -0.00103940      -0.00116018
C        0.30860197       1.20986533      -0.20148318      -0.11790077       0.00100897      -0.00133735       0.00277110
N        2.84061265       0.79100570      -1.60923602      -0.28058916       0.00169946      -0.00066531      -0.00057254
C        2.91044213      -0.25500886      -0.67621399       0.08547568       0.00074200      -0.00210945       0.00102972
C        3.10334568      -1.53443245      -1.18675025      -0.16408773      -0.00180131      -0.00044529      -0.00050282
C        3.22429166      -2.63089189      -0.34453787       0.02943957       0.00324980      -0.00058892      -0.00057629
C        3.15900659      -2.43119272       1.03050258      -0.16892351      -0.00285301       0.00087601      -0.00044992
C        2.98857110      -1.15375369       1.54189235      -0.15559600      -0.00559039      -0.00034287      -0.00039444
C        2.86177806      -0.06031452       0.70120991      -0.11706300       0.00273536       0.00015220      -0.00036927
C        3.44755053      -4.00590309      -0.91395256      -0.13096951      -0.00004185       0.00153411      -0.00185886
C        4.93415340      -4.32549431      -1.06578277      -0.22471699      -0.00191774      -0.00178660       0.00074672
C        4.00889892       2.93783215      -3.04806260       0.42185870       0.00347504      -0.00070458      -0.00051535
O        4.30848728       1.85284490      -3.54010204      -0.47089005       0.00199495       0.00024069       0.00072113
N        4.73612092       4.04767262      -3.35422424      -0.63381076       0.00363798       0.00146610       0.00067622
O       -2.14152245       2.94137569       1.76166905      -0.20734850      -0.00297430       0.00131484      -0.00053704
C       -2.67332822       4.23907378       1.96922227      -0.07820356      -0.00400567       0.00006231      -0.00070594
C       -4.64518209      -0.34636223       1.55724286       0.43068123      -0.00146372      -0.00279074      -0.00149307
O       -4.20940674       0.43786652       2.39624024      -0.46329197      -0.00275624      -0.00298238      -0.00046872
C       -5.96442236      -0.11408734       0.90721924      -0.14959797       0.00288057       0.00442260      -0.00089251
C       -6.17581492      -0.24147317      -0.39266680      -0.27803755       0.00032748      -0.00260336      -0.00017983
H       -2.56842217      -1.32683250       2.74159024       0.11001840       0.00352701      -0.00456728      -0.00101105
H       -1.75095290      -3.34538589       0.68531824       0.09798200       0.00158751       0.00082229       0.00374107
H       -1.89114115      -3.60050034       2.42025629       0.08060587      -0.00131994      -0.00123145       0.00321781
H       -3.77850217      -4.68968706       0.77358011       0.08568474      -0.00026670      -0.00393878       0.00266153
H       -4.28879515      -3.91014335       2.27563154       0.09001518       0.00211569       0.00303607       0.00123758
H       -4.21206971      -2.67136071      -0.50408116       0.09105636      -0.00072630      -0.00565006      -0.00001683
H       -5.57774402      -2.67651463       0.62004524       0.09040248       0.00317134      -0.00010871       0.00248343
H       -2.12676252       0.77835704       1.99072980       0.24752951      -0.00223999      -0.00220423      -0.00062098
H       -0.69906233       4.86757067       0.48468684       0.12843581      -0.00317916      -0.00040591       0.00302757
H        2.69978057       5.25126975      -2.42371998       0.08947197       0.00206984       0.00047490      -0.00131653
H        0.50415875       0.18902459      -0.48610920       0.12996794      -0.00373980      -0.00189847       0.00031305
H        3.46873869       0.72960778      -2.40923214       0.26122689      -0.00051128       0.00243743      -0.00079751
H        3.13818862      -1.66146830      -2.26146030       0.13323656      -0.00250920       0.00383336       0.00067641
H        3.23669636      -3.27958668       1.69540138       0.13179499      -0.00322838       0.00017904      -0.00079609
H        2.94618542      -0.99592657       2.60968040       0.13829930      -0.00105892      -0.00295341       0.00296914
H        2.72350215       0.92988812       1.10564968       0.11292377      -0.00026826      -0.00075752       0.00535746
H        2.97398900      -4.74034719      -0.26433705       0.08032238       0.00353400       0.00364979       0.00131759
H        2.95436246      -4.07622708      -1.88242111       0.07766109       0.00076505       0.00110737      -0.00238566
H        5.43816636      -4.27245461      -0.10097323       0.07473359      -0.00376130       0.00198350       0.00174238
H        5.08950962      -5.32140733      -1.47823236       0.07491641       0.00128791       0.00027230      -0.00087808
H        5.41163448      -3.60332238      -1.72675536       0.07343710      -0.00152189      -0.00074131       0.00338229
H        4.68947395       4.85620171      -2.76491797       0.29244572       0.00405537       0.00590461      -0.00105961
H        5.57030005       3.90546713      -3.89290837       0.34202614      -0.00122945      -0.00514553      -0.00821622
H       -3.52566774       4.10314666       2.62544710       0.09636085       0.00225691       0.00081399       0.00747143
H       -3.00514042       4.68184357       1.02949873       0.08004067       0.00225115       0.00298563      -0.00083423
H       -1.94394268       4.89437640       2.44698058       0.08148348      -0.00594317      -0.00190658       0.00122728
H       -6.72007400       0.27140176       1.57605892       0.12676778       0.00484424      -0.00046440       0.00516638
H       -5.41639873      -0.64163257      -1.04821903       0.13340037       0.00112949      -0.00045377      -0.00407971
H       -7.10894938       0.06573340      -0.83937001       0.14863381      -0.00184237       0.00095843       0.00269628
