27
Properties=species:S:1:pos:R:3:charge:R:1:forces:R:3 energy=-24414.361647020054 pbc="F F F"
N       -2.75356744       0.33855655      -2.14491308      -0.57127041       0.00019491       0.00814777       0.00053177
C       -1.48512756      -0.29688642      -2.52324633      -0.02180337      -0.00036137      -0.00090910       0.00018284
C       -0.32823215       0.10328661      -1.62165342      -0.05216105       0.00357554       0.00132908       0.00187859
N       -0.59257270      -0.36084309      -0.27430758      -0.25247344       0.00043152      -0.00415631       0.00188208
C       -2.00457533      -0.45222931       0.05217052      -0.06219455      -0.00171736      -0.00431725       0.00122071
C       -2.81363709       0.59498035      -0.69386474      -0.03283738       0.00121163      -0.00209982       0.00182417
C        0.28811687       0.08615913       0.78246545       0.30036578      -0.00244901       0.00362137      -0.00057199
O       -0.09010830      -0.19551774       1.94833881      -0.55211800      -0.00141711       0.00624893       0.00274855
C        1.46549112       0.75396309       0.44377383      -0.43715566      -0.00038578      -0.00116841      -0.00181420
C        2.41656041       1.13387988       1.49856690      -0.10834235      -0.00079487      -0.00238731      -0.00392069
H       -1.59952070      -1.38026550      -2.45240595       0.06674030       0.00171756      -0.00608610      -0.00246339
H       -1.25672501      -0.05484692      -3.56070759       0.05246862       0.00035484       0.00352898      -0.00084065
H       -0.19223731       1.19364358      -1.65703430       0.05940225       0.00169647       0.00543959       0.00036069
H        0.59014994      -0.35002234      -1.99774597       0.05255899       0.00463468       0.00139852      -0.00195194
H       -2.09427259      -0.33739253       1.12480135       0.08219857      -0.00172135       0.00250321       0.00163815
H       -2.40393430      -1.43638321      -0.21749893       0.05998328      -0.00513700      -0.00535780       0.00170160
H       -3.85589149       0.57746419      -0.37007677       0.05555536       0.00347839      -0.00551955       0.00030059
H       -2.39972494       1.57582848      -0.43603057       0.06929811      -0.00370540      -0.00113813      -0.00175862
H        1.80924068       0.83236494      -0.57553583       0.10947794      -0.00329432       0.00152679       0.00063061
H        1.93073822       1.12485530       2.47800894       0.08325168       0.00023778       0.00466209      -0.00287078
H        2.87063534       2.11578862       1.34925018       0.06684695      -0.00008425      -0.00317730      -0.00285442
H       -2.85152979       1.21498866      -2.63556123       0.28437513      -0.00053667       0.00617235      -0.00163243
S        3.90990243       0.02236759       1.68595058      -0.32346633      -0.00181117      -0.00017494      -0.00195084
C        3.00025568      -1.48487958       2.06928730      -0.20330589      -0.00400692       0.00126922       0.00017058
H        2.38166001      -1.74852975       1.21624430       0.10078020       0.00449814      -0.00594916      -0.00080574
H        3.70974164      -2.28225092       2.28876052       0.08929127       0.00381573      -0.00322189       0.00179917
H        2.34511692      -1.32466205       2.92201774       0.08453410       0.00157518      -0.00018499       0.00656609
