46
Properties=species:S:1:pos:R:3:charge:R:1:forces:R:3 energy=-37888.17061237223 pbc="F F F"
C        3.49318087       0.50801142       0.62704252       0.07192922       0.00036513      -0.00040896      -0.00229181
N        2.20778009       0.71823890       0.84940939      -0.37985188       0.00076980       0.00157135      -0.00060721
C        1.35057221       0.16463240      -0.02326268       0.41801092      -0.00209910       0.00429210      -0.00111001
N        0.02433091       0.38287609       0.18118736      -0.18094693      -0.00332614      -0.00177144      -0.00310851
C       -0.44707913       1.09836657       1.35286140      -0.05856777       0.00374401       0.00222721      -0.00491433
C       -1.80703013       1.70422419       1.04597785      -0.04296998       0.00415599       0.00050426       0.00015655
N       -2.75986250       0.64761933       0.74039638      -0.19900888       0.00009702       0.00165520      -0.00201855
C       -4.02878073       0.71663028       1.23484043       0.40903506      -0.00045645      -0.00442298      -0.00643551
O       -4.40475388       1.65402872       1.91118468      -0.45354572      -0.00014131      -0.00818327      -0.00422964
C       -4.94241203      -0.46124418       0.92696657      -0.12358294      -0.00612165      -0.00091861       0.00131647
C       -6.36332256      -0.25144167       1.42707032      -0.11737127      -0.00577418      -0.00151408       0.00018098
S       -7.41164432       0.72817576       0.31340744      -0.19071729       0.00403164       0.00228309       0.00080821
C       -7.81180182      -0.54537155      -0.90461144      -0.19680606       0.00178233       0.00247955       0.00175944
C       -2.21532737      -0.52169595       0.06426226      -0.04409901      -0.00570643       0.00053825       0.00360112
C       -0.98208735      -0.11960396      -0.72969224      -0.05457164      -0.00822894      -0.00368538       0.00025580
N        1.70259080      -0.58360359      -1.08026174      -0.38084394       0.00004390       0.00476249      -0.00082242
C        2.99821767      -0.75483635      -1.27573838       0.07292451       0.00008845       0.00155348      -0.00044007
C        3.97928525      -0.22762192      -0.44636326       0.00899787       0.00111344      -0.00300286       0.00131361
C        5.42645928      -0.42998909      -0.68980517       0.03970204       0.00240627       0.00166268       0.00554152
C        6.28533189      -0.76126113       0.35506571      -0.13557972       0.00112723      -0.00179543       0.00597478
C        7.63877479      -0.95353958       0.12918562      -0.14256617      -0.00065279      -0.00058518      -0.00447348
C        8.15843537      -0.80361038      -1.14787988      -0.14640422       0.00073798       0.00150203      -0.00328783
C        7.31476604      -0.46897797      -2.19659844      -0.14259240      -0.00229020       0.00142398      -0.00018279
C        5.95969599      -0.29063411      -1.96881356      -0.13540605      -0.00279013      -0.00261513       0.00253438
H        4.17521153       0.96592506       1.33430652       0.08036444       0.00272457      -0.00260648      -0.00302111
H       -0.53782091       0.42200266       2.20674418       0.07839570       0.00212571       0.00480253      -0.00593399
H        0.27235192       1.86398982       1.60975953       0.09179099       0.00342891      -0.00016644       0.00568724
H       -1.70444430       2.38721771       0.20034914       0.07979979       0.00032937      -0.00212889       0.00007250
H       -2.17500463       2.27029109       1.89035194       0.10237450      -0.00104199      -0.00198492      -0.00173140
H       -4.94438950      -0.65226367      -0.14472682       0.06716272       0.00015707      -0.00362807       0.00440381
H       -4.50691094      -1.34448523       1.40013780       0.07466631       0.00126297       0.00618384       0.00303917
H       -6.84604660      -1.21264034       1.59190120       0.08725497      -0.00195378      -0.00421049      -0.00330559
H       -6.34250607       0.28069488       2.37403327       0.11329537       0.00059223      -0.00443994       0.00080943
H       -8.49013598      -0.09495465      -1.62462646       0.11585580       0.00097671       0.00248449       0.00156688
H       -8.31152965      -1.39119201      -0.43783466       0.09279996       0.00322003       0.00197348       0.00345266
H       -6.93236837      -0.89940881      -1.43884135       0.08173113       0.00228783       0.00342950       0.00215890
H       -1.92421389      -1.30077918       0.77744662       0.07202064       0.00087978       0.00025092       0.00005003
H       -2.95460312      -0.94589830      -0.60669112       0.07580696       0.00202595      -0.00102618      -0.00223006
H       -0.58082216      -0.96635567      -1.26855923       0.09032250       0.00195911       0.00162345       0.00065167
H       -1.27107112       0.63979467      -1.46011700       0.07730509       0.00282941      -0.00105118      -0.00089994
H        3.27029191      -1.35927049      -2.13368313       0.08071554       0.00170182       0.00304977      -0.00071362
H        5.88702028      -0.87993457       1.35225396       0.12030693      -0.00446085       0.00110844       0.00733451
H        8.28619390      -1.21691947       0.95286921       0.13388357      -0.00451878       0.00369297      -0.00223697
H        9.21461290      -0.94572916      -1.32488821       0.13467912       0.00239861      -0.00465932      -0.00022134
H        7.70863764      -0.34892165      -3.19521913       0.13384236       0.00080350       0.00037875       0.00148839
H        5.30840280      -0.02857225      -2.79019181       0.12045788      -0.00060554      -0.00062870       0.00005798
