53
Properties=species:S:1:pos:R:3:charge:R:1:forces:R:3 energy=-57397.29917829844 pbc="F F F"
F       -6.64879405      -3.54283197       3.62175928      -0.16723061      -0.00084124      -0.00295249       0.00423994
C       -6.06502362      -2.72366099       2.71287413       0.11455722      -0.00016779      -0.00196072       0.00288863
C       -6.67390711      -2.55379848       1.48737656      -0.16285530      -0.00483656       0.00290148       0.00434216
C       -6.08381210      -1.71527410       0.55862196      -0.10379514       0.00061706      -0.00294033       0.00083352
C       -4.89135535      -1.05631190       0.84657985       0.07774927       0.00254994      -0.00119758      -0.00508688
C       -4.30091699      -1.25243270       2.09121106      -0.09993102      -0.00072915       0.00285929      -0.00157220
C       -4.88821882      -2.08628622       3.03284848      -0.15152813       0.00016284       0.00110583       0.00131659
S       -4.27644875       0.01760670      -0.40431392      -0.18132499       0.00146142       0.00103516      -0.00415282
C       -2.53202212       0.20995213       0.04173548      -0.03134530      -0.00155578       0.00134609      -0.00134305
C       -1.88623114       1.25823418      -0.86854300      -0.05252656      -0.00635294       0.00267382      -0.00085264
N       -0.47222418       0.89219922      -0.92498012      -0.23330629      -0.00343456       0.00319400      -0.00417819
C       -0.26431802      -0.41684205      -0.30141136      -0.00369512       0.00320325       0.00463983      -0.00394818
C       -1.65663263      -1.02011900      -0.18814446      -0.11603177       0.00457682       0.00205597       0.00028874
C        0.67820876      -1.33628572      -1.07627560       0.38473737       0.00729133       0.00093962       0.00535190
O        0.39782155      -2.51130174      -1.28523489      -0.50702220      -0.00039050       0.00059634      -0.00341564
N        1.83203581      -0.75333320      -1.44880675      -0.33693880       0.00047519       0.00251786      -0.00305323
C        2.96670721      -1.47499034      -1.94322523      -0.03730120       0.00076285      -0.00178739      -0.00044534
C        4.18755052      -1.40158923      -1.04386346       0.05149491       0.00056119       0.00051307       0.00216152
C        5.12951652      -2.42239909      -1.10716080      -0.15995836      -0.00134342      -0.00316546       0.00059571
C        6.28876547      -2.38648557      -0.34739264      -0.17076994       0.00075852       0.00323617      -0.00338680
C        6.49063051      -1.30057871       0.47773401       0.11646224       0.00168365      -0.00002731      -0.00196332
C        5.58275503      -0.26859838       0.56436352      -0.16102935       0.00289703       0.00039414       0.00186518
C        4.42582157      -0.32071649      -0.20112553      -0.10434338       0.00291439       0.00181891       0.00148593
F        7.62124485      -1.24836458       1.22625962      -0.16863742      -0.00070239       0.00151691       0.00108715
C        0.50375506       1.92043966      -0.68114374       0.16480431      -0.00410820       0.00166570       0.00172550
O        1.55738245       1.56141761      -0.05816370      -0.42810559       0.00085080       0.00274597      -0.00437269
C        0.24272384       3.18714809      -1.15919055      -0.45408466       0.00685346      -0.00483560      -0.00271498
C        1.14032421       4.30846735      -0.83378459      -0.11871862       0.00010710      -0.00283051      -0.00070056
H       -7.59477992      -3.07236319       1.26963413       0.14271875      -0.00426357      -0.00397066       0.00312959
H       -6.54957885      -1.57208895      -0.40570381       0.11170220      -0.00333435      -0.00168992       0.00113894
H       -3.37204803      -0.76060480       2.32575282       0.10109963       0.00156309      -0.00264181      -0.00080618
H       -4.43533797      -2.24358977       3.99944902       0.13950214       0.00162838      -0.00141044       0.00147949
H       -2.45865477       0.53925910       1.07759442       0.09233221      -0.00541822       0.00317663      -0.00165715
H       -2.32795270       1.21148786      -1.86848183       0.06882329       0.00611575      -0.00136555      -0.00732896
H       -2.03285242       2.26285158      -0.48033730       0.07502536       0.00538280       0.00461856       0.00523485
H        0.19388000      -0.29028236       0.68487036       0.08482880      -0.00380340       0.00114330      -0.00166666
H       -1.71116282      -1.76646205       0.59841371       0.07238846      -0.00892869       0.00086116       0.00115198
H       -1.91843206      -1.50434102      -1.12763843       0.10631653       0.00166608       0.00245690       0.00125223
H        1.95580045       0.19729161      -1.08964652       0.24109095       0.00528641       0.00239077       0.00088335
H        2.67697703      -2.51573250      -2.08357411       0.09631588       0.00260708      -0.00433960      -0.00290555
H        3.25294952      -1.08261566      -2.92465668       0.06374445      -0.00217298      -0.00214637      -0.00250772
H        4.95276524      -3.26555281      -1.76089515       0.11726858       0.00030221      -0.00477489      -0.00047688
H        7.02363454      -3.17619065      -0.38739683       0.14219251      -0.00200343       0.00074997       0.00203197
H        5.78519352       0.56016845       1.22672580       0.14096014      -0.00058060      -0.00134628       0.00213692
H        3.70483519       0.47948046      -0.13215495       0.11889742      -0.00352626      -0.00377361      -0.00188443
H       -0.65361190       3.40097947      -1.71943790       0.12038869       0.00428000      -0.00549523       0.00439771
H        2.09789868       3.95284663      -0.44122343       0.09015540       0.00008105       0.00036195       0.00121917
H        1.34585778       4.96321853      -1.68207096       0.09265213      -0.00403832       0.00244508       0.00546396
S        0.47344101       5.49031514       0.42487897      -0.25913370      -0.00126710      -0.00071874       0.00248361
C        0.32029848       4.32022463       1.78588110      -0.19847438       0.00135676       0.00031065      -0.00292762
H        1.29191053       3.90494865       2.04649541       0.09006929       0.00026832       0.00057656       0.00382230
H       -0.08784128       4.85058571       2.64724683       0.10978016      -0.00282529      -0.00206155      -0.00398541
H       -0.33826275       3.50845207       1.49076778       0.08002954      -0.00164106       0.00058529       0.00332364
