32
Properties=species:S:1:pos:R:3:charge:R:1:forces:R:3 energy=-40424.15372402069 pbc="F F F"
C       -1.97193858      -1.48894019      -1.82307099      -0.24839716       0.00049397       0.00087017      -0.00188997
S       -0.51719541      -1.24856064      -2.70782044       0.05050004      -0.00485240      -0.00188026       0.00782306
C        0.07755118      -0.34562412      -1.35502563       0.25851950       0.00525928      -0.00098779       0.00040126
N        1.33212834       0.23697383      -1.31189526      -0.29518378      -0.00349147      -0.00599167       0.00043510
C        2.23890937       0.11799986      -2.31922264       0.38957292      -0.00009779      -0.00802935       0.00011215
O        1.96910933      -0.50195114      -3.32812621      -0.40214470      -0.00041161       0.00601198      -0.00217950
C        3.58039651       0.78257084      -2.08339599      -0.13136476      -0.00121467      -0.00093420      -0.00140874
C        4.32843193       0.23944100      -0.86418474      -0.11271250      -0.00306839      -0.00054385      -0.00079211
S        3.77250622       0.84238935       0.75101714      -0.17250639      -0.00221667      -0.00205145      -0.00204501
C        4.24815328       2.57370372       0.61060921      -0.18329197       0.00139662       0.00052539       0.00251787
N       -0.72765895      -0.23511384      -0.35147088      -0.36599484       0.00075943      -0.00191015       0.00293922
C       -1.91649602      -0.89340143      -0.60414120       0.14875616       0.00578895      -0.00045856       0.00085420
C       -2.97903496      -0.89414975       0.42430860       0.05483070       0.00397765      -0.00166967      -0.00360775
C       -4.15847810      -1.61854958       0.26368396      -0.15066299      -0.00070001       0.00393792       0.00289251
C       -5.14044040      -1.59870055       1.24220770      -0.13751130      -0.00206998      -0.00517602      -0.00000600
C       -4.96257537      -0.85446750       2.39839072      -0.14643076      -0.00473562       0.00649977       0.00108102
C       -3.79117813      -0.13175213       2.56985494      -0.14604022       0.00224562      -0.00478976       0.00395673
C       -2.80855807      -0.15367736       1.59393039      -0.12845856      -0.00626345       0.00671537      -0.00100622
H       -2.79261601      -2.04515453      -2.23647719       0.16549836       0.00081968       0.00269195       0.00221997
H        1.58295834       0.67142988      -0.43309639       0.23893140       0.00273613       0.00684593      -0.00119003
H        4.16872569       0.59585990      -2.97436857       0.09689863       0.00808924       0.00018755      -0.00564085
H        3.43892796       1.85765222      -1.98345842       0.06905554       0.00360259       0.00372510      -0.00514981
H        5.38398692       0.48694586      -0.94060926       0.09552657      -0.00111479       0.00168449       0.00303904
H        4.24825968      -0.84395787      -0.83763235       0.10849687       0.00076596      -0.00535287       0.00056575
H        5.30256522       2.66495559       0.36726432       0.09488790       0.00236628       0.00026323      -0.00885724
H        4.06980456       3.03537503       1.57727467       0.12050111      -0.00139779       0.00137462       0.00529498
H        3.65501570       3.08983554      -0.13851994       0.08049244      -0.00012785       0.00565066       0.00443969
H       -4.32714194      -2.21232504      -0.62351430       0.12153597       0.00058429       0.00126453      -0.00104389
H       -6.04681143      -2.16796897       1.09874093       0.13505517      -0.00663839      -0.00253739      -0.00290956
H       -5.73072062      -0.83884875       3.15719375       0.13665436       0.00353034      -0.00428089      -0.00098949
H       -3.64071188       0.44950630       3.46792212       0.13586138      -0.00003183       0.00169210      -0.00038094
H       -1.89345414       0.40214696       1.72397313       0.11912490      -0.00398297      -0.00334756       0.00052434
