31
Properties=species:S:1:pos:R:3:charge:R:1:forces:R:3 energy=-40408.640975299495 pbc="F F F"
S       -0.23164034       1.70493063      -0.83550803      -0.06587883      -0.00522824       0.00341990       0.00027145
C       -0.24809860       0.00743245      -0.42310232       0.31023744       0.00413451      -0.00293509      -0.00401183
N        0.88053605      -0.46884003       0.03527760      -0.41666293       0.00233978      -0.00553221       0.00400596
C        1.83950861       0.52424673       0.07380001       0.17664970       0.00153381      -0.00176323       0.00287528
C        1.42443333       1.74775348      -0.35195192      -0.27879801       0.00245682      -0.00204361       0.00070505
C        3.19363246       0.19142969       0.56239567       0.08925580      -0.00144357       0.00003912       0.00360367
C        4.24269970       1.11125823       0.55669734      -0.15807566      -0.00427222       0.00155879      -0.00085303
C        5.49968119       0.76343653       1.02917846      -0.15843371      -0.00420777       0.00121069       0.00236912
C        5.73797026      -0.51144818       1.52070333      -0.17235482       0.00084894      -0.00173480      -0.00190353
C        4.70360499      -1.43741349       1.52853143      -0.16498290      -0.00249144       0.00337444       0.00197637
C        3.44995052      -1.09018152       1.05428016      -0.13770153      -0.00069387      -0.00079944       0.00174669
N       -1.35385574      -0.74988608      -0.57817367      -0.36749598       0.00000747       0.00117837       0.00562175
C       -2.60130537      -0.23841212      -1.07486841       0.24885948      -0.00030142       0.00185685      -0.00777729
O       -2.58940583       0.99720844      -1.31513653      -0.41330615       0.00351568       0.00169410       0.00203905
C       -3.61920479      -1.15109756      -1.20230852      -0.43563125      -0.00094400      -0.00418469       0.00086331
C       -4.96270207      -0.73180727      -1.63987837      -0.10693201      -0.00172815      -0.00040630      -0.00033483
H        2.00646890       2.65293040      -0.39194942       0.14397161      -0.00201971       0.00291124      -0.00280591
H        4.09324311       2.11273716       0.17890823       0.10700699       0.00175859       0.00221693      -0.00068861
H        6.29449498       1.49596811       1.01233062       0.11855168      -0.00152181      -0.00210985       0.00195599
H        6.71710113      -0.77811230       1.89190716       0.12232582       0.00222944      -0.00282431      -0.00380674
H        4.87439666      -2.43612321       1.90634322       0.11907186      -0.00128655       0.00295891      -0.00163788
H        2.64031760      -1.80155201       1.05312945       0.10913789       0.00203157       0.00038938      -0.00277186
H       -1.29266221      -1.71788283      -0.31886635       0.25761378       0.00204350       0.00041069      -0.00371833
H       -3.50037305      -2.16271670      -0.83903178       0.11398923      -0.00091914      -0.00728531      -0.00363546
H       -4.92186530       0.23212640      -2.15352399       0.08731845       0.00129323      -0.00025962       0.00164697
H       -5.44197066      -1.45105901      -2.30271565       0.08051327      -0.00211115      -0.00261434       0.00101747
S       -6.19868826      -0.52416656      -0.27965210      -0.28594032       0.00661400       0.00452053      -0.00011419
C       -5.29748236       0.73379429       0.64395681      -0.20316355       0.00180386       0.00347765       0.00305405
H       -4.35727540       0.31783652       0.99785571       0.09240358      -0.00260335       0.00365189      -0.00052623
H       -5.07188824       1.58429228       0.00467868       0.08743846      -0.00104459      -0.00275842       0.00333117
H       -5.91392866       1.05088269       1.48485301       0.10101258       0.00020548       0.00238076      -0.00249751
