27
Properties=species:S:1:pos:R:3:charge:R:1:forces:R:3 energy=-26457.758536157005 pbc="F F F"
C        3.30920337      -1.30060517       0.20572132      -0.11863745      -0.00214346       0.00082323       0.00140992
C        2.74015551      -0.58973521       1.35263729      -0.49036139      -0.00384856      -0.00173016      -0.00368851
C        1.38155718      -0.27826779       1.48531001       0.29738605      -0.00014918      -0.00447252       0.00568432
O        0.85557118       0.30651274       2.45299823      -0.57297409       0.00315925      -0.00106162       0.00392486
N        0.55409553      -0.67425349       0.38091650      -0.32755008       0.00264089      -0.00027907       0.00247640
C       -0.77581645      -0.32969039       0.16312050       0.18652700       0.00428340      -0.00321137       0.00468859
C       -1.65760389       0.02076636       1.19121382      -0.14269270       0.00255327       0.00637659       0.00184637
C       -2.99192285       0.27164456       0.91240937      -0.17926483       0.00277118       0.00184835       0.00337608
C       -3.49937353       0.19127005      -0.37713621       0.13538300       0.00244871      -0.00217057       0.00307037
C       -2.62506574      -0.13643658      -1.40374770      -0.19924510       0.00523300       0.00810198      -0.00026446
C       -1.29040594      -0.39246403      -1.13540698      -0.19466317       0.00275205      -0.00093025       0.00360371
N       -4.86601113       0.49606336      -0.64563165      -0.72136825       0.00189238      -0.00396249      -0.00182035
H        4.33895545      -1.61045143       0.38257510       0.07980358      -0.00359092       0.00544292      -0.00667866
H        2.73798512      -2.19833776      -0.05766372       0.07594629       0.00198307       0.00420988       0.00150870
H        3.38621544      -0.20396074       2.12787713       0.10740953      -0.00136837      -0.00219973      -0.00624189
H        1.07550871      -0.81770626      -0.47120914       0.22498947      -0.00157826      -0.00117546       0.00080686
H       -1.25338964       0.10004698       2.18629630       0.12382372      -0.00378048      -0.00066516       0.00252702
H       -3.66488776       0.54511193       1.71770089       0.11191402      -0.00043819       0.00611858       0.00009129
H       -2.99316856      -0.18263975      -2.42237288       0.11189917      -0.00128908      -0.00039523      -0.00193005
H       -0.61589551      -0.63718362      -1.94751891       0.11957254      -0.00351856      -0.00289922      -0.00205252
H       -5.43471701       0.33324788       0.17163970       0.29327917      -0.00503499      -0.00509779      -0.00563306
H       -5.22209925      -0.06717374      -1.40343230       0.29612219      -0.00258383       0.00113611      -0.00347334
S        3.42152411      -0.38923304      -1.47775146      -0.28296891       0.00297954      -0.00537479      -0.00365968
C        3.29831933       1.33711851      -0.95004533      -0.20419376       0.00111946       0.00034070       0.00042607
H        2.57716773       1.85878574      -1.57404648       0.09474285       0.00107130      -0.00055157      -0.00155890
H        4.26316737       1.83672765      -1.00453594       0.08963794       0.00253233       0.00211979       0.00389015
H        2.94688350       1.32848952       0.07944667       0.08548333      -0.00809577      -0.00034135      -0.00232913
