20
Properties=species:S:1:pos:R:3:charge:R:1:forces:R:3 energy=-15727.581298165142 pbc="F F F"
C        4.24914099       0.02297314       0.16909189      -0.27339140       0.00155432       0.00109170      -0.00260670
C        3.07317129      -0.49210127       0.49333435      -0.15364081      -0.00217881       0.00064406      -0.00081253
C        1.80928070       0.14688662       0.01305381       0.44119951      -0.00234138       0.00265451      -0.00220226
O        1.81313542       1.14407225      -0.68047002      -0.43002614      -0.00119858       0.00484075      -0.00141501
N        0.67036235      -0.49085250       0.42371033      -0.36300197       0.00288236      -0.00408648       0.00690625
C       -0.67233343      -0.14906804       0.14878963       0.10246432       0.00197126      -0.00283608       0.00122083
C       -1.65757055      -0.97331635       0.68834798      -0.16173036       0.00321637       0.00111745      -0.00354430
C       -2.99988296      -0.71656629       0.47091877      -0.15027635       0.00068250       0.00024279       0.00395583
C       -3.34022490       0.37958527      -0.29353926       0.11126230       0.00089958       0.00046687       0.00058890
C       -2.38642718       1.21105000      -0.83828022      -0.14575827      -0.00078774       0.00397545      -0.00113900
C       -1.04134386       0.95078120      -0.62017893      -0.11394357      -0.00080114      -0.00499350       0.00188706
F       -4.64509013       0.64294489      -0.51204196      -0.14212753      -0.00037289       0.00124324      -0.00307099
H        4.30133921       0.91169536      -0.44367429       0.16005483       0.00402313       0.00211313      -0.00456146
H        5.17582185      -0.42327338       0.50197118       0.14804856       0.00191469       0.00106675       0.00419522
H        3.00135412      -1.38096558       1.10875815       0.12310985       0.00058630      -0.00175461      -0.00110883
H        0.78777009      -1.30718495       0.99469189       0.26991534      -0.00106061      -0.00844350       0.00456290
H       -1.36805217      -1.82794950       1.28678801       0.13111208      -0.00287188       0.00223291      -0.00344600
H       -3.77534877      -1.34581610       0.88088519       0.15378937      -0.00186206      -0.00177457       0.00248129
H       -2.70220027       2.05747110      -1.42956394       0.15280361       0.00095008       0.00559623      -0.00561804
H       -0.28180317       1.58648902      -1.03705604       0.14013661      -0.00520510      -0.00339702       0.00372686
