20
Properties=species:S:1:pos:R:3:charge:R:1:forces:R:3 energy=-13025.509275381264 pbc="F F F"
C        4.18494128      -0.11808913      -0.72946597      -0.27693939       0.00024088       0.00123984      -0.00326352
C        3.01220781      -0.70088046      -0.53347234      -0.15194349      -0.00410908      -0.00029696       0.00335719
C        1.77803117       0.12403860      -0.34646120       0.44839999      -0.00565367       0.00038892       0.00044234
O        1.80551372       1.33779235      -0.36858698      -0.43429512      -0.00208675       0.00402495       0.00142672
N        0.63910996      -0.61220817      -0.15251096      -0.36168575       0.00086822      -0.00400696       0.00289848
C       -0.67897830      -0.15281192       0.05276118       0.12607034       0.00285262      -0.00207691      -0.00193856
C       -1.66765475      -1.12024874       0.22570108      -0.16814075       0.00672483      -0.00015976      -0.00416483
C       -2.98537568      -0.75247956       0.43110981      -0.13868512       0.00177858      -0.00258329       0.00331216
C       -3.33508543       0.58935599       0.46823280      -0.15798248       0.00408792      -0.00012846       0.00260245
H       -4.36223608       0.88175432       0.62993394       0.13752688      -0.00431142       0.00060117      -0.00195250
C       -2.34979766       1.54886501       0.29665641      -0.13591430      -0.00050181       0.00180158      -0.00275884
C       -1.02442553       1.19437582       0.08853646      -0.12454396       0.00052295      -0.00264747       0.00473903
H        4.25689768       0.95986938      -0.75298666       0.15895368       0.00440956       0.00390314      -0.00319295
H        5.08876543      -0.69433936      -0.86989627       0.14659208       0.00318685       0.00110337       0.00388984
H        2.92274384      -1.78038930      -0.50428310       0.12171946      -0.00248630      -0.00425907      -0.00234841
H        0.73713415      -1.61054321      -0.15196043       0.26804894      -0.00105283      -0.00742570      -0.00119505
H       -1.39867881      -2.16895985       0.19820743       0.13082001       0.00029443       0.00516763      -0.00077508
H       -3.73968034      -1.51504548       0.56300460       0.13600147      -0.00388935      -0.00297052       0.00067766
H       -2.61027535       2.59712291       0.32382190       0.13515040       0.00087614       0.00899683      -0.00030494
H       -0.26205857       1.93967499      -0.04402753       0.14084709      -0.00175196      -0.00067139      -0.00145114
