41
Properties=species:S:1:pos:R:3:charge:R:1:forces:R:3 18H_TS=T (SP=-1276.678743033517,U=-1276.31597438,H=-1276.31503017,G=-1276.38481393) energy=-34741.26221292497 pbc="F F F"
N       -2.64400618       0.17052432       1.70403320      -0.35555756      -0.00241858       0.00267744       0.00216309
C       -1.54574702       0.59824902       2.43529653       0.19519036      -0.00345159       0.00016508      -0.00180563
C       -0.46680427      -0.17673519       2.65342846      -0.28337783       0.00201753      -0.00028210       0.00052521
C        0.81294057       0.37221026       3.21866580       0.00890384       0.00166560       0.00060672      -0.00074208
O       -1.68077265       1.84636475       2.91142265      -0.33735716      -0.00424289      -0.00108606      -0.00313785
S        2.14677812      -0.78573543       2.78679743      -0.18633834       0.00000888       0.00089868       0.00069872
C        3.56756103       0.30521593       2.98951661      -0.19930124      -0.00183604       0.00311426       0.00071377
H       -0.49792034      -1.23267907       2.40957188       0.12921116       0.00218446       0.00211460       0.00207461
H        1.03182799       1.33358392       2.74777165       0.09445380       0.00212896      -0.00171389       0.00114671
C        0.75032134       0.61506205       4.73352330      -0.04103641      -0.00031509      -0.00166932      -0.00143387
H        3.46649652       1.19454983       2.37058974       0.08810401       0.00118565      -0.00254341       0.00251914
H        3.71161854       0.59769957       4.02757992       0.08274453      -0.00192506      -0.00128398      -0.00246161
H        4.44514906      -0.24725660       2.66294787       0.12037928       0.00202194      -0.00118493      -0.00046102
C       -3.69911031       0.93536693       1.22719897       0.11522463      -0.00330144      -0.00040814       0.00017241
C       -4.91460545       0.23578590       0.96357513      -0.18315543      -0.00417366       0.00142446      -0.00363248
C       -5.99957288       0.88167855       0.46621937      -0.18232103       0.00130874      -0.00081910       0.00363084
C       -5.93810460       2.27083508       0.18482209       0.08480276      -0.00345691       0.00094730       0.00361640
C       -4.73491063       2.96448365       0.43040177       0.32532895       0.00015105      -0.00020154      -0.00288443
C       -3.61977201       2.28226015       0.95801900      -0.16489759      -0.00063160       0.00302236      -0.00310872
N       -4.64042838       4.29781162       0.15677718      -0.42017394       0.00171117      -0.00732880       0.00587361
C       -5.70836586       4.86919303      -0.32715559       0.25278956       0.00137709      -0.00047082       0.00295424
N       -6.91349856       4.30372772      -0.59552441      -0.41327637       0.00064401      -0.00439187       0.00382388
C       -7.00544958       3.02415395      -0.33575693       0.07610599       0.00173637       0.00125580      -0.00499132
H       -4.96647688      -0.82389010       1.18045597       0.12915401      -0.00264879       0.00035194      -0.00314153
H       -6.91764146       0.34202656       0.28166981       0.12658060       0.00312547      -0.00201094      -0.00180050
H       -2.71655711       2.83989871       1.12259750       0.12335496       0.00128871       0.00546252       0.00172975
H       -5.64228825       5.92663142      -0.54819347       0.05593425       0.00558488       0.00008070       0.00513994
H       -7.95824026       2.54634348      -0.54140635       0.08217666       0.00324911      -0.00422328       0.00108538
H       -2.67752642      -0.81315102       1.51621153       0.27791372      -0.00326577      -0.00070799       0.00086888
H        1.74712540       0.70465413       5.17348839       0.06658033       0.00132657       0.00441752      -0.00102836
H        0.26735233      -0.25064065       5.18000001       0.08521752       0.00118530      -0.00036971      -0.00288829
N       -0.02561595       1.81893410       5.05866747      -0.24148908      -0.00280309      -0.00109834       0.00065629
C        0.80607107       3.01961628       5.01692548      -0.11441676      -0.00077822      -0.00287205       0.00011120
C       -0.66786675       1.69622029       6.35993466      -0.12126937      -0.00362138       0.00045248      -0.00114441
H       -1.33097619       0.83541195       6.34471150       0.07531831       0.00139478       0.00324612       0.00056214
H       -1.25263587       2.58799841       6.56802723       0.08600345      -0.00050715       0.00386164      -0.00457919
H        0.06242219       1.55571785       7.16537902       0.06934832      -0.00423333       0.00088859      -0.00071182
H        1.54286300       3.03393498       5.82688654       0.07316077       0.00127586      -0.00335164      -0.00080530
H        0.17795970       3.90194884       5.10962102       0.08756547       0.00054841       0.00075638      -0.00056788
H        1.33738083       3.06748989       4.07029032       0.06682247      -0.00053078       0.00022499       0.00082611
H       -1.10958238       1.92790692       3.71853358       0.26559830       0.00702153       0.00204818       0.00043377
