26
Properties=species:S:1:pos:R:3:charge:R:1:forces:R:3 26_carbanion=T (SP=-917.180423355506,U=-916.94871845,H=-916.94777424,G=-917.001354) energy=-24953.550120089814 pbc="F F F"
C        9.28339005      10.58248674      25.51063347       0.43152648       0.00015750      -0.00232278      -0.00380830
C       10.31264219      11.14540433      26.33477888      -0.24475181      -0.00038463      -0.00218088       0.00192787
C       11.65828062      10.95022383      25.86703744      -0.09712626      -0.00025376      -0.00033080       0.00081710
O        9.46997222      10.33306714      24.31898947      -0.49751213      -0.00303592       0.00077855       0.00737253
S       11.46348795       9.32872758      26.84568763      -0.14174241       0.00305839       0.00498423      -0.00070650
C       13.01208778       8.33834620      26.88628980      -0.17651072      -0.00111513      -0.00524450       0.00517766
H       10.18832929      11.55692483      27.31797937       0.11760007       0.00136376      -0.00136922      -0.00377535
H       11.76049509      10.75738952      24.80311443       0.13013539      -0.00010017       0.00054521       0.00171800
H       12.42728565      11.59684664      26.27933222       0.12015390      -0.00079577      -0.00168455      -0.00024000
H       13.33318439       7.94892103      25.91601893       0.09943046       0.00022813      -0.00067772       0.00074512
H       13.85494775       8.84892453      27.35958504       0.09800329      -0.00481789      -0.00064759      -0.00051944
H       12.72293050       7.49444204      27.51356237       0.10058229      -0.00148561       0.00751523      -0.00623482
C        7.68289243      10.61141694      27.46734459      -0.06331880       0.00031257      -0.00018245       0.00065477
C        7.02710662       9.61058432      25.36404256      -0.06887771      -0.00145963      -0.00080631      -0.00232090
C        6.26912327      10.05668165      27.57613136       0.04044972       0.00163186       0.00001493       0.00014053
H        7.67431036      11.69664051      27.60498008       0.08465516       0.00071161      -0.00285334       0.00067712
H        8.31058713      10.14721887      28.22824743       0.09899347      -0.00106244       0.00082165      -0.00191613
C        5.78487214      10.03442272      26.13616740      -0.16204777       0.00189221       0.00015222      -0.00159317
H        7.13343933       8.52482469      25.36776447       0.09628887       0.00058466       0.00541668       0.00046537
H        7.06799377       9.95162279      24.33484657       0.09762672      -0.00100616      -0.00039136       0.00368550
H        5.65236546      10.68564947      28.22177781       0.07851738       0.00098147      -0.00344201      -0.00185936
H        4.93986287       9.36377953      26.00063877       0.08493553       0.00330753       0.00118186       0.00063058
H        5.49262064      11.04025695      25.84159431       0.09157063       0.00094369      -0.00390295       0.00032501
N        8.10236579      10.23800954      26.12146483      -0.18137564      -0.00025024      -0.00021130      -0.00126587
O        6.38002583       8.74590928      28.11440130      -0.47729352      -0.00479090       0.00410512      -0.00074748
H        5.50068293       8.36917394      28.17406416       0.34008747       0.00538447       0.00073351       0.00065064
