28
Properties=species:S:1:pos:R:3:charge:R:1:forces:R:3 28=T (SP=-500.041130595585,U=-499.77248905,H=-499.77154484,G=-499.82445668) energy=-13607.409243208589 pbc="F F F"
N       -3.74608579       0.52054223       0.49493420      -0.44243601      -0.00540591       0.00043277      -0.00447554
C       -2.37980652       0.52505411       0.40191850       0.45305884      -0.00074052       0.00804852       0.00309927
C       -1.69359098      -0.27961525       1.38367316      -0.25159189      -0.00321541      -0.00496605      -0.00131636
C       -0.32281999      -0.30890129       1.42317641      -0.09204973       0.00005447       0.00247967       0.00220985
O       -1.79732708       1.20494122      -0.44207123      -0.49181232       0.00337658      -0.00570062      -0.00158244
H       -2.25540644      -0.80128067       2.15365530       0.10625379      -0.00198546       0.00093971       0.00422000
H        0.20132740       0.19942715       0.62471654       0.12778577      -0.00152156      -0.00196431      -0.00209365
C        0.34308975      -0.86962380       2.48614660      -0.18562205       0.00116413       0.00405426       0.00219956
C       -4.53981026       1.17305844      -0.52680143      -0.12673976      -0.00041990       0.00020681      -0.00126628
H       -4.16773863      -0.19931862       1.04969151       0.28398484      -0.00016901      -0.00414146       0.00166690
H        1.40979149      -1.01821768       2.47544787       0.11887459       0.00075076       0.00154489      -0.00108269
H       -0.21547909      -1.46017700       3.20296946       0.12397359       0.00472842       0.00183435       0.00313090
N        0.70387940       0.79457782       4.14113892      -0.14891484      -0.00205994      -0.00160094       0.00055992
C        1.48943278       1.79073805       3.44981916      -0.13337852      -0.00137463      -0.00226479       0.00096688
C        1.33885786       0.27189335       5.32898397      -0.13359870       0.00203016      -0.00049656      -0.00030461
H        0.71989792      -0.52113111       5.74423734       0.07207478       0.00219392      -0.00250345      -0.00381003
H        1.48963671       1.03912156       6.10121428       0.06904613      -0.00090785      -0.00023610       0.00122245
H        2.30790797      -0.14815563       5.06556174       0.07378454       0.00365442       0.00404374      -0.00199378
H        1.02698159       2.00051969       2.48803613       0.07378085      -0.00137589      -0.00376528       0.00240451
H        2.49652695       1.41404170       3.27753149       0.07629184       0.00045848      -0.00253352      -0.00083373
H        1.56685866       2.72766916       4.01602602       0.07155404      -0.00206031       0.00481743      -0.00416216
H       -4.41965567       0.70292192      -1.50495182       0.08385115       0.00531787       0.00469170      -0.00097880
H       -5.58908889       1.14135557      -0.24128146       0.08858270       0.00125051       0.00524238      -0.00598777
H       -4.22294644       2.20887387      -0.61862616       0.09219614      -0.00094555      -0.00337347       0.00399556
C       -0.65985466       1.21087656       4.35918753      -0.12503923      -0.00061729      -0.00235545       0.00121299
H       -1.08070079       1.55535650       3.41748631       0.07532270      -0.00419068      -0.00165451       0.00363399
H       -1.24451162       0.35650793       4.69496365       0.06723046      -0.00080424       0.00078072       0.00583055
H       -0.74383981       2.00712979       5.11040290       0.07353637       0.00281511      -0.00156038      -0.00646572
