23
Properties=species:S:1:pos:R:3:charge:R:1:forces:R:3 29=T (SP=-518.032317172856,U=-517.83104558,H=-517.83010137,G=-517.87790366) energy=-14096.118865825189 pbc="F F F"
N       -3.21634938      -0.02644053      -0.06429131      -0.34547248       0.00047777       0.00039256       0.00270443
C       -1.92998698       0.44036407      -0.02895921       0.44748160       0.00126128      -0.00187287       0.00199509
C       -1.04834882      -0.25692911       0.97646406       0.01273970      -0.00147554      -0.00261114       0.00324340
C        0.21113226       0.14932848       1.06481940      -0.32233107       0.00503010      -0.00511770       0.00142678
O       -1.51774014       1.33725060      -0.73652466      -0.45178846      -0.00430021       0.00097952       0.00201565
H        0.57105055       0.94332142       0.43018183       0.15562166      -0.00412139      -0.00223083       0.00398422
H        0.88829112      -0.30860250       1.77149785       0.14473774       0.00917660      -0.00289442      -0.00126196
C       -4.28926074       0.42517228      -0.85765510       0.12614039       0.00029759      -0.00102000       0.00225615
C       -5.50179632      -0.24989179      -0.72578445      -0.16458403      -0.00384447      -0.00047559       0.00124520
C       -6.60807272       0.14055365      -1.45936602      -0.14238909      -0.00226345       0.00583837       0.00130807
C       -6.52008920       1.21155088      -2.33635468      -0.15717016      -0.00054932       0.00068407      -0.00448844
C       -5.31249257       1.87890565      -2.46803018      -0.13870810       0.00082660       0.00413644       0.00045033
C       -4.19535463       1.49807954      -1.73936419      -0.12334374      -0.00032227       0.00052482       0.00042930
H       -5.57795959      -1.08694648      -0.04214900       0.12618773       0.00167487      -0.00233470       0.00415335
H       -7.54113711      -0.39229843      -1.34325319       0.13660526       0.00245030      -0.00112252      -0.00321966
H       -3.25906945       2.01483247      -1.84070489       0.14100851       0.00072137       0.00240992      -0.00438025
H       -3.43277171      -0.78751874       0.55054748       0.24961235      -0.00118188       0.00376668       0.00533360
H       -5.23066304       2.71425482      -3.14867686       0.13574697      -0.00500423      -0.00171107      -0.00245614
H       -7.38271958       1.52058688      -2.90825721       0.13764924      -0.00035063      -0.00322111      -0.00388811
C       -1.60122316      -1.35910221       1.83542209      -0.20297123      -0.00229226      -0.00021983       0.00062526
H       -2.42397857      -1.00878155       2.46255786       0.07368669      -0.00356874      -0.00083668      -0.00334558
H       -1.96551378      -2.19712307       1.23685893       0.07341883       0.00518294       0.00099786      -0.00230502
H       -0.82432193      -1.73940657       2.49439538       0.08812169       0.00217517       0.00593813      -0.00582665
