26
Properties=species:S:1:pos:R:3:charge:R:1:forces:R:3 energy=-24966.462075753076 pbc="F F F"
C       -3.96346375       0.73240097      -0.14349848      -0.04288848      -0.00499005       0.00301380       0.00286279
C       -4.58338506       0.19279151       0.97227105      -0.04577735       0.00015088      -0.00323926       0.00015462
C       -3.82478279      -0.53311407       1.87941930      -0.04167904       0.00142538      -0.00141549       0.00038479
H       -4.28506819      -0.96469910       2.75770847       0.04546465       0.00210301      -0.00256280       0.00191522
C       -2.46929265      -0.71135639       1.66743172      -0.05197670       0.00206364       0.00457566      -0.00198768
C       -1.84736004      -0.16595785       0.54410607       0.04351859       0.00268412       0.00320863      -0.00123418
N       -0.46342843      -0.38067462       0.39878205      -0.09698587       0.00519116       0.00073792       0.00234400
C        0.35382091      -0.00650348      -0.63714308       0.20192915       0.00329774       0.00878960       0.00113029
O       -0.02719359       0.58572960      -1.62479820      -0.29861844      -0.00355323      -0.00559764      -0.00493581
C        1.80728205      -0.40709791      -0.43011502      -0.03839956      -0.00103885      -0.00122941      -0.00065255
C        2.66177435      -0.04544397      -1.63475698      -0.03566504      -0.00171062       0.00008549       0.00043248
S        4.39257937      -0.53828079      -1.46968663      -0.13015988      -0.00410223       0.00135245       0.00264531
C        4.93915524       0.70251592      -0.28515438      -0.06185392       0.00070343       0.00155877       0.00150853
C       -2.60553239       0.56250346      -0.36902025      -0.05503950      -0.00444559       0.00109495      -0.00087006
H       -4.53934657       1.30007850      -0.86068679       0.04403743      -0.00251650       0.00275762      -0.00306353
H       -5.64156223       0.33435978       1.13386969       0.04483860       0.00169162       0.00012813      -0.00107543
H       -1.88330427      -1.27895882       2.37920786       0.04791014      -0.00101808       0.00044796      -0.00148827
H       -0.03606634      -0.88571169       1.15579397       0.15139562       0.00183171      -0.00452679       0.00376103
H        2.18190552       0.08646712       0.47104667       0.04420589       0.00062552      -0.00105904      -0.00231513
H        1.86136426      -1.48178629      -0.24563626       0.04403754       0.00035948      -0.00311420      -0.00076292
H        2.27448816      -0.54294443      -2.52031985       0.03783681       0.00105466      -0.00046812      -0.00067644
H        2.60739114       1.02323881      -1.82191582       0.03829411       0.00020924      -0.00034497       0.00102623
H        4.73546173       1.70491300      -0.65378098       0.04141780       0.00140222       0.00345403      -0.00031214
H        6.01303486       0.58636179      -0.16867425       0.04134133       0.00173864      -0.00336526       0.00086148
H        4.46851418       0.57118742       0.68462496       0.04252018      -0.00536139      -0.00122563      -0.00037048
H       -2.13195258       0.98559389      -1.23751259       0.03029586       0.00220406      -0.00305633       0.00071785
