25
Properties=species:S:1:pos:R:3:charge:R:1:forces:R:3 energy=-24950.587879785853 pbc="F F F"
O        0.71129584      -1.50531825       0.26079277      -0.37508044      -0.00283764       0.00335236       0.00237905
C        0.76693591      -0.35936037       0.76705514       0.09462216       0.00385109       0.00334169       0.00064456
C        1.74941190       0.14978306       1.59882608      -0.24213558       0.00155072      -0.00055604       0.00408693
C        2.93960797      -0.65918587       1.93188949      -0.05627064       0.00225386      -0.00182716      -0.00316868
N       -0.28777125       0.58098316       0.44536563      -0.14225973      -0.00173748       0.00097676      -0.00280802
C       -1.49686645       0.34953661      -0.16329101       0.05929115      -0.00563353      -0.00041164      -0.00296674
C       -1.89829423      -0.90780073      -0.64289022      -0.06358099      -0.00159809      -0.00360086      -0.00316527
C       -3.13374815      -1.05542552      -1.25005986      -0.05279057      -0.00292728      -0.00202067       0.00353401
C       -4.00678371       0.01522103      -1.41197021      -0.08351269       0.00140506      -0.00188975       0.00222497
C       -3.61506503       1.26132702      -0.94122332      -0.05712698      -0.00535581      -0.00006411       0.00152795
C       -2.38513415       1.42647393      -0.32743167      -0.07636274      -0.00482014       0.00097614       0.00039793
H        1.74633061       1.18544799       1.92406815       0.01459929      -0.00610738       0.00523874      -0.00337102
H        2.73249452      -1.72023690       1.79252511       0.00835709      -0.00325479      -0.00072574       0.00251536
H        3.30216242      -0.50421187       2.94926783       0.00071515      -0.00321871      -0.00053027      -0.00515006
H       -0.17922233       1.48500519       0.86563125       0.11424492      -0.00116323      -0.00309762       0.00043486
H       -1.21854351      -1.73306631      -0.52207766       0.01418765       0.00313573       0.00067999       0.00201547
H       -3.41851235      -2.03875917      -1.60438620       0.01539839       0.00257302       0.00184191      -0.00666389
H       -4.96554016      -0.11858969      -1.89226188       0.01671814       0.00453240       0.00053461       0.00628278
H       -2.08583296       2.40192003       0.03581535       0.01954766       0.00041565       0.00101320       0.00150033
H       -4.26982042       2.11736352      -1.04986043       0.01618139       0.00145870       0.00385074      -0.00042140
S        4.46875036      -0.33281722       0.90395018      -0.19014594       0.00234819      -0.00590508      -0.00367508
C        3.74913893      -0.72713383      -0.69317045      -0.08671188       0.00227829       0.00448001       0.00485336
H        3.39324852      -1.75304127      -0.69919427       0.01894095       0.00815712       0.00297183      -0.00202220
H        4.49767595      -0.58130527      -1.47115707       0.00840279       0.00510296      -0.00605074       0.00491503
H        2.89089551      -0.08354745      -0.86166021       0.02476259      -0.00040896      -0.00257862      -0.00390024
