30
Properties=species:S:1:pos:R:3:charge:R:1:forces:R:3 energy=-36874.122506212334 pbc="F F F"
C       -4.28812184      -0.21491581      -0.72110018      -0.03713548       0.00078089       0.00054116      -0.00315759
C       -3.53115103      -1.07186012      -1.50909190      -0.03785404       0.00468861      -0.00094470       0.00197182
C       -2.21611872      -1.35860918      -1.18862898      -0.04644040       0.00384786      -0.00133826       0.00074481
C       -1.64009729      -0.79041363      -0.05393933       0.04120029       0.00076432       0.00335418      -0.00074283
N       -0.32807643      -1.09550546       0.34568067      -0.10498349      -0.00281125      -0.00052045      -0.00257244
C        0.70151586      -1.48915590      -0.46015681       0.19630142       0.00004349       0.00505586       0.00347652
O        0.61919518      -1.63086193      -1.66270733      -0.30541331       0.00079633      -0.00113815      -0.00636803
C        2.01531800      -1.72347731       0.25366786      -0.03313903      -0.00249069      -0.00089761      -0.00008421
C        3.05365141      -0.71903350      -0.23597231      -0.02765119      -0.00095162      -0.00099073      -0.00144292
S        2.78279010       0.89668265       0.53634217      -0.08229645      -0.00762532       0.00426111       0.00149821
C        3.96422506       1.86767149      -0.40716788      -0.05873608      -0.00254067      -0.00149130       0.00180878
C       -2.39262150       0.08905396       0.73625324      -0.02869746      -0.00513977      -0.00273493       0.00278359
S       -1.68766481       0.86400505       2.17442283      -0.07372642       0.00026027       0.00271063      -0.00059916
C       -0.64640205       2.10207240       1.34184330      -0.06227108      -0.00095738       0.00043524       0.00226310
C       -3.71214091       0.36282196       0.39609081      -0.04382472      -0.00345633      -0.00369647      -0.00057349
H       -5.31447328       0.00376003      -0.97523014       0.04962332      -0.00195728       0.00163085       0.00227247
H       -3.96413128      -1.52611080      -2.38893489       0.04782165       0.00064557      -0.00041158       0.00672964
H       -1.62638350      -2.01653509      -1.80092076       0.03506497       0.00216986      -0.00178368      -0.00181277
H       -0.10882637      -0.84615822       1.29722729       0.11535291      -0.00133482      -0.00378343      -0.00084273
H        2.33937867      -2.72767679      -0.01803595       0.05262277      -0.00069418      -0.00099227       0.00062230
H        1.91861315      -1.66841332       1.33680202       0.04131443      -0.00239015      -0.00055538      -0.00069652
H        4.05615427      -1.05089476       0.02031970       0.04421685       0.00347971      -0.00013519      -0.00092463
H        2.98132427      -0.62489933      -1.31632553       0.03793535       0.00449538      -0.00225745      -0.00436858
H        3.92667219       2.88458285      -0.02738239       0.04320230       0.00351092       0.00229839       0.00672159
H        4.97361289       1.48425085      -0.29128409       0.04340783       0.00603935      -0.00050786       0.00326023
H        3.69792124       1.87794355      -1.45965250       0.04279137      -0.00113097      -0.00134846      -0.00601087
H       -1.27153617       2.85485390       0.87236654       0.04325945      -0.00103083      -0.00124427       0.00204423
H       -0.02971253       2.56113048       2.10959215       0.04396624       0.00569345       0.00229832      -0.00612589
H       -0.00155922       1.63444913       0.60181872       0.02458888      -0.00374564       0.00247525      -0.00019001
H       -4.27663279       1.03912085       1.02300859       0.03949904       0.00104066       0.00171148       0.00031556
