30
Properties=species:S:1:pos:R:3:charge:R:1:forces:R:3 energy=-36873.94490018377 pbc="F F F"
C        2.68556546      -1.21519295       0.89445808      -0.04553214      -0.00173620      -0.00140646      -0.00061486
C        1.33528292      -1.06465034       0.63961037      -0.04728672      -0.00005626       0.00128341       0.00013019
C        0.91438936      -0.17808938      -0.34903533       0.04819305      -0.00182414       0.00211749       0.00418926
N       -0.43766580       0.05341565      -0.65870133      -0.09359990       0.00161703      -0.00138943       0.00273841
C       -1.54216078      -0.59244480      -0.16875447       0.20274827      -0.00038528       0.00732951      -0.00439259
O       -1.49872357      -1.51706664       0.61573173      -0.29863441      -0.00957546       0.00058069      -0.00186562
C       -2.84808446      -0.03087269      -0.71184562      -0.03807215       0.00417473      -0.00140271      -0.00232038
C       -4.05183999      -0.80299170      -0.19861507      -0.03523616       0.00237111       0.00007398      -0.00132441
S       -5.62330603      -0.20379027      -0.85764178      -0.12883449      -0.00371884      -0.00491948      -0.00574631
C       -5.77930004       1.31744572       0.09427875      -0.06136867      -0.00047921       0.00364147       0.00234918
C        1.87815484       0.52870090      -1.06123792      -0.04360929      -0.00203719      -0.00146637       0.00081508
C        3.22874245       0.37567214      -0.79947244      -0.04081691      -0.00073924      -0.00132735       0.00113155
C        3.65446607      -0.50455777       0.19012857      -0.02415572      -0.00047026       0.00091998       0.00511797
S        5.34641656      -0.79952486       0.63080618      -0.07955104       0.00186050       0.00296770      -0.00023437
C        6.22272509       0.32314860      -0.45749430      -0.06048429      -0.00168019      -0.00239505      -0.00103764
H        2.99826863      -1.90650215       1.66512570       0.03965554       0.00184815       0.00277583      -0.00140317
H        0.60910018      -1.62540887       1.20027265       0.03353004       0.00266290       0.00072153      -0.00143929
H       -0.59761350       0.77636091      -1.33790713       0.15379544      -0.00641729      -0.00327875       0.00567904
H       -2.91860368       1.02341738      -0.43057868       0.04426389      -0.00167410      -0.00435551      -0.00237254
H       -2.82282388      -0.06528391      -1.80283310       0.04411708      -0.00154790       0.00051733      -0.00182781
H       -4.08172546      -0.77051070       0.88669055       0.03874723       0.00146100       0.00034397       0.00126499
H       -3.96821121      -1.84831376      -0.48477619       0.03813424       0.00307473      -0.00028974       0.00176990
H       -6.75172252       1.74331026      -0.13606804       0.04161038      -0.00199526       0.00326304      -0.00074630
H       -5.73298768       1.11215868       1.16077820       0.04165877       0.00137864      -0.00249302       0.00563770
H       -5.01301261       2.04059484      -0.16818019       0.04267580       0.00856965      -0.00141075      -0.00256064
H        1.57601531       1.21658149      -1.84102021       0.05181405       0.00077511       0.00349754       0.00261799
H        3.93814363       0.94959093      -1.37441222       0.04204626       0.00154218      -0.00515730      -0.00245561
H        5.93580739       1.35441492      -0.27425740       0.04399382       0.00055899      -0.00246781       0.00149810
H        7.28060513       0.20826854      -0.23040582       0.04597555      -0.00181732      -0.00035546      -0.00383473
H        6.05882161       0.06999757      -1.50063197       0.04422242       0.00425913       0.00408146      -0.00076313
