20
Properties=species:S:1:pos:R:3:charge:R:1:forces:R:3 energy=-13025.455701578652 pbc="F F F"
C        3.67222993      -0.14428383       0.86153187      -0.05839168       0.00046582       0.00249650       0.00025737
C        3.20655268      -0.02726768      -0.37314747      -0.04356909      -0.00100410      -0.00204650      -0.00059549
C        1.79260180       0.23409534      -0.77459139       0.17288828      -0.00005940      -0.00310235      -0.00477366
O        1.55426903       0.75192029      -1.84667172      -0.31814376      -0.00020232       0.00196048      -0.00633376
N        0.84410950      -0.16791266       0.12339918      -0.09525058       0.00092633       0.00174320       0.00042805
C       -0.55736018      -0.05845943      -0.00089022       0.04875779       0.00042075       0.00569532       0.00370918
C       -1.17872450       0.70000438      -0.98872879      -0.05043156      -0.00053085       0.00126923       0.00014400
C       -2.56269228       0.77952373      -1.01296077      -0.03800505      -0.00067773       0.00162232       0.00396394
C       -3.34078706       0.11637511      -0.07617717      -0.04001981      -0.00135618      -0.00700926      -0.00216749
H       -4.41728666       0.19007652      -0.10835820       0.04712728      -0.00033250      -0.00240212      -0.00313291
C       -2.71757663      -0.64396096       0.90296311      -0.03568055       0.00099302       0.00330687       0.00477632
C       -1.33648093      -0.72906532       0.94097045      -0.04660096       0.00063488      -0.00483298      -0.00291132
H        4.71956031      -0.33320410       1.04290708       0.05243710      -0.00057804      -0.00612092       0.00239994
H        3.05603820      -0.02776271       1.74361945       0.04297209      -0.00313531       0.00560043      -0.00239621
H        3.87381023      -0.06574009      -1.22158643       0.04625871      -0.00016709       0.00025064       0.00120729
H        1.17091021      -0.72292941       0.89208812       0.14145666      -0.00028056      -0.00022874       0.00311852
H       -0.58150431       1.21377951      -1.72148308       0.03118704       0.00258059       0.00133507      -0.00000203
H       -3.03420888       1.37345007      -1.78366512       0.04638523       0.00312186       0.00059433       0.00314939
H       -3.30332309      -1.17323458       1.64257183       0.04789850      -0.00304451       0.00193775      -0.00111866
H       -0.84903857      -1.31854941       1.70746266       0.04872428       0.00222501      -0.00206965       0.00027741
