28
Properties=species:S:1:pos:R:3:charge:R:1:forces:R:3 energy=-16673.297111946013 pbc="F F F"
O        3.91953730      -0.19286241       0.44964735      -0.32359245       0.00937783      -0.00184030      -0.00066312
C        3.29184710       0.81282532       0.19033168       0.16905023       0.00137642      -0.00380928       0.00497043
C        3.99941354       2.12027899       0.05108086      -0.05030035       0.00249594       0.00037769       0.00439555
C        3.49316836       3.31278923       0.32384939      -0.06573471      -0.00422854       0.00265701      -0.00730733
N        1.94323285       0.86760031      -0.02284704      -0.09931015      -0.00180916       0.00311509      -0.00163533
C        1.01221444      -0.18944872       0.04332448       0.04950388      -0.00356481      -0.00160083       0.00208482
C        1.35594570      -1.46280144       0.48197221      -0.05324454      -0.00156315      -0.00135925       0.00009747
C        0.36295805      -2.42410170       0.51281646      -0.03885476      -0.00137963      -0.00258978      -0.00182687
C       -0.93910794      -2.15983569       0.12533910      -0.05310670      -0.00095641      -0.00225440      -0.00187621
C       -1.29356163      -0.87665100      -0.29696212       0.03931475       0.00015350      -0.00028527       0.00390508
N       -2.59517659      -0.55889810      -0.71656677      -0.12875448       0.00466248       0.00373998      -0.00346276
C       -3.55278417      -1.64568331      -0.77089498      -0.00882711       0.00501184       0.00342981       0.00029600
C       -3.18194867       0.65624312      -0.17594239      -0.01171779      -0.00227086       0.00737451       0.00170212
C       -0.29469881       0.09892166      -0.33848225      -0.07284763       0.00014231      -0.00442811      -0.00244314
H        5.02819216       2.00557386      -0.25604777       0.04504710       0.00203417      -0.00178380      -0.00523898
H        4.07744385       4.21055947       0.19202064       0.05047287       0.00107776       0.00284558       0.00320748
H        2.49314899       3.45409496       0.71361914       0.04104432      -0.00326818      -0.00467888       0.00272669
H        1.58479716       1.73955361      -0.36288028       0.14118001       0.00097307       0.00724838      -0.00029332
H        2.36633445      -1.67702557       0.77936668       0.03148097      -0.00151119       0.00313005      -0.00068625
H        0.61691106      -3.41927108       0.85100209       0.04633516       0.00032648       0.00140530      -0.00172130
H       -1.67761222      -2.94329216       0.16071860       0.03805047      -0.00570484       0.00569293       0.00279609
H       -4.46457717      -1.28118129      -1.23900517       0.03757486      -0.00151988      -0.00132283       0.00525626
H       -3.80785123      -2.03517837       0.22049304       0.03761327      -0.00047418      -0.00495768      -0.00155589
H       -3.17036712      -2.45996968      -1.38009953       0.03504578       0.00294379       0.00141763      -0.00176518
H       -3.46762656       0.52732967       0.87427138       0.03417099       0.00279345       0.00713733      -0.00194952
H       -2.49867305       1.49730844      -0.24277455       0.03380610      -0.00138622      -0.00769782      -0.00110140
H       -4.06929523       0.91074907      -0.75130578       0.03738092       0.00276098      -0.00558457      -0.00183042
H       -0.53234278       1.09056486      -0.69927413       0.03921900      -0.00649287      -0.00537842       0.00391899
