28
Properties=species:S:1:pos:R:3:charge:R:1:forces:R:3 energy=-16673.223243266824 pbc="F F F"
O        2.77066489       2.23761498      -1.22812281      -0.33092970       0.00311798       0.00106800      -0.00533081
C        3.21339235       1.28201117      -0.62097730       0.16541046      -0.00056171      -0.00013174      -0.00349124
C        4.68416019       1.16246062      -0.38771783      -0.05388225       0.00081823       0.00025954       0.00129511
C        5.27158242       0.51106098       0.60450895      -0.06992196       0.00111833       0.00039792       0.00153965
N        2.47309093       0.25281996      -0.12913492      -0.09962741       0.00219992      -0.00309275      -0.00052168
C        1.07013196       0.07753219      -0.22817621       0.04459574      -0.00058005      -0.00183189       0.00311353
C        0.53309155      -1.13585888       0.18456721      -0.04787469      -0.00166812       0.00083624       0.00196490
C       -0.82766297      -1.37576000       0.14269514      -0.05009181      -0.00015971       0.00203569       0.00053620
C       -1.71334189      -0.40119797      -0.32861751       0.03455635       0.00218195      -0.00143674      -0.00208294
N       -3.08532220      -0.65822625      -0.42387857      -0.11965430       0.00033660       0.00418466       0.00342390
C       -3.62189782      -1.71019449       0.41970898      -0.00930796       0.00097622      -0.00027268      -0.00121537
C       -3.96347231       0.47967766      -0.61919642      -0.00901527      -0.00090843       0.00254117      -0.00129006
C       -1.16355701       0.81669712      -0.73620774      -0.05285072       0.00009497      -0.00131565       0.00358037
C        0.19946082       1.05629255      -0.68957048      -0.05026547      -0.00046496      -0.00231566       0.00373923
H        5.26594689       1.71941928      -1.10736292       0.04335038      -0.00273400      -0.00082237      -0.00226546
H        6.34706132       0.47443048       0.68669545       0.04929542       0.00293572       0.00054517       0.00112508
H        4.72310464       0.01282723       1.39388741       0.04029261      -0.00638745       0.00382699      -0.00083152
H        2.98946049      -0.53683278       0.20630063       0.13867214       0.00043450      -0.00451890       0.00384333
H        1.19034860      -1.91652327       0.55185272       0.04871156      -0.00310207       0.00122383      -0.00262339
H       -1.19322210      -2.33083283       0.48326768       0.04018705       0.00120178       0.00387847      -0.00449728
H       -3.39115400      -1.55137373       1.47796768       0.03453860       0.00425643       0.00004673      -0.00174451
H       -3.24237237      -2.68497721       0.11989412       0.03704218       0.00240564      -0.00055375      -0.00143283
H       -4.70112202      -1.73415899       0.30228512       0.03739907      -0.00115981      -0.00130131       0.00056684
H       -3.76509614       0.96267437      -1.57334929       0.03678104       0.00246821       0.00153073      -0.00449171
H       -3.86703954       1.22178929       0.17957360       0.03528019       0.00262569       0.00070186       0.00131392
H       -4.99117892       0.12938279      -0.64271204       0.03772144      -0.00303895      -0.00125270       0.00137221
H       -1.79509300       1.61113114      -1.09886224       0.03855410      -0.00028727      -0.00319124       0.00305572
H        0.58955994       2.00630751      -1.01336738       0.03103313      -0.00612003      -0.00103965       0.00134879
