26
Properties=species:S:1:pos:R:3:charge:R:1:forces:R:3 energy=-24966.46202179431 pbc="F F F"
C       -3.68251273      -1.13791348       1.74897447      -0.04165450      -0.00124868      -0.00197522      -0.00258870
C       -2.32261795      -0.90896451       1.63878955      -0.05195647      -0.00005720       0.00102721      -0.00060720
C       -1.79680092      -0.27738795       0.51164733       0.04354420       0.00384554       0.00032581       0.00010166
N       -0.40257916      -0.08552300       0.46592007      -0.09697987       0.00347797      -0.00367031      -0.00459522
C        0.33958960       0.54987525      -0.49662713       0.20194671       0.00276219       0.00091834       0.00003293
O       -0.13078426       1.06631700      -1.48838714      -0.29854798       0.00003200       0.00263965       0.00599766
C        1.83262292       0.54697847      -0.20231115      -0.03840751      -0.00200652      -0.00171028       0.00271652
C        2.60746979       1.33401374      -1.24736789      -0.03566219      -0.00309825      -0.00632640       0.00305228
S        4.38440903       1.40771903      -0.92715619      -0.13025582      -0.00135436       0.00035620      -0.00103762
C        4.83270693      -0.27652297      -1.37856791      -0.06185180       0.00092536      -0.00276409       0.00107177
C       -2.65607798       0.12590914      -0.50743670      -0.05504743       0.00404436      -0.00182810       0.00116682
C       -4.01711363      -0.11101600      -0.38354800      -0.04288877       0.00293840      -0.00037020      -0.00060042
C       -4.54142288      -0.74070266       0.73413328      -0.04578778      -0.00108724       0.00544510       0.00020097
H       -5.60315226      -0.91926756       0.81535332       0.04483311      -0.00127933       0.00188373      -0.00064403
H       -4.06756691      -1.62851914       2.63245449       0.04547261       0.00251427      -0.00233793       0.00234126
H       -1.65795098      -1.22161527       2.43415312       0.04790264      -0.00132201      -0.00097834      -0.00031341
H        0.09836769      -0.46089165       1.25289830       0.15144973      -0.00409971       0.00336962      -0.00262173
H        2.17960879      -0.48945787      -0.16435098       0.04420865       0.00136446       0.00030516      -0.00233400
H        2.00588181       0.97198180       0.78830529       0.04400726      -0.00169509       0.00831961      -0.00165076
H        2.43629217       0.90926851      -2.23240676       0.03828869      -0.00082636       0.00883459      -0.00443646
H        2.24715482       2.35942713      -1.27529765       0.03783776       0.00390859      -0.00610828      -0.00038016
H        4.40329228      -1.00502926      -0.69723044       0.04244763      -0.00285787      -0.00035181      -0.00214390
H        4.51820275      -0.50121275      -2.39498850       0.04143855       0.00226219      -0.00119047       0.00278282
H        5.91554796      -0.34748344      -1.32538793       0.04134006       0.00002394       0.00093852       0.00143201
H       -2.25624631       0.61542506      -1.37816914       0.03027430      -0.00212799      -0.00059811       0.00111928
H       -4.67128654       0.20788196      -1.18282874       0.04404814      -0.00503892      -0.00415390       0.00193712
