20
Properties=species:S:1:pos:R:3:charge:R:1:forces:R:3 energy=-13025.514285792078 pbc="F F F"
C        4.11704470      -0.11019651      -1.12062598      -0.06490840      -0.00189171      -0.00051913      -0.00077836
C        3.01563881       0.53500071      -0.76897481      -0.04475597      -0.00575207      -0.00008037      -0.00113501
C        1.73545260      -0.21223626      -0.56881618       0.17705666      -0.00130417       0.00086390       0.00945846
O        1.65783805      -1.41400993      -0.72032376      -0.30349666      -0.00054950       0.00232740      -0.00253622
N        0.67639192       0.57995924      -0.20183950      -0.10180576       0.00008122       0.00295639      -0.00194158
C       -0.65546897       0.18882559       0.05987136       0.04678407       0.00434862       0.00249389      -0.00318360
C       -1.55697732       1.19013886       0.41894345      -0.04812202       0.00564582      -0.00146770       0.00198611
C       -2.87982095       0.88601294       0.69085328      -0.03712593       0.00253475       0.00123647      -0.00463737
C       -3.32279628      -0.42587497       0.60545459      -0.04133927      -0.00005081      -0.00323336       0.00291130
C       -2.42459827      -1.41881429       0.24642146      -0.03930639       0.00302013      -0.00387228      -0.00003125
C       -1.09602563      -1.12813780      -0.02531984      -0.05201121       0.00372021       0.00429746      -0.00267206
H       -0.40304193      -1.90397552      -0.30035267       0.03047127      -0.00288699       0.00424743      -0.00170450
H        5.05143034       0.40922758      -1.27017951       0.04927479       0.00347428       0.00060663      -0.00061699
H        4.09548399      -1.18043639      -1.26509062       0.03737285       0.00311404      -0.00442645      -0.00085028
H        3.02680943       1.60954020      -0.62223812       0.05384436      -0.00045037      -0.00021171       0.00105222
H        0.85727876       1.56308320      -0.10447133       0.14971535      -0.00191189      -0.00156725       0.00019777
H       -1.21527627       2.21543413       0.48518554       0.04872076       0.00208337       0.00077020       0.00025733
H       -3.56037171       1.67939383       0.96847983       0.04729782      -0.00355992       0.00105258       0.00178110
H       -4.35264501      -0.67074037       0.81661353       0.04661081      -0.00677041      -0.00013448      -0.00199199
H       -2.75524772      -2.44534010       0.17299466       0.04572283      -0.00289495      -0.00534023       0.00443504
