28
Properties=species:S:1:pos:R:3:charge:R:1:forces:R:3 energy=-30535.09061041542 pbc="F F F"
C       -3.66658745       0.27091530      -1.36153899      -0.02970010      -0.00416949       0.00150719      -0.00005058
C       -4.43642165       0.89203416      -0.38514099      -0.02953123      -0.00018093       0.00036494       0.00409417
C       -3.81659892       1.34179029       0.75675060      -0.03180357       0.00162135       0.00509177       0.00065168
C       -2.44866596       1.17445287       0.92328207       0.03472609      -0.00185687       0.00075511       0.00317834
N       -1.90621399       1.69393638       2.17889789       0.23897927      -0.00043968      -0.00089887       0.00329765
O       -2.66194076       2.26322746       2.93524154      -0.22788954      -0.00348014      -0.00016510      -0.00242736
O       -0.71430721       1.53650723       2.42955906      -0.21174455       0.00360927      -0.00133615       0.00177590
C       -1.65454392       0.54926022      -0.05371223       0.06078870      -0.00639551      -0.00232492       0.00018629
N       -0.28366240       0.38817690       0.11958969      -0.09511051      -0.00297428       0.00521177      -0.00154044
C        0.61875060      -0.18772514      -0.74835641       0.21387222      -0.00091193       0.00214247       0.00376339
O        0.32742311      -0.65463197      -1.82772140      -0.28104183       0.00623713       0.00179255      -0.00383225
C        2.03267994      -0.17580311      -0.20062371      -0.03717358      -0.00445208      -0.00088091       0.00383044
C        3.03421456      -0.74907550      -1.19321342      -0.02769451      -0.00033805      -0.00006707       0.00297605
S        4.74181913      -0.71083411      -0.59889917      -0.10173800       0.00619179      -0.00037322      -0.00230313
C        4.66646382      -2.05282125       0.60193088      -0.05248270      -0.00308845      -0.00060454      -0.00104580
C       -2.30756807       0.09991052      -1.20631304      -0.04126278      -0.00182394      -0.00483410      -0.00562852
H       -4.13170079      -0.08986101      -2.26712909       0.04956412       0.00171289      -0.00104592       0.00181229
H       -5.50051140       1.02319039      -0.51262725       0.05378263       0.00432373      -0.00130877       0.00034366
H       -4.37544279       1.82859546       1.53751387       0.04862339      -0.00132081       0.00157759      -0.00006386
H        0.06421509       0.74845524       1.00000003       0.12015682       0.00228847      -0.00504344       0.00201338
H        2.30344443       0.84896040       0.05700986       0.04510546       0.00223142      -0.00098735      -0.00485411
H        2.04627773      -0.74575183       0.73153532       0.04520975      -0.00017890       0.00010158       0.00536779
H        2.76865642      -1.77136643      -1.44670853       0.04210231       0.00287839      -0.00009720       0.00111519
H        3.00998131      -0.17325862      -2.11465656       0.04207999       0.00694057      -0.00374589       0.00053060
H        4.35866298      -2.98068354       0.12662020       0.04578187      -0.00613004      -0.00093285      -0.00442036
H        3.99144337      -1.82537754       1.42165079       0.04599898      -0.00026205       0.00856514       0.00288338
H        5.66754023      -2.18073021       1.00291695       0.04646874      -0.00051458       0.00003106      -0.00419320
H       -1.72788437      -0.38330004      -1.97167452       0.03393249       0.00048291      -0.00249467      -0.00746055
