26
Properties=species:S:1:pos:R:3:charge:R:1:forces:R:3 energy=-24966.491315693856 pbc="F F F"
C       -2.97282118      -0.90887900       1.98967996      -0.04175500      -0.00430282       0.00642954       0.00072528
C       -1.72200128      -0.53507146       1.53035846      -0.05104957      -0.00062339      -0.00800488       0.00019838
C       -1.52059211      -0.24860343       0.18122524       0.04476760      -0.00024616      -0.00010412       0.00209624
N       -0.23336030       0.16271109      -0.21254055      -0.09757996       0.00157460       0.00015472       0.00097278
C        0.27031776       0.22070859      -1.48082434       0.19006884      -0.00306154       0.00395357      -0.00534355
O       -0.32690199      -0.15367790      -2.46983905      -0.31362274       0.00462845       0.00406507       0.00181924
C        1.68069854       0.76886833      -1.55627083      -0.03349720       0.00187961      -0.00070088       0.00087706
C        2.70997471      -0.27655580      -1.11091021      -0.02479517       0.00413611      -0.00324466       0.00379085
S        2.93560333      -0.41298458       0.68408418      -0.09798338      -0.00201287       0.00136097       0.00038081
C        3.76709216       1.15721691       0.98896344      -0.05692663      -0.00085156       0.00145972      -0.00070936
C       -2.58419739      -0.35100811      -0.71137680      -0.05434676       0.00219639      -0.00409384      -0.00009456
C       -3.83230795      -0.72173785      -0.23619743      -0.04311124       0.00040628       0.00394116      -0.00038793
C       -4.03917476      -0.99958224       1.10684187      -0.04583310       0.00095442      -0.00431176      -0.00296984
H       -5.01940621      -1.28423816       1.45976616       0.04474733       0.00442539      -0.00397152       0.00014944
H       -3.10952429      -1.12885145       3.04013860       0.04582854       0.00076731       0.00258282       0.00076531
H       -0.89173853      -0.46914418       2.22097880       0.04580411      -0.00141207       0.00544243      -0.00012020
H        0.41543892       0.31317794       0.54536389       0.11507162       0.00037781      -0.00025520       0.00366500
H        1.86270601       1.03715613      -2.59210289       0.04795281      -0.00185113      -0.00499368      -0.00148384
H        1.77025126       1.66530257      -0.94604685       0.04159051      -0.00454385       0.00139260       0.00122305
H        3.68301353      -0.06033755      -1.54560414       0.04290627       0.00167855       0.00288190      -0.00296401
H        2.40449816      -1.25692559      -1.47170853       0.03902490       0.00260675      -0.00109124      -0.00247633
H        3.12573864       2.00386296       0.76241001       0.04231135       0.00055780      -0.00077500       0.00212165
H        4.01803282       1.18709888       2.04578242       0.04310308      -0.00302005      -0.00334659      -0.00398530
H        4.68405146       1.22980762       0.41047595       0.04178662      -0.00377746      -0.00189080      -0.00071056
H       -2.42659602      -0.14418038      -1.75543470       0.03124431      -0.00027417      -0.00001567       0.00086826
H       -4.65375981      -0.79391019      -0.93564830       0.04429267      -0.00021246       0.00313538       0.00159276
