25
Properties=species:S:1:pos:R:3:charge:R:1:forces:R:3 energy=-24950.585899826347 pbc="F F F"
O        1.06173259       1.24543239      -0.14138319      -0.37605602       0.00333583      -0.00120182       0.00552190
C        0.92539957       0.11380481      -0.66373691       0.09462631      -0.00292868       0.00069981      -0.00001057
C        1.89263104      -0.64901708      -1.29540865      -0.24230352      -0.00165286      -0.00028681       0.00203683
C        3.29317741      -0.18308782      -1.35474063      -0.05637541       0.00200258       0.00139114       0.00052719
N       -0.37839830      -0.51407115      -0.60280380      -0.14131254      -0.00010429      -0.00143585      -0.00385549
C       -1.57259656      -0.00122910      -0.16238893       0.05896164       0.00137441      -0.00217618      -0.00030743
C       -1.73804337       1.32675137       0.26336162      -0.06313728       0.00190123      -0.00383226       0.00493217
C       -2.97850497       1.76584911       0.69350897      -0.05284161       0.00273165       0.00525575      -0.00343891
C       -4.08744263       0.92668593       0.72193438      -0.08363549       0.00143916       0.00014106      -0.00529927
C       -3.93037357      -0.38681885       0.30059927      -0.05701277       0.00032408      -0.00524269      -0.00296781
C       -2.69849018      -0.84262841      -0.13655833      -0.07684059       0.00218507       0.00143667      -0.00150663
H        1.68692546      -1.65473800      -1.64876892       0.01451132       0.00472102      -0.00211012      -0.00669401
H        3.34296234       0.89640405      -1.21240354       0.00850862      -0.00360488       0.00365318      -0.00074414
H        3.79965547      -0.43450126      -2.28780649       0.00065151      -0.00357736      -0.00901092      -0.00227971
H       -0.41470779      -1.43810922      -0.98977026       0.11455463      -0.00084086      -0.00145032       0.00104454
H       -0.87758197       1.97251791       0.24347757       0.01392553       0.00011375      -0.00402565       0.00765018
H       -3.07662568       2.79527820       1.01551441       0.01537402       0.00055742       0.00855129       0.00253646
H       -5.04734424       1.28735765       1.06225766       0.01670239       0.00054029       0.00066769       0.00169759
H       -4.77145424      -1.06906305       0.31084335       0.01615860      -0.00684367      -0.00362827      -0.00319746
H       -2.58348480      -1.86787831      -0.46659753       0.01956278      -0.00362263       0.00179424       0.00472621
S        4.44844882      -0.89058688      -0.06506616      -0.18977231       0.00302833       0.00389882       0.00026228
C        3.56228188      -0.29121944       1.37659136      -0.08652614      -0.00340463       0.00417428       0.00056838
H        3.51129676       0.79328792       1.35582070       0.01881063       0.00527990      -0.00088974       0.00578677
H        4.07377553      -0.62722507       2.27821676       0.00834944      -0.00270373       0.00622330      -0.00600165
H        2.54357722      -0.66644968       1.34985808       0.02510739      -0.00025103      -0.00259601      -0.00098734
