26
Properties=species:S:1:pos:R:3:charge:R:1:forces:R:3 energy=-24966.46206087533 pbc="F F F"
C       -4.10798769       0.77907555      -0.83779767      -0.04164542       0.00024665       0.00063936      -0.00102518
C       -2.73301825       0.80308062      -0.98779543      -0.05195092       0.00200682       0.00078933      -0.00024790
C       -1.91202904       0.05822152      -0.14110043       0.04351372       0.00322572      -0.00014870      -0.00083263
N       -0.52187604       0.13777020      -0.34967269      -0.09696539       0.00266051       0.00088493       0.00205599
C        0.47792633      -0.53727130       0.30266935       0.20193905       0.00341841       0.00243029       0.00042753
O        0.28840487      -1.34520841       1.18743766      -0.29856038       0.00430905      -0.00220607      -0.00502726
C        1.87000800      -0.17257307      -0.19235336      -0.03839840      -0.00012188       0.00067098       0.00078709
C        2.94146937      -1.00050937       0.49952283      -0.03565896      -0.00361199      -0.00217180      -0.00189223
S        4.61675570      -0.64937245      -0.07999267      -0.13024928      -0.00336887       0.00654939       0.00139375
C        4.86953629       0.94909982       0.70909773      -0.06189531      -0.00200458       0.00376835       0.00144152
C       -2.48968268      -0.71530059       0.86258632      -0.05504669      -0.00065518       0.00020924      -0.00204297
C       -3.86962280      -0.72816897       1.00205090      -0.04289832      -0.00135841      -0.00027708       0.00003367
C       -4.68723274       0.01047220       0.16161440      -0.04577688      -0.00085766       0.00418037       0.00326890
H       -5.75982567      -0.01025036       0.28267945       0.04483140      -0.00429230      -0.00291090       0.00176240
H       -4.72417826       1.36480274      -1.50612865       0.04547451      -0.00064825       0.00110185      -0.00331572
H       -2.28743633       1.40510284      -1.76952877       0.04789500      -0.00018933       0.00025889      -0.00056324
H       -0.24384497       0.76579276      -1.08404982       0.15144464       0.00252453      -0.00065516       0.00250279
H        1.92018945      -0.32636768      -1.27218562       0.04404403       0.00095535      -0.00576286       0.00327634
H        2.03438582       0.89459361      -0.01875041       0.04422077       0.00451449      -0.00150446       0.00078017
H        2.76000546      -2.05700298       0.31943329       0.03781219      -0.00047521      -0.00419245      -0.00046505
H        2.89198587      -0.84890980       1.57409907       0.03831546       0.00119282       0.00020466      -0.00204019
H        5.89881055       1.24320346       0.52319157       0.04136358      -0.00073591      -0.00495254      -0.00352422
H        4.71596052       0.87774777       1.78316713       0.04140621       0.00302092       0.00344640       0.00145413
H        4.21183173       1.70997720       0.29959015       0.04245666      -0.00414745       0.00047016       0.00019950
H       -1.86145170      -1.29362806       1.51723618       0.03028674      -0.00281733       0.00329970      -0.00009538
H       -4.30405056      -1.33108834       1.78691345       0.04404194      -0.00279158      -0.00412223       0.00168782
