25
Properties=species:S:1:pos:R:3:charge:R:1:forces:R:3 energy=-37458.92747156108 pbc="F F F"
O        0.81478394      -1.15180301      -0.54692299      -0.36866450      -0.00159191       0.00155125       0.00137330
C        0.83095301       0.08136542      -0.77341063       0.09749405       0.00639957       0.00217480       0.00379265
C        1.83032467       0.82235386      -1.37505339      -0.23616475       0.00501780       0.00047527       0.00182503
C        3.08791633       0.16947075      -1.80173893      -0.05341883       0.00103228       0.00049633      -0.00080500
N       -0.31814279       0.86315457      -0.34647395      -0.13565011       0.00194873       0.00004448       0.00416334
C       -1.52377611       0.43321071       0.13360468       0.06578632       0.00063547      -0.00089396       0.00438578
C       -1.85758681      -0.92406716       0.29098622      -0.06793107       0.00104346      -0.00248215       0.00440464
C       -3.09913685      -1.27521659       0.78589129      -0.04150140      -0.00200468      -0.00199997      -0.00000286
C       -4.05283906      -0.32846736       1.14783185      -0.07794060       0.00087612       0.00191437      -0.00301825
C       -3.70761952       1.00221611       0.98599746       0.02196254      -0.00201393       0.00278471      -0.00086371
Cl      -4.88099857       2.23716116       1.42761001      -0.15547591       0.00156672      -0.00050368      -0.00078364
C       -2.48218013       1.40058892       0.49253736      -0.06848768      -0.00112205       0.00148646       0.00001463
H        1.78613774       1.90416350      -1.44775696       0.01733288      -0.00096513       0.00036190      -0.00250302
H        3.49478743       0.57858581      -2.72744280       0.00403096       0.00045132      -0.00124426       0.00180260
H        2.93896525      -0.90239472      -1.93064763       0.01061276      -0.00454171       0.00354363      -0.00056175
H       -0.23781447       1.84817075      -0.51676540       0.11734135       0.00516128      -0.00144524      -0.00013539
H       -1.11741917      -1.65485959       0.01829301       0.01768601       0.00135821      -0.00205669       0.00182852
H       -3.33430728      -2.32658486       0.89512850       0.02124440       0.00384794      -0.00421403       0.00242715
H       -5.02026283      -0.60023833       1.53884226       0.02141805       0.00197048       0.00040974      -0.00579646
H       -2.25019447       2.45088051       0.38309261       0.02340015      -0.00385679       0.00263860      -0.00150574
S        4.52856103       0.31738996      -0.62439187      -0.18496642      -0.00433123       0.00148619      -0.00174615
C        3.76084910      -0.50503688       0.77570184      -0.08496061      -0.00276500       0.00077410      -0.00476311
H        4.46211849      -0.52146570       1.60952709       0.01125907      -0.00283519      -0.00152132      -0.00486385
H        2.85389279       0.02614158       1.04785759       0.02513923      -0.00318832      -0.00195824      -0.00169409
H        3.47980077      -1.51745683       0.50225523       0.02044525      -0.00209280      -0.00182206       0.00302561
