20
Properties=species:S:1:pos:R:3:charge:R:1:forces:R:3 energy=-13025.514275014864 pbc="F F F"
C        4.10056049       1.05792944      -0.21109436      -0.06490432       0.00020964      -0.00051554      -0.00170182
C        3.12461204       0.16363189      -0.18226647      -0.04474938      -0.00194716       0.00162893       0.00007849
C        1.69659277       0.60730290      -0.15232900       0.17703642      -0.00353885      -0.00066534       0.00385839
O        1.38381134       1.78003568      -0.15525211      -0.30355266      -0.00154109       0.00208286       0.00019227
N        0.79078407      -0.42326033      -0.12128284      -0.10176694       0.00174118      -0.00203825      -0.00007403
C       -0.61904761      -0.34460688      -0.08792032       0.04678121       0.00373905       0.00294865       0.00159773
C       -1.31725086       0.85875275      -0.07832718      -0.05200353      -0.00028374      -0.00056138      -0.00456303
C       -2.70358450       0.83951915      -0.04518595      -0.03929582      -0.00352210      -0.00085394       0.00298026
C       -3.40922672      -0.35346657      -0.02202246      -0.04134356      -0.00077577      -0.00461107       0.00046178
C       -2.70989980      -1.55160583      -0.03323539      -0.03711659       0.00515261      -0.00163754       0.00400137
C       -1.32594605      -1.54622759      -0.06382027      -0.04811125       0.00740026       0.00121960      -0.00589693
H       -0.78305929      -2.48312361      -0.06982214       0.04871312      -0.00166597       0.00039500      -0.00175273
H        3.86915962       2.11307427      -0.20983071       0.03737186       0.00269153       0.00260936      -0.00250900
H        5.13774995       0.75976997      -0.23666482       0.04926592       0.00311624       0.00168002       0.00324926
H        3.34681848      -0.89792090      -0.17969430       0.05385639      -0.00128578      -0.00014392      -0.00199897
H        1.16423031      -1.35541917      -0.12333875       0.14969788      -0.00050493      -0.00768049       0.00048767
H       -0.77592189       1.78834476      -0.09760505       0.03047988       0.00390407      -0.00284611       0.00200965
H       -3.23462616       1.78104355      -0.03721589       0.04573448      -0.00211137       0.00381477      -0.00032306
H       -4.48827794      -0.35062418       0.00523490       0.04660773      -0.00687046       0.00396196      -0.00361167
H       -3.23637954      -2.49629445      -0.01826874       0.04729909      -0.00390730       0.00121265       0.00351437
