26
Properties=species:S:1:pos:R:3:charge:R:1:forces:R:3 energy=-24966.461942811537 pbc="F F F"
C       -3.91332287      -0.93588419       0.14304642      -0.04289343       0.00120795       0.00227703       0.00332879
C       -4.64267777       0.07922837      -0.45556414      -0.04578139       0.00065351      -0.00261310       0.00267637
C       -3.98756100       1.23663401      -0.85177414      -0.04166450      -0.00532023      -0.00442358      -0.00127884
H       -4.53445567       2.04309448      -1.32126093       0.04547521       0.00492616      -0.00135622       0.00240775
C       -2.62531666       1.36840110      -0.64958609      -0.05195862      -0.00659545       0.00161013      -0.00596747
C       -1.89346658       0.34625852      -0.04510214       0.04353011      -0.00593756       0.00461585      -0.00235962
N       -0.51035190       0.55029260       0.12120374      -0.09682772      -0.00048976      -0.00134839      -0.00472247
C        0.40521376      -0.26992175       0.72865192       0.20187567       0.00044939      -0.00539324       0.00267425
O        0.12990822      -1.33381453       1.24223083      -0.29859138      -0.00485064      -0.00611882       0.00475718
C        1.82159015       0.28452318       0.69983581      -0.03834186       0.00747852      -0.00019339       0.00354214
C        2.78449327      -0.61465212       1.45879705      -0.03565061       0.00732291       0.00051930       0.00103568
S        4.47796983       0.01472587       1.50578114      -0.13035513      -0.00472034       0.00038930       0.00625313
C        4.96493922      -0.33196585      -0.19203230      -0.06184928       0.00083124       0.00066925      -0.00193464
C       -2.54783968      -0.81575425       0.35630683      -0.05505473       0.00005448       0.00067973      -0.00292636
H       -4.40778750      -1.84525048       0.45516685       0.04405334       0.00513911       0.00522752       0.00327443
H       -5.70589530      -0.02871692      -0.61055993       0.04482638       0.00526682       0.00320821      -0.00411106
H       -2.11985157       2.27283277      -0.96368240       0.04788646      -0.00177141       0.00116347       0.00254870
H       -0.16787544       1.42002163      -0.24912990       0.15143192       0.00355487       0.00017263      -0.00107987
H        1.82541322       1.28592005       1.13461005       0.04403742       0.00134879       0.00092370       0.00721933
H        2.13637379       0.39257074      -0.34188748       0.04422963      -0.00780533       0.00125108      -0.00279615
H        2.45539533      -0.71633553       2.48994402       0.03778160       0.00073516       0.00119012      -0.00344316
H        2.78216430      -1.61047303       1.02454678       0.03830117      -0.00063626       0.00025313       0.00704586
H        4.83005047      -1.38535215      -0.42488883       0.04144374       0.00292590      -0.00404442      -0.00502770
H        6.01964333      -0.08762339      -0.28173774       0.04135794       0.00318101       0.00285514      -0.00095383
H        4.40697936       0.27012294      -0.90276434       0.04244386      -0.00249185       0.00099479      -0.00522150
H       -1.98870149      -1.60559078       0.82665596       0.03029415      -0.00445647      -0.00250977      -0.00494098
