20
Properties=species:S:1:pos:R:3:charge:R:1:forces:R:3 energy=-13025.514290559004 pbc="F F F"
C        4.20257996       0.36710565       0.24932102      -0.06493513      -0.00075812       0.00350654      -0.00525820
C        3.12154129      -0.26908396      -0.17469876      -0.04477556      -0.00055908      -0.00388611       0.00600346
C        1.76055912       0.22630180       0.19873359       0.17704764      -0.00111250       0.00339916      -0.00630315
O        1.59874125       1.21248806       0.88757048      -0.30353040      -0.00700982      -0.00387590       0.00079240
N        0.73159840      -0.52912369      -0.30575524      -0.10179198       0.00073116      -0.00077147       0.00472199
C       -0.65743205      -0.33059547      -0.14205001       0.04681140       0.00341928      -0.00029954      -0.00381720
C       -1.19813873       0.71406113       0.60109064      -0.05200978       0.00591080      -0.00232829      -0.00188750
C       -2.57611187       0.83135138       0.70628767      -0.03927989       0.00637223       0.00195549      -0.00154811
C       -3.42707415      -0.07022965       0.08604312      -0.04134326      -0.00067185       0.00041262       0.00917620
H       -4.49721386       0.03611133       0.17910578       0.04660556      -0.00629505      -0.00138374      -0.00335046
C       -2.88474165      -1.11143323      -0.65327539      -0.03712115      -0.00148280       0.00242840       0.00322127
C       -1.51095383      -1.23968793      -0.76597262      -0.04812672       0.00047358      -0.00042068       0.00113659
H        4.10574191       1.24778329       0.86737645       0.03735735       0.00406615       0.00026478       0.00117672
H        5.19422175       0.02763448      -0.00923079       0.04926306       0.00124670       0.00028666       0.00334140
H        3.20858155      -1.15444662      -0.79503219       0.05386325      -0.00291735      -0.00008094      -0.00138662
H        0.98452818      -1.32571964      -0.86276466       0.14971611      -0.00550798       0.00292433      -0.00008297
H       -0.54298048       1.41741013       1.08444424       0.03047226       0.00158774      -0.00043030      -0.00049041
H       -2.98345624       1.64732119       1.28692019       0.04574588      -0.00151237      -0.00169473      -0.00181788
H       -3.52729539      -1.82922293      -1.14496872       0.04730259       0.00074831       0.00051551      -0.00262670
H       -1.09159625      -2.05360871      -1.34389094       0.04872873       0.00327121      -0.00052192      -0.00100062
