26
Properties=species:S:1:pos:R:3:charge:R:1:forces:R:3 energy=-24966.498682075387 pbc="F F F"
C       -3.38045720       1.31326593       0.94051707      -0.04255930       0.00104078      -0.00324564      -0.00196326
C       -3.70629920       0.11256950       1.55520831      -0.04647519       0.00052810      -0.00454318       0.00446270
C       -2.87961912      -0.98551215       1.37547781      -0.04337092       0.00386656      -0.00008854       0.00021955
H       -3.12012706      -1.92672409       1.84960474       0.04405640      -0.00106191      -0.00363700      -0.00136537
C       -1.73644875      -0.90796770       0.59198346      -0.05326155      -0.00384730       0.00287213      -0.00407164
C       -1.41137491       0.29923833      -0.02075066       0.04514359       0.00400766       0.00356162      -0.00171319
N       -0.26907375       0.47349597      -0.82659857      -0.09972808       0.00588999       0.00113392      -0.00110419
C        0.66484516      -0.45635426      -1.18284700       0.19304773       0.00378458      -0.00210248      -0.00003243
O        0.65523416      -1.61165263      -0.80757546      -0.29265296       0.00004627      -0.00097647       0.00032752
C        1.76969566       0.06861168      -2.07200059      -0.03297851      -0.00160021      -0.00057223      -0.00376859
C        3.13019883      -0.14405271      -1.41209796      -0.02891003       0.00248504      -0.00086078      -0.00426305
S        3.35723131       0.78976636       0.12580249      -0.12489650       0.00190090      -0.00140309      -0.00136232
C        2.69550402      -0.38494148       1.32944557      -0.06786886      -0.00302589       0.00063935      -0.00359301
C       -2.24058609       1.40609158       0.16117253      -0.05238264      -0.00203938      -0.00080791       0.00240667
H       -4.01225744       2.18226813       1.06237456       0.04534443       0.00403252      -0.00132091       0.00633624
H       -4.59378547       0.03563580       2.16561498       0.04445209       0.00159812       0.00065155      -0.00075601
H       -1.10242526      -1.76526392       0.44985102       0.02956348      -0.00237595       0.00785104      -0.00173680
H       -0.12926998       1.41066853      -1.15602407       0.14347279      -0.00255949      -0.00067275      -0.00057650
H        1.63876481       1.12209925      -2.32130665       0.04507190      -0.00087289      -0.00255125       0.00177540
H        1.73548062      -0.51146178      -2.99555349       0.05205738       0.00183527       0.00233290       0.00072286
H        3.91735967       0.18392017      -2.08754285       0.04228223       0.00501616      -0.00296566      -0.00217791
H        3.28087607      -1.20042374      -1.21144478       0.03939066      -0.00553359      -0.00005531       0.00691582
H        1.62581367      -0.25766817       1.46387661       0.03206627       0.00031648       0.00717989       0.00038423
H        3.19913676      -0.21101442       2.27753505       0.04225120      -0.00850971      -0.00033511      -0.00213365
H        2.89608194      -1.39756535       0.99968903       0.03942073       0.00019527      -0.00113670       0.00659899
H       -1.98946847       2.34626020      -0.31285068       0.04746358      -0.00511689       0.00105245       0.00046768
