26
Properties=species:S:1:pos:R:3:charge:R:1:forces:R:3 energy=-24966.49125607571 pbc="F F F"
C       -4.19034163       0.24967313       0.91682782      -0.04589556      -0.00091483       0.00015529      -0.00393940
C       -3.74190177      -0.98931605       0.48365136      -0.04318250       0.00335745      -0.00170283       0.00684273
C       -2.42196076      -1.18773182       0.11043483      -0.05441904       0.00278052       0.00581771      -0.00487879
C       -1.53349733      -0.11704552       0.16355063       0.04467563       0.00134351       0.00787912      -0.00488679
N       -0.18979088      -0.22232168      -0.24187675      -0.09753494      -0.00035680      -0.00012417       0.00484984
C        0.53174010      -1.36546030      -0.43655409       0.19021268       0.00279844       0.00117258       0.00033350
O        0.11299164      -2.48316160      -0.21229834      -0.31332919       0.00139023      -0.00296720      -0.00527954
C        1.94314552      -1.12329664      -0.92956006      -0.03354344       0.00483660       0.00174399       0.00382059
C        2.85525198      -0.65177943       0.20944774      -0.02485904       0.00235701      -0.00043024       0.00117021
S        2.75996925       1.12106660       0.58277876      -0.09804418      -0.00051744      -0.00435098      -0.00129529
C        3.55676290       1.77080337      -0.89805563      -0.05690047      -0.00338295      -0.00468221       0.00546092
C       -1.97762039       1.12757277       0.60651038      -0.05110511      -0.00128844       0.00149996       0.00147516
H       -1.28243565       1.95494190       0.66079649       0.04579941      -0.00387592       0.00024158      -0.00255575
C       -3.29751592       1.30966619       0.98040080      -0.04179704      -0.00035564      -0.00198336       0.00270218
H       -5.22319009       0.38664312       1.20089054       0.04471802       0.00072251      -0.00128253       0.00646349
H       -4.42617984      -1.82503497       0.43489317       0.04426226      -0.00481992       0.00188034      -0.00452489
H       -2.07596621      -2.15224148      -0.21815997       0.03117589      -0.00476205       0.00365404       0.00513299
H        0.31656736       0.65024109      -0.26732122       0.11529934      -0.00357101      -0.00864190      -0.00104588
H        1.94130036      -0.39226653      -1.73558933       0.04160456       0.00090868      -0.00197714       0.00004256
H        2.30960231      -2.06762765      -1.31945593       0.04794417       0.00360989       0.00198677       0.00184923
H        3.89390761      -0.88320540      -0.01518352       0.04291706      -0.00174651       0.00548671      -0.00238556
H        2.59417373      -1.18563677       1.12147752       0.03894385       0.00633915      -0.00273767      -0.00307367
H        2.97923016       1.55880367      -1.79292898       0.04240301       0.00083195      -0.00128426      -0.00161613
H        4.56027167       1.36873343      -1.00729514       0.04176845      -0.00293256      -0.00266899      -0.00012118
H        3.62392292       2.84838012      -0.77743678       0.04306865      -0.00051032       0.00345004      -0.00069168
H       -3.62340272       2.28288978       1.32275857       0.04581732      -0.00224088      -0.00013508      -0.00384889
