29
Properties=species:S:1:pos:R:3:charge:R:1:forces:R:3 energy=-34144.02003168412 pbc="F F F"
C       -1.84218127      -0.92387071      -0.81822004      -0.04347942       0.00194226      -0.00250859       0.00538287
C       -3.12513747      -0.40755444      -0.79943315      -0.02948830       0.00221849       0.00428691      -0.00157057
C       -3.41521496       0.75552881      -0.10357255      -0.03086501       0.00122959       0.00121325      -0.00196562
C       -4.79326875       1.34256798      -0.12562860       0.27509433      -0.00180304      -0.00146763       0.00150498
F       -5.14740500       1.84760586       1.07399357      -0.12387843       0.00185845       0.00045223      -0.00329153
F       -4.88965792       2.36058157      -1.00833314      -0.12943983      -0.00037894      -0.00787384       0.00241585
F       -5.73052890       0.44186725      -0.47101052      -0.11915085       0.00207583       0.00523878       0.00083145
C       -2.40820331       1.41119041       0.59167524      -0.02542620      -0.00720684      -0.00002059       0.00076456
C       -1.12517070       0.90602564       0.57382266      -0.03831426      -0.00145413      -0.00062182       0.00249773
C       -0.82838998      -0.26060908      -0.13209564       0.05707433      -0.00265631       0.00501849      -0.00486650
N        0.50709077      -0.69504172      -0.13386725      -0.09102762      -0.00137195      -0.00132112       0.00066558
C        0.97917385      -1.91397135      -0.53689751       0.19588178       0.00056930       0.00012998      -0.00237293
O        0.27471224      -2.82591299      -0.91709238      -0.31238273       0.00355201       0.00028382       0.00164742
C        2.48735465      -2.09363535      -0.48473470      -0.03078538       0.00264409       0.00197912       0.00131544
C        3.36566925      -0.85507251      -0.34427189      -0.01700307       0.00119210       0.00328293      -0.00057823
S        3.39464049      -0.19134804       1.34798141      -0.09043208       0.00149023      -0.00024774      -0.00383532
C        4.08608073       1.43697612       0.99380129      -0.05350784      -0.00117347      -0.00501119      -0.00153584
H       -1.62867250      -1.82929227      -1.35640880       0.03484958       0.00122560       0.00262004       0.00162667
H       -3.90650076      -0.92727236      -1.33170022       0.04946308      -0.00028757       0.00290703       0.00183719
H       -2.63010557       2.30987031       1.14919640       0.05265208       0.00242210      -0.00539069      -0.00589024
H       -0.34643219       1.42522928       1.11627767       0.04731767       0.00177215      -0.00218862       0.00134921
H        1.17135292      -0.07372561       0.30317557       0.10691082      -0.00178857      -0.00137682      -0.00126059
H        2.74524813      -2.61553860      -1.40481984       0.05053789      -0.00102522       0.00437564      -0.00173293
H        2.68533786      -2.78694364       0.33119338       0.04159000      -0.00195732      -0.00142781       0.00452298
H        3.04360831      -0.07530167      -1.03145321       0.04196203      -0.00004036      -0.00141360       0.00290397
H        4.39198495      -1.10055248      -0.60569847       0.04665460      -0.00266538      -0.00068839      -0.00052473
H        5.04874184       1.34698884       0.49961580       0.04437727       0.00437365      -0.00255333       0.00103869
H        4.21992905       1.95232284       1.94012260       0.04606400       0.00082996      -0.00152574       0.00203155
H        3.40739300       2.01206337       0.37039314       0.04475147      -0.00558708       0.00384926      -0.00291125
