35
Properties=species:S:1:pos:R:3:charge:R:1:forces:R:3 energy=-31242.544716060507 pbc="F F F"
O        3.19630119       1.36515685      -0.00372290      -0.36281037      -0.00046558       0.00109945      -0.00030970
C        2.84655914       0.37845358       0.68704317       0.10297576      -0.00231811       0.00336108      -0.00199613
C        3.64160325      -0.39407761       1.52044892      -0.22733304      -0.00104407       0.00348596      -0.00492971
C        5.08819536      -0.10915361       1.63834938      -0.05156671      -0.00143060      -0.00572712      -0.00003631
N        1.46317650      -0.04213405       0.61902664      -0.13145441       0.00083558      -0.00115428       0.00073052
C        0.39369068       0.57658589       0.02740773       0.04274601       0.00170222       0.00128254       0.00638857
C        0.49362200       1.80026468      -0.65619126      -0.08012315       0.00093512      -0.00395410       0.00104487
C       -0.64179070       2.35556116      -1.21280819      -0.06030659       0.00437989       0.00176080       0.00158344
C       -1.88697989       1.74432827      -1.11855473      -0.07419802       0.00319581       0.00051741      -0.00228462
C       -1.99632079       0.52670920      -0.45113777      -0.00658452      -0.00268613       0.00475093       0.00630712
C       -3.31145861      -0.15653042      -0.33784211       0.00155365      -0.00345976       0.00054985      -0.00205454
C       -4.49090979       0.56906530      -0.16118940      -0.04388047      -0.00462128      -0.00018041       0.00241717
C       -5.71700215      -0.06737402      -0.04407779      -0.05491072      -0.00107150      -0.00293793       0.00352292
C       -5.79419897      -1.45282875      -0.11555823      -0.05911622       0.00000485       0.00116557      -0.00507908
C       -4.63126316      -2.18904735      -0.29987234      -0.05490872      -0.00023976      -0.00145398       0.00756843
C       -3.40623759      -1.54753801      -0.40431256      -0.04053441      -0.00114702       0.00000119      -0.00270956
C       -0.86197537      -0.04271607       0.11279366      -0.07701209       0.00160049      -0.00078577      -0.00114356
H        3.27708559      -1.28383687       2.02179308       0.02152932       0.00655994       0.00297014      -0.00322024
H        5.48473187      -0.28535156       2.63858092       0.00984870       0.00683016       0.00225139      -0.00023962
H        5.30721486       0.91836338       1.34944111       0.01364615      -0.00574047      -0.00481973       0.00315626
H        1.25401050      -0.85396008       1.16987406       0.12194638      -0.00317426      -0.00321575      -0.00352232
H        1.46077194       2.26397232      -0.72097021       0.01841460      -0.00010050      -0.00648621      -0.00630163
H       -0.55142741       3.29716783      -1.74034981       0.02519910      -0.00056889       0.00216451      -0.00105317
H       -2.75514210       2.19587514      -1.57462076       0.02588456       0.00023268      -0.00046219       0.00061325
H       -4.44247777       1.64722256      -0.10326847       0.02383804       0.00201256      -0.00025980      -0.00152293
H       -6.61406374       0.52018763       0.10543041       0.02460159      -0.00169935      -0.00304533      -0.00367094
H       -6.74906060      -1.95207278      -0.02949130       0.02341873       0.00115469       0.00232703       0.00207489
H       -4.67867312      -3.26914876      -0.36159703       0.02444164       0.00056245       0.00063877      -0.00352568
H       -2.50922640      -2.13086555      -0.55560351       0.02375536       0.00021675       0.00143337       0.00080715
H       -0.93696198      -0.97898588       0.65138501       0.02835896      -0.00451468       0.00114369       0.00102054
S        6.21919150      -1.15240508       0.57365299      -0.18572402       0.00443722       0.00005495       0.00285765
C        5.56318268      -0.65207750      -1.02287871      -0.08506902      -0.00105243       0.00124659       0.00006943
H        5.64034526       0.42515962      -1.13718536       0.02272926       0.00047437       0.00014543       0.00027675
H        4.51078759      -0.91485291      -1.07723526       0.02463590       0.00237630       0.00015594      -0.00033954
H        6.12430818      -1.15503926      -1.81029006       0.01600040      -0.00217664       0.00197540       0.00350040
