30
Properties=species:S:1:pos:R:3:charge:R:1:forces:R:3 energy=-19317.354721145264 pbc="F F F"
C        5.02911369       1.27138540      -0.10173446      -0.05942698       0.00586201      -0.00018600       0.00295835
C        4.97217988      -0.01241049       0.22083183      -0.04464787       0.00126528      -0.00290751      -0.00484911
C        3.78385885      -0.73257631       0.76906233       0.17269130      -0.00019306       0.00252505       0.00281629
O        3.93424889      -1.69077557       1.50008702      -0.31793886      -0.00205649       0.00059609      -0.00337422
N        2.57997545      -0.23677173       0.35492901      -0.09562983       0.00009644      -0.00133920       0.00307221
C        1.29040621      -0.68996816       0.70466421       0.05336318       0.00092618       0.00351702      -0.00556333
C        1.07549955      -1.70879817       1.62786351      -0.04907003       0.00421975       0.00815857       0.00171737
C       -0.22517265      -2.08905322       1.91264676      -0.03465584       0.00357906      -0.00109000       0.00062209
C       -1.30886865      -1.48441941       1.29778192      -0.03753441      -0.00024054       0.00112407      -0.00221007
C       -1.10031013      -0.45571956       0.38440109      -0.00622978      -0.00415020       0.00490870       0.00058472
C       -2.24482696       0.21644113      -0.27479802      -0.01150395      -0.00614136       0.00067974      -0.00195360
C       -2.26726016       1.60265905      -0.40983857      -0.03922615      -0.00009727      -0.00022753      -0.00275749
C       -3.33155028       2.23306440      -1.03892448      -0.03795272       0.00007161       0.00076558       0.00154090
C       -4.38443691       1.48517965      -1.54614370      -0.04073410       0.00189839      -0.00084678       0.00047745
C       -4.37268809       0.10366361      -1.41333081      -0.03809081      -0.00066479       0.00002489      -0.00050178
C       -3.31359758      -0.52458558      -0.77434159      -0.04006937      -0.00527251       0.00076392      -0.00053703
C        0.20274320      -0.06698268       0.09613441      -0.04732396      -0.00318948      -0.00451314      -0.00249878
H        5.93255052       1.70614141      -0.50179167       0.05229534       0.00563100       0.00553570       0.00005633
H        4.20145306       1.95418379       0.04213832       0.04253078      -0.00073183      -0.00420573       0.00227116
H        5.84210436      -0.64788333       0.14826772       0.04661966       0.00255977      -0.00125416      -0.00010060
H        2.61924826       0.47344703      -0.35197077       0.14302370      -0.00731623       0.00058444       0.00354170
H        1.91464749      -2.18340333       2.10278908       0.03197865      -0.00061068      -0.00077560      -0.00176034
H       -0.38542513      -2.87782708       2.63383321       0.04946145      -0.00075662      -0.00657790       0.00256322
H       -2.31624026      -1.80166165       1.52781461       0.04213030      -0.00088698       0.00171214       0.00296898
H       -1.45609452       2.19405566      -0.00900371       0.04026434       0.00167062      -0.00163218      -0.00496046
H       -3.34091752       3.31006559      -1.13262126       0.04750788       0.00132766       0.00076750      -0.00076887
H       -5.20913265       1.97621399      -2.04144420       0.04622728       0.00025231      -0.00467855       0.00300422
H       -5.18923966      -0.48419304      -1.80877749       0.04763953       0.00031378      -0.00024930       0.00258062
H       -3.31232020      -1.60043058      -0.66722727       0.04031243      -0.00018822       0.00177366      -0.00418030
H        0.37477723       0.72883581      -0.61891258       0.04398879       0.00282229      -0.00295392       0.00524072
