30
Properties=species:S:1:pos:R:3:charge:R:1:forces:R:3 energy=-19317.401378151597 pbc="F F F"
C        6.31335246      -0.03563300       1.30562883      -0.06677160      -0.00132636      -0.00058687       0.00227848
C        5.36046237       0.02357514       0.38805094      -0.04617275       0.00109880       0.00358438       0.00297631
C        3.92236855      -0.03933297       0.79232132       0.17699850       0.00556435      -0.00257969      -0.00085730
O        3.57936656      -0.16368035       1.94962453      -0.30475503       0.00455724       0.00109352      -0.00166155
N        3.04196282       0.05703869      -0.25670281      -0.10113925       0.00149173       0.00812705       0.00217827
C        1.63239221       0.03974634      -0.21303133       0.04981120      -0.00030386       0.00361754      -0.00261969
C        0.90232929      -0.17644157       0.95363775      -0.04661916      -0.00181629      -0.00205171      -0.00183301
C       -0.48145018      -0.19396480       0.89520634      -0.03649788       0.00176759       0.00561494       0.00245417
C       -1.16826998       0.01287871      -0.29582875      -0.01124299       0.00168418      -0.00588799       0.00074007
C       -2.64950920      -0.00449945      -0.33455704      -0.01262457       0.00136785       0.00373406      -0.00103460
C       -3.36972737      -0.96214144       0.37758127      -0.04127702       0.00616132       0.00213011      -0.00484046
C       -4.75506113      -0.99063136       0.32385216      -0.03924987       0.00042596      -0.00427494       0.00419466
C       -5.44303069      -0.05118877      -0.43074856      -0.04213599       0.00288234      -0.00477944       0.00171389
C       -4.73740476       0.91376121      -1.13518377      -0.03919161      -0.00605118       0.00319321       0.00518168
C       -3.35202698       0.93388732      -1.08989720      -0.04129000       0.00328471      -0.00147509      -0.00585472
C       -0.42725663       0.23594509      -1.45255024      -0.03361737      -0.00159758       0.00424226      -0.00092074
C        0.95380317       0.24506526      -1.41247802      -0.04298432      -0.00488612      -0.00293442      -0.00527099
H        7.35831902       0.01181246       1.03886028       0.04882369      -0.00767914      -0.00381606       0.00289061
H        6.05498208      -0.13350316       2.34999938       0.03696282       0.00529193       0.00073425      -0.00180238
H        5.60626509       0.11889733      -0.66356697       0.05356854      -0.00612001      -0.00018111       0.00525838
H        3.43589914       0.18099820      -1.17096927       0.15081149       0.00488372      -0.00400868       0.00303847
H        1.41964132      -0.32478833       1.88503868       0.03280945      -0.00239301      -0.00646901      -0.00108794
H       -1.03819065      -0.35653899       1.80746252       0.04144420      -0.00424361       0.00051236       0.00002342
H       -2.84328903      -1.69986900       0.96776478       0.03997105       0.00303045       0.00318853      -0.00722817
H       -5.29874925      -1.74908201       0.86957545       0.04703732      -0.00373298      -0.00154307       0.00858377
H       -6.52201181      -0.07151641      -0.46981937       0.04567459      -0.00396434      -0.00046499       0.00261115
H       -5.26787975       1.65272876      -1.71954113       0.04703849      -0.00141418       0.00266528      -0.00263726
H       -2.81233804       1.69345157      -1.63850101       0.03990671       0.00395841       0.00045881       0.00068249
H       -0.93594027       0.38856103      -2.39394101       0.04282005       0.00026426      -0.00118549      -0.00370874
H        1.51571685       0.41234216      -2.32406229       0.05189124      -0.00218605      -0.00065777      -0.00344818
