32
Properties=species:S:1:pos:R:3:charge:R:1:forces:R:3 energy=-31171.8161401293 pbc="F F F"
C       -3.57491256      -2.42897557       0.02437340      -0.03651734      -0.00111980      -0.00309819       0.00060260
C       -2.42009022      -3.09143543      -0.36941407      -0.03554486      -0.00089911       0.00503768       0.00064869
C       -1.21780154      -2.42547021      -0.49688866      -0.04819243      -0.00034478      -0.00275966       0.00499085
C       -1.14117553      -1.05737837      -0.22997976       0.04962843      -0.00553265      -0.00139945      -0.00077222
N        0.04880688      -0.34392937      -0.34347794      -0.10524966      -0.00329096      -0.00159557       0.00265623
C        1.27950756      -0.80947405      -0.73344652       0.20444748      -0.00336054      -0.00271964      -0.00525814
O        1.51546448      -1.95716325      -1.04792934      -0.29147041      -0.00182671      -0.00190611      -0.00132847
C        2.33506169       0.28082684      -0.72915869      -0.04192842       0.00081607      -0.00007517      -0.00310070
C        3.68115623      -0.22954720      -1.22261809      -0.03217902       0.00178682       0.00223171       0.00116285
S        4.96009861       1.04664546      -1.28980258      -0.11654734      -0.00570357      -0.00244911      -0.00528302
C        5.28589234       1.23097056       0.47161086      -0.05749400       0.00079366      -0.00021059       0.00126287
C       -2.31218028      -0.37778138       0.16931210      -0.03410417      -0.00259851      -0.00099818       0.00037907
C       -2.30022701       1.07230406       0.46571889       0.23753053      -0.00291100       0.00015315      -0.00472245
O       -1.32479109       1.79844810       0.40769622      -0.27511376       0.00110659      -0.00216598       0.00470039
O       -3.50029796       1.54728053       0.81838821      -0.12768108       0.00131294       0.00266064       0.00011442
C       -3.53669197       2.94658189       1.11320116       0.02739726       0.00050109      -0.00007789       0.00128378
C       -3.51119961      -1.07804724       0.28961152      -0.03547859      -0.00030155      -0.00188333      -0.00289948
H       -4.51003251      -2.95847137       0.12305206       0.05018732      -0.00082229      -0.00060605      -0.00218666
H       -2.44984786      -4.15025731      -0.58382048       0.04707887       0.00269402       0.00768159       0.00361302
H       -0.32951115      -2.94839811      -0.80043716       0.03205729       0.00095394       0.00176352      -0.00283056
H       -0.04687434       0.64216537      -0.10934728       0.11132735       0.00305067      -0.00073037      -0.00110711
H        2.41719697       0.67328905       0.28704324       0.04271649       0.00352272      -0.00261168      -0.00108675
H        1.99310247       1.10518068      -1.35613776       0.04220650      -0.00270538      -0.00057967      -0.00286692
H        4.02568701      -1.04710063      -0.59511854       0.04009018       0.00297317       0.00240162      -0.00237648
H        3.57903397      -0.62265755      -2.23116452       0.03973656       0.00316417       0.00099744       0.00470361
H        4.42179933       1.61870855       1.00314763       0.04398161       0.00068252       0.00519792       0.00216736
H        5.58494968       0.28213000       0.91021411       0.04348014      -0.00049294      -0.00258457       0.00544292
H        6.10376469       1.93813055       0.57531989       0.04378929       0.00353429       0.00018527       0.00072787
H       -3.22912637       3.52165374       0.24509419       0.04527885      -0.00107446       0.00213721       0.00481621
H       -2.87306504       3.17260440       1.94226639       0.04528920      -0.00060426       0.00703097      -0.00181468
H       -4.56404844       3.16819108       1.37443950       0.04989032       0.00137099      -0.00232234      -0.00108223
H       -4.39722955      -0.54538020       0.59479916       0.04138735       0.00532510      -0.00670487      -0.00055694
