31
Properties=species:S:1:pos:R:3:charge:R:1:forces:R:3 energy=-31155.916937806862 pbc="F F F"
O       -1.53271766       2.53650260       0.62955523      -0.40233269       0.00606058       0.00024826      -0.00228432
C       -2.12941075       1.69097574      -0.06200396       0.10151839       0.00056036       0.00206815      -0.00157700
C       -3.40699449       1.77246719      -0.59500424      -0.23190981      -0.00307463      -0.00090248       0.00748387
C       -3.97804980       0.74821350      -1.45996741      -0.04277448       0.00243939       0.00376514      -0.00279670
N       -1.46757309       0.43083723      -0.35763981      -0.13273214      -0.00162877      -0.00415822       0.00086014
C       -0.15897091       0.10447042      -0.19061426       0.04667004      -0.00145803      -0.00000089       0.00059457
C        0.81434086       1.04315598       0.21172818      -0.07115486       0.00059184      -0.00185034       0.00084274
C        2.12782995       0.65843979       0.31343857      -0.03804842      -0.00015909       0.00405163       0.00163380
C        2.53619101      -0.65230214       0.04236572      -0.04449011      -0.00540388       0.00509607      -0.00406422
C        3.92375035      -1.09888951       0.12352724       0.21857846      -0.00337895       0.00269635       0.00167960
O        4.79599111      -0.11671508       0.49049778      -0.15506500       0.00275784      -0.00676956      -0.00154658
C        6.15768828      -0.52110153       0.56186263       0.01374372      -0.00025321       0.00026074      -0.00101736
O        4.31224891      -2.22480933      -0.10573248      -0.34242976       0.00064079       0.00756791       0.00343115
C        1.56739910      -1.58888312      -0.33387557      -0.03626507       0.00017943      -0.00334298      -0.00349376
C        0.25292742      -1.22384962      -0.44909174      -0.07857272      -0.00024405      -0.00077906       0.00019362
H       -4.02489724       2.57507372      -0.22748802       0.01506987      -0.00278407       0.00634587      -0.00240234
H       -4.88555353       1.07291718      -1.96097902       0.01324669      -0.00202488      -0.00414636       0.00481262
H       -3.27800272       0.40242541      -2.22426316       0.01690167       0.00257279      -0.00175276       0.00184792
H       -2.09492633      -0.32475927      -0.60097219       0.09738913       0.00184344      -0.00309676      -0.00455324
H        0.47277729       2.04157330       0.43015737       0.02025468       0.00187978      -0.00292948       0.00105056
H        2.86460018       1.38787015       0.61163886       0.02707611       0.00255790       0.00171157       0.00116475
H        6.28654226      -1.31964949       1.28930692       0.02783223      -0.00506827       0.00129872      -0.00153286
H        6.50612677      -0.87749648      -0.40535542       0.02777907      -0.00487270      -0.00114499       0.00387316
H        6.71533579       0.35916220       0.86348767       0.02797753       0.00064894       0.00206147       0.00131541
H        1.88258991      -2.60266000      -0.53284460       0.02422323      -0.00026275      -0.00754149      -0.00449272
H       -0.49277322      -1.94999083      -0.74566715       0.03387174       0.00079732       0.00104883      -0.00190285
S       -4.53620807      -0.88968257      -0.65193493      -0.12592892       0.00516926      -0.00130213      -0.00166583
C       -4.78395212      -0.36490888       1.06135987      -0.07927336       0.00112643      -0.00063848      -0.00012558
H       -4.41600419      -1.14294370       1.72662875       0.02151246      -0.00052777       0.00005392       0.00647815
H       -5.83186549      -0.17622315       1.29182026       0.01905141       0.00044835       0.00237768      -0.00282074
H       -4.20274308       0.54154285       1.19750804       0.02827241       0.00086640      -0.00029623      -0.00098610
