26
Properties=species:S:1:pos:R:3:charge:R:1:forces:R:3 energy=-24966.489896104646 pbc="F F F"
C       -3.22135893       1.27619321       0.19584549      -0.03984976      -0.00658713      -0.00172453      -0.00258652
C       -1.96614527       0.77961650      -0.10731273      -0.04859838      -0.00253860       0.00328171       0.00454177
C       -1.24261336       0.05563387       0.84078277       0.04687658      -0.00043453       0.00181769       0.00253150
N        0.04239474      -0.38748110       0.47311311      -0.09593494       0.00070252       0.00030545      -0.00043539
C        0.83036995      -1.28677024       1.12961112       0.18983650       0.00201091      -0.00134285      -0.00129572
O        0.49609450      -1.88884032       2.13023271      -0.32047653      -0.00118387      -0.00135386       0.00263315
C        2.21096784      -1.51984566       0.53730573      -0.03334579       0.00507207      -0.00324661       0.00209035
C        2.71698667      -0.56265628      -0.53670528      -0.01991689       0.00148683       0.00120022       0.00191281
S        1.96227883      -0.85407501      -2.16498811      -0.10251749       0.00294702      -0.00017598       0.00107692
C        2.37523296       0.71898726      -2.94519584      -0.05715708       0.00163438      -0.00176357       0.00212075
C       -1.79332878      -0.17146005       2.09865863      -0.05302387       0.00360316       0.00176991       0.00265798
C       -3.04992083       0.33751196       2.38922292      -0.04149174       0.00158504      -0.00164093      -0.00467230
C       -3.77166896       1.05840724       1.45029298      -0.04391028      -0.00013126      -0.00183349      -0.00612181
H       -4.75127303       1.44363516       1.69203904       0.04558844       0.00381538       0.00087489       0.00301486
H       -3.76829698       1.83320938      -0.55351140       0.04653186       0.00611191      -0.00315008       0.00646379
H       -1.54129470       0.95504109      -1.08709057       0.04199147      -0.00155220       0.00128397      -0.00899464
H        0.36993876      -0.07797364      -0.42906347       0.10541817      -0.00440030       0.00206834       0.00436260
H        2.89502127      -1.50026083       1.38482222       0.04921617      -0.00394447      -0.00074420      -0.00305719
H        2.21427014      -2.54102009       0.15909341       0.03986063      -0.00242467       0.00579381       0.00060307
H        3.79089250      -0.68120349      -0.65842063       0.04510945      -0.00001138       0.00129902      -0.00238672
H        2.54741383       0.47081138      -0.24162790       0.04053083       0.00018604      -0.00423489      -0.00326897
H        2.05134391       0.67189768      -3.98079501       0.04389228       0.00176460       0.00061926       0.00126340
H        3.44715837       0.89166642      -2.91739645       0.04261199      -0.00211287      -0.00221655      -0.00240684
H        1.86070693       1.53872383      -2.45120405       0.04282051      -0.00133889       0.00284599       0.00023010
H       -1.24402550      -0.73718785       2.83033809       0.03097062      -0.00353853       0.00074922      -0.00102178
H       -3.46610924       0.16072015       3.37137643       0.04496717      -0.00072133      -0.00048187       0.00074481
