26
Properties=species:S:1:pos:R:3:charge:R:1:forces:R:3 energy=-24966.462043057036 pbc="F F F"
C       -4.66444924      -0.42725043      -0.06607648      -0.04578550      -0.00001897       0.00013373      -0.00229087
C       -3.80682580      -1.16785550       0.73184431      -0.04288284       0.00204952       0.00602886       0.00111464
C       -2.44622768      -0.90056352       0.77185422      -0.05505690       0.00253600       0.00010695      -0.00147802
C       -1.92898004       0.13129053      -0.00745126       0.04357039      -0.00286006       0.00216575      -0.00238963
N       -0.56177811       0.46712481      -0.03442278      -0.09698345      -0.00157397      -0.00416663      -0.00344825
C        0.46389844      -0.07374430       0.69788762       0.20193341       0.00051655       0.00128974       0.00086671
O        0.32281829      -0.95616746       1.51825847      -0.29859874       0.00217975       0.00643131      -0.00126367
C        1.81776911       0.54474955       0.38122040      -0.03839146       0.00220163       0.00163058       0.00185433
C        2.91060513      -0.02315920       1.27294481      -0.03563141       0.00066947      -0.00170929      -0.00170333
S        4.53821056       0.70624159       0.98039502      -0.13029361      -0.00726034      -0.00244740      -0.00326377
C        4.93846853      -0.09059833      -0.58388555      -0.06185236      -0.00261788      -0.00062164      -0.00107372
C       -2.79045605       0.87751092      -0.81175433      -0.05195641      -0.00406177       0.00387822       0.00266540
H       -2.39248986       1.68177319      -1.41755166       0.04789483      -0.00118429      -0.00269729      -0.00115220
C       -4.14578301       0.60121903      -0.83993604      -0.04164775      -0.00166236       0.00083649       0.00237457
H       -5.72158874      -0.64617286      -0.08579318       0.04482786       0.00123329      -0.00229204       0.00193652
H       -4.19379534      -1.97234586       1.34163486       0.04406784       0.00122778       0.00322285      -0.00437941
H       -1.78646322      -1.47776510       1.39556687       0.03028101      -0.00138189      -0.00497438       0.00129460
H       -0.32520257       1.20972380      -0.66979369       0.15144545      -0.00141648      -0.00350390       0.00177899
H        1.75832642       1.62738996       0.50932606       0.04403764      -0.00072857      -0.00020113       0.00575015
H        2.04690882       0.36511470      -0.67293343       0.04425243       0.00317835      -0.00209613       0.00211426
H        2.97066188      -1.10021546       1.14523800       0.03828442       0.00034848      -0.00246646       0.00580148
H        2.66343311       0.16021560       2.31565990       0.03780653       0.00519687      -0.00008782      -0.00317583
H        5.95676317       0.19021417      -0.83868672       0.04135923      -0.00620544       0.00273544       0.00195681
H        4.27779573       0.23436332      -1.38220951       0.04241734       0.00222029      -0.00213613      -0.00113496
H        4.88843729      -1.17286400      -0.49036489       0.04143004       0.00132570       0.00324142      -0.00157838
H       -4.79502426       1.19506148      -1.46899794       0.04547191       0.00608815      -0.00230108      -0.00117609
