30
Properties=species:S:1:pos:R:3:charge:R:1:forces:R:3 energy=-28084.836404212303 pbc="F F F"
C       -2.94576324       1.31461374      -1.71027708      -0.04112511      -0.00020708      -0.00078064       0.00097970
C       -3.92797212       0.54540682      -1.12487515      -0.06810813      -0.00052801      -0.00089635       0.00048827
C       -3.58103226      -0.34729325      -0.11343442       0.06691508       0.00103867      -0.00585509      -0.00269135
O       -4.60558831      -1.07319114       0.41350697      -0.17018344       0.00407161       0.00010588       0.00374550
C       -4.31163140      -1.99249332       1.44511392       0.02166244       0.00016014       0.00118858      -0.00014751
C       -2.25964449      -0.45172358       0.29098459      -0.08145557      -0.00158813      -0.00353282      -0.00141402
C       -1.27394076       0.33715902      -0.31598858       0.04683382      -0.00348018      -0.00110688       0.00201126
N        0.04782571       0.17063797       0.13710150      -0.09654628      -0.00189006      -0.00218021       0.00024091
C        1.17096486       0.86719207      -0.23383092       0.20352420      -0.00298025       0.00634335       0.00418490
O        1.17588190       1.77592321      -1.03694580      -0.29668957       0.00164220       0.00396302      -0.00571700
C        2.43275102       0.38778286       0.46875002      -0.03768449       0.00299044       0.00154982       0.00203379
C        3.63796903       1.23016548       0.08319331      -0.03470618       0.00597819       0.00071242       0.00122146
S        5.16178788       0.74147204       0.92398528      -0.12686881      -0.00594851      -0.00324498      -0.00168756
C        5.51881797      -0.77977770       0.02847690      -0.06065967      -0.00334072      -0.00053570       0.00098936
C       -1.61419086       1.22917046      -1.32176870      -0.05605964       0.00094478      -0.00205284      -0.00407387
H       -3.21147387       2.00770890      -2.49663259       0.04571915       0.00552845       0.00283632       0.00223459
H       -4.96179325       0.61201427      -1.42604782       0.04125977       0.00008285       0.00138852      -0.00154798
H       -3.61735001      -2.76280477       1.10559355       0.03954444      -0.00469155       0.00402401       0.00094433
H       -5.25224456      -2.45821634       1.71957305       0.04122955       0.00520240      -0.00087040       0.00191617
H       -3.89382869      -1.48953518       2.31860997       0.03961112      -0.00054049      -0.00211479      -0.00235912
H       -1.97248131      -1.13710462       1.07244967       0.04750536       0.00400238       0.00239318       0.00169113
H        0.16925058      -0.54277919       0.83425571       0.15185809       0.00062808      -0.00662783       0.00133795
H        2.59850925      -0.66247431       0.21362252       0.04475046      -0.00119178      -0.00218681      -0.00218657
H        2.28015859       0.43080195       1.54899735       0.04449590       0.00099851       0.00163078       0.00402585
H        3.45495606       2.27002184       0.34131666       0.03826059      -0.00233896       0.00106873      -0.00374791
H        3.79065664       1.19052943      -0.99155258       0.03874013       0.00075910      -0.00058003       0.00122891
H        6.48520918      -1.13623716       0.37394217       0.04197969      -0.00165055      -0.00196800      -0.00301983
H        4.77595053      -1.54773060       0.22280394       0.04301394      -0.00491584       0.00045748      -0.00004237
H        5.57679020      -0.59511610      -1.04155767       0.04196679       0.00249415       0.00304642       0.00301287
H       -0.85381880       1.83375449      -1.78089526       0.03121643      -0.00122995       0.00382515      -0.00365118
