25
Properties=species:S:1:pos:R:3:charge:R:1:forces:R:3 energy=-24950.475530127354 pbc="F F F"
O       -0.38410465      -0.87286439       2.26000924      -0.41599405       0.00882503      -0.00335477       0.00006229
C        0.38435264      -1.03383915       1.29327262       0.09262794       0.00444097       0.00541117      -0.00680958
C        1.67438086      -1.56054295       1.32606424      -0.25112462       0.00071576       0.00573328      -0.00065805
C        2.45998449      -1.77891924       0.12823147      -0.05407100       0.00078775       0.00414875       0.00317544
N       -0.02669086      -0.64162885      -0.03250572      -0.14970301      -0.00071472       0.00108786      -0.00049052
C       -1.19049790       0.00884544      -0.39404332       0.06861711      -0.00007331      -0.00164528      -0.00081230
C       -1.26921704       0.59806885      -1.66604341      -0.06952238      -0.00137923       0.00145440      -0.00008215
C       -2.42691396       1.21855189      -2.10413677      -0.05713697      -0.00262639      -0.00032483       0.00012963
C       -3.54733319       1.27216396      -1.28660388      -0.07799432      -0.00471100       0.00402623       0.00243335
C       -3.47350820       0.69673080      -0.02375215      -0.05685259       0.00217444      -0.00224521      -0.00268960
C       -2.31978481       0.07902861       0.43175107      -0.06874644       0.00026223       0.00166675      -0.00106128
H        2.12755825      -1.65737395       2.29933105       0.00717139      -0.00510879      -0.00257071      -0.00029027
H        3.34507573      -2.38770085       0.29339124       0.00404893      -0.00370762      -0.00306584      -0.00012527
H        1.87931391      -2.24241191      -0.67400395       0.01016804      -0.00089986       0.00286295       0.00602533
H        0.74867583      -0.47661820      -0.65877817       0.08988340       0.00096963      -0.00232637       0.00222336
H       -0.40069177       0.56195045      -2.31121442       0.02885288      -0.00270840      -0.00159220      -0.00382582
H       -2.44715274       1.66144065      -3.09296287       0.01788667      -0.00427486      -0.00031628       0.00073483
H       -4.45500743       1.75267895      -1.62329718       0.01785270      -0.00523029       0.00012674      -0.00075590
H       -2.24546358      -0.34995599       1.41649945       0.01410432      -0.00273463      -0.00183410      -0.00034108
H       -4.33447236       0.72775303       0.63340839       0.01646769       0.00586544      -0.00118826      -0.00282729
S        3.21538104      -0.25057721      -0.76281502      -0.14266726       0.00350499      -0.00324841      -0.00067034
C        3.18399372       0.97849619       0.56241618      -0.08129895       0.00125883      -0.00149715       0.00084573
H        4.16946002       1.14028511       0.99841629       0.01258065       0.00142922      -0.00017570       0.00221132
H        2.49995948       0.61445468       1.32367356       0.02862538      -0.00015577      -0.00201168       0.00116183
H        2.81951731       1.92440311       0.16567643       0.01621577       0.00409011       0.00087882       0.00243649
