31
Properties=species:S:1:pos:R:3:charge:R:1:forces:R:3 energy=-17743.752178345716 pbc="F F F"
C       -0.57496300      -0.18499079      -0.59240050      -0.18007183       0.00340703      -0.00133345       0.00230161
C        0.66620976      -0.55723337       0.14300970       0.44161469      -0.00188888       0.00514771       0.00592784
O        0.64800935      -1.25590461       1.13696822      -0.45151791       0.00761062      -0.00076953       0.00257083
N        1.81008843      -0.03193535      -0.40338682      -0.35447755      -0.00522100       0.00210223       0.00436998
C        3.13896742      -0.14007282       0.05295163       0.14153264      -0.00282406      -0.00266634      -0.00306102
C        3.52052221      -0.96641444       1.10664513      -0.12101142       0.00027728       0.00250611      -0.00006981
C        4.85629667      -1.01474931       1.47947632      -0.13764305      -0.00076803      -0.00036240       0.00340383
C        5.81588717      -0.25629676       0.82708669      -0.15727802      -0.00429171       0.00480209       0.00341885
H        6.85122358      -0.30169853       1.13234618       0.13495868      -0.00370421      -0.00594599      -0.00327900
C        5.42959391       0.56594664      -0.22151945      -0.14157647       0.00237170      -0.00109849      -0.00603696
H        6.16357475       1.16541903      -0.74102174       0.13337106       0.00343864       0.00487348      -0.00627701
C        4.10231496       0.62219320      -0.60682795      -0.16292422      -0.00104956      -0.00326515       0.00045036
C       -1.75817761      -0.53761354      -0.10808833      -0.08851621       0.00385371       0.00530669       0.00136038
C       -3.06749182      -0.24702057      -0.77165259      -0.01921961       0.00592721       0.00014976      -0.00221615
N       -3.87026837       0.73272816      -0.04634194      -0.25808886       0.00397865       0.00144894       0.00085352
C       -5.00664041       1.14041731      -0.84706955      -0.14847264      -0.00063860       0.00028424      -0.00078035
C       -4.28741134       0.24152676       1.25225835      -0.14047725      -0.00284842       0.00023743      -0.00070520
H       -0.48396075       0.37848769      -1.51309163       0.11267178      -0.00323048      -0.00036543       0.00085163
H        1.68859545       0.55929163      -1.20467725       0.26275703      -0.00168705      -0.00144593       0.00472340
H        2.77602134      -1.54958736       1.61726749       0.13693547       0.00074230       0.00121668      -0.00504509
H        5.14401558      -1.65814637       2.29862846       0.13237742       0.00681378      -0.00297469       0.00433779
H        3.80279241       1.26564049      -1.42493774       0.12799181      -0.00038672      -0.00384321       0.00184345
H       -1.75769996      -1.07368577       0.83160206       0.13395914      -0.00028069      -0.00205016      -0.00217206
H       -2.87830809       0.13638159      -1.77442804       0.08078678       0.00440969       0.00602219      -0.00308584
H       -3.61954076      -1.19310867      -0.89080331       0.06740580       0.00018942      -0.00021593       0.00269144
H       -5.68821929       0.30757201      -1.07747201       0.06284052      -0.00479336      -0.00480445       0.00620527
H       -4.65713377       1.56462443      -1.78602202       0.07786947       0.00118678      -0.00170642      -0.00628463
H       -5.57299621       1.90448971      -0.31955492       0.08425734      -0.00239952       0.00188743       0.00333946
H       -4.88410568      -0.67917458       1.18094728       0.06496736      -0.00211438       0.00340249      -0.00589415
H       -3.42371274       0.04090202       1.88153724       0.07932569      -0.00370422      -0.00510594      -0.00518148
H       -4.88779312       0.99957456       1.75072938       0.08565239      -0.00237647      -0.00143414       0.00143991
