28
Properties=species:S:1:pos:R:3:charge:R:1:forces:R:3 energy=-26020.908440906394 pbc="F F F"
O        0.10678057      -0.03703032       2.32198288      -0.49841201       0.00223236       0.00032581      -0.00730512
C        0.43862183      -1.06533662       1.67117180       0.27800745       0.00475414       0.00086297      -0.00413053
C        1.71597827      -1.58369857       1.53027360      -0.51230180       0.00344477       0.00031772       0.00521050
C        2.89220520      -0.87458349       2.06020755      -0.11527215       0.00483000      -0.00554549       0.00056594
N       -0.63146788      -1.77948802       1.02088887      -0.49594760       0.00417525      -0.00258348       0.00114645
C       -1.85628610      -1.04314491       0.76877559      -0.03470997       0.00218157       0.00075823       0.00162177
C       -1.81344834      -0.09005242      -0.40553185       0.06227894       0.00261777       0.00481802      -0.00066011
C       -1.01369669       1.05057060      -0.36325205      -0.10951801      -0.00203264       0.00766245      -0.00087407
C       -0.95670121       1.91111343      -1.44845018      -0.13769455      -0.00085172       0.00071780      -0.00242272
C       -1.69835151       1.65225253      -2.59288625      -0.17389813      -0.00255252      -0.00428860       0.00271752
C       -2.50430497       0.52459290      -2.64229886      -0.15916267      -0.00376291      -0.00167418      -0.00262521
C       -2.55912428      -0.33660073      -1.55381467      -0.16188650      -0.00724922       0.00439335       0.00215614
H        1.88687362      -2.44786792       0.89957344       0.11325618      -0.00785409       0.00149545       0.00422076
H        2.59542243      -0.10766174       2.78039715       0.08947199       0.00115952      -0.00568825      -0.00309076
H        3.62330910      -1.52924861       2.53811251       0.07686216       0.00116664      -0.00673611       0.00688064
H       -0.28464659      -2.25571094       0.20287585       0.26041040      -0.00021512      -0.00072134       0.00380313
H       -2.67175877      -1.75318400       0.60759194       0.05353165       0.00093008      -0.00141818      -0.00677628
H       -2.08093106      -0.48464484       1.67723568       0.08114351      -0.00336971       0.00554527       0.00013702
H       -0.42910858       1.24006643       0.52747648       0.12982582      -0.00436198      -0.00570364       0.00212576
H       -0.31594471       2.78190758      -1.40344988       0.10969445       0.00239407      -0.00343130       0.00083641
H       -1.64913697       2.31798297      -3.44437815       0.11910121       0.00149671      -0.00219741       0.00728241
H       -3.08527528       0.31172710      -3.52981987       0.11853663      -0.00242181      -0.00017731      -0.00674901
H       -3.18716923      -1.21796132      -1.60187306       0.10885058       0.00192771      -0.00283578      -0.00101533
S        3.92184803       0.01069215       0.78324224      -0.30701351      -0.00186018       0.00772901      -0.00000826
C        2.59163684       1.04026642       0.14042165      -0.18958956       0.00334541       0.00452079      -0.00214870
H        2.99643804       1.71548815      -0.61054090       0.09885785       0.00533382       0.00426905      -0.00372801
H        2.13932610       1.62075545       0.94115537       0.08889806      -0.00245772      -0.00176493       0.00010551
H        1.82843451       0.40699007      -0.30182793       0.10667976      -0.00300045       0.00134987       0.00272289
