28
Properties=species:S:1:pos:R:3:charge:R:1:forces:R:3 energy=-26020.908659903987 pbc="F F F"
O        0.30541355       2.03471555      -1.14077280      -0.49782357       0.00125970       0.00060187       0.00580723
C        0.67835644       0.95237056      -1.67042912       0.27808118      -0.00141408       0.00466752      -0.00451679
C        1.98294425       0.54135432      -1.89125699      -0.51226091      -0.00122784      -0.00200838      -0.00126128
C        3.12683239       1.32495388      -1.39695255      -0.11503033      -0.00093396      -0.00105625      -0.00040920
N       -0.36948555       0.06237709      -2.10396552      -0.49598476      -0.00053223       0.00074790       0.00459717
C       -1.67681818       0.24010451      -1.49948622      -0.03476937      -0.00112276      -0.00059280       0.00124783
C       -1.82707668      -0.30790196      -0.09715624       0.06234217      -0.00458594       0.00109980      -0.00088249
C       -2.64662416      -1.40277154       0.15797199      -0.16190982       0.00142739      -0.00317238      -0.00103434
C       -2.76914002      -1.92254819       1.44025919      -0.15930958      -0.00189910       0.00195113       0.00153195
C       -2.06976300      -1.34555540       2.48981823      -0.17387892       0.00152303      -0.00008301       0.00189711
C       -1.25523883      -0.24825359       2.24663572      -0.13772190       0.00083287       0.00022517      -0.00176187
C       -1.13609406       0.26931349       0.96647303      -0.10938394      -0.00087382       0.00062937      -0.00220679
H        2.18041027      -0.43902098      -2.30732943       0.11311953       0.00580177      -0.00211053      -0.00191864
H        2.81924639       2.33919940      -1.12982244       0.08937902       0.00207604      -0.00019413      -0.00045555
H        3.95373561       1.39324304      -2.10656746       0.07678863       0.00066180      -0.00191489       0.00034676
H       -0.04973370      -0.89304677      -2.07210774       0.26037052       0.00180853       0.00055747      -0.00312133
H       -1.87765535       1.31135410      -1.48998770       0.08101583      -0.00126368      -0.00133478       0.00066570
H       -2.43033186      -0.23185929      -2.13565770       0.05349583       0.00271470      -0.00117701      -0.00137923
H       -3.19051473      -1.86266659      -0.65823168       0.10882048      -0.00125477       0.00102257      -0.00252845
H       -3.40408617      -2.78052388       1.61800699       0.11860771      -0.00075071       0.00087867       0.00186647
H       -2.15853106      -1.75474011       3.48719845       0.11897983      -0.00031226      -0.00344575       0.00280146
H       -0.69423777       0.20104315       3.05545957       0.10982203      -0.00244549      -0.00143459       0.00188483
H       -0.49554975       1.11820132       0.76647612       0.12992072      -0.00077007       0.00150065       0.00018424
S        3.95719041       0.63886192       0.12483604      -0.30720568      -0.00261104      -0.00025891       0.00063130
C        2.48568667       0.62724142       1.16329684      -0.18971482       0.00234673       0.00182581      -0.00356612
H        2.04462130       1.62025419       1.20796627       0.08895081      -0.00097311       0.00074895       0.00182985
H        1.75452692      -0.05678802       0.74304073       0.10641225       0.00032635       0.00104402      -0.00084431
H        2.76143936       0.30833106       2.16646902       0.09888711       0.00219173       0.00128250       0.00059452
