30
Properties=species:S:1:pos:R:3:charge:R:1:forces:R:3 energy=-28084.859447702092 pbc="F F F"
C       -2.97475771      -0.96028160       0.41768790      -0.16713677       0.00109639      -0.00144183       0.00095193
C       -1.68234537      -1.43175456       0.31965760      -0.15346302      -0.00032353      -0.00077642      -0.00050307
C       -0.64515212      -0.60168342      -0.09887255       0.10151482      -0.00283741       0.00225862       0.00443428
N        0.65919519      -1.15649238      -0.15562076      -0.35862872      -0.00412104      -0.00635525      -0.00387284
C        1.74356893      -0.69064543      -0.83584559       0.41319382      -0.00182066       0.00146851       0.00264877
O        1.77024360       0.37461727      -1.42063656      -0.42427087       0.00116782      -0.00094625      -0.00379614
C        2.95084402      -1.61053905      -0.81852709      -0.14723827      -0.00114538      -0.00009795      -0.00023166
C        4.23414802      -0.86505891      -0.47448355      -0.11484887      -0.00132082      -0.00215635       0.00011353
S        4.49617850      -0.56888432       1.29309776      -0.20361441      -0.00021772       0.00181454      -0.00075245
C        3.21087374       0.66843761       1.56682873      -0.18635733      -0.00101711      -0.00206477      -0.00094749
C       -0.92302214       0.71906010      -0.40890193      -0.10819053      -0.00239927       0.00055064      -0.00311264
C       -2.22469919       1.20045135      -0.30863820      -0.16164523       0.00109808       0.00172777       0.00316379
C       -3.25511581       0.36585010       0.10025758       0.14861128       0.00281398      -0.00148313      -0.00237825
O       -4.55852263       0.74532772       0.22194055      -0.24254167       0.00110122      -0.00408216      -0.00257177
C       -4.88423725       2.07866298      -0.12042558      -0.08376778       0.00042194       0.00165956       0.00019699
H       -3.78471352      -1.59953427       0.73592578       0.13708259       0.00281533      -0.00267535       0.00164917
H       -1.46434733      -2.46533676       0.56296948       0.12827146       0.00046304       0.00049764      -0.00274195
H        0.76395445      -2.04725054       0.29388933       0.25655398       0.00400669      -0.00126504       0.00325512
H        2.80349526      -2.45771431      -0.14988398       0.07196274      -0.00030697       0.00063615       0.00244648
H        3.03869763      -1.99191827      -1.83631441       0.09027205       0.00136287      -0.00147939       0.00039722
H        4.26142598       0.08135768      -1.01040864       0.10055660      -0.00033033      -0.00312555       0.00211465
H        5.09195824      -1.45571277      -0.79003101       0.10557650       0.00365699       0.00588486      -0.00200342
H        3.19600222       1.39711138       0.76267483       0.09468395       0.00106044       0.00137073       0.00410917
H        2.23482630       0.20283901       1.64931515       0.07546534      -0.00081612       0.00017348       0.00056321
H        3.44391947       1.16933608       2.50308098       0.12092998      -0.00208681      -0.00116820      -0.00219358
H       -0.13029434       1.37141265      -0.73162693       0.12532814      -0.00231408       0.00129179      -0.00190157
H       -2.40944579       2.23294293      -0.55835752       0.13006833      -0.00116699       0.00356168       0.00048203
H       -4.37922514       2.79313098       0.53187482       0.07781795       0.00640866       0.00513897       0.00180974
H       -4.63188566       2.29762042      -1.15921189       0.07750598      -0.00135626       0.00095272      -0.00701708
H       -5.95684480       2.17252602       0.01181638       0.09630802      -0.00389267       0.00012929       0.00568755
