21
Properties=species:S:1:pos:R:3:charge:R:1:forces:R:3 energy=-15537.584104136542 pbc="F F F"
O        1.71897427       1.65865597       0.35779860      -0.42045128       0.00281519       0.00377132       0.00246070
C        1.80897324       0.46996277       0.13787536       0.43989250      -0.00520581       0.00404100      -0.00366364
C        3.11843995      -0.23565823       0.05174567      -0.14560457      -0.00498595       0.00090072       0.00156640
C        4.24963052       0.43334311       0.21469931      -0.26998499      -0.00244857      -0.00137863      -0.00289183
N        0.72458996      -0.35402337      -0.05625038      -0.33169445      -0.00222493      -0.00479165       0.00130335
C       -0.63212075      -0.02034126      -0.03999856       0.09700932      -0.00220907       0.00012449       0.00908930
C       -1.55825806      -1.05317316      -0.26503143       0.03798434       0.00226411       0.00063476      -0.00410181
C       -1.06649755      -2.38151996      -0.50021381       0.23665598      -0.00018538      -0.00143702      -0.00077810
N       -0.60460226      -3.41838490      -0.68186827      -0.39714724       0.00258160       0.00103813       0.00191367
C       -2.92894098      -0.80753179      -0.26405557      -0.13823622       0.00539714      -0.00006787       0.00090797
C       -3.39331645       0.47186536      -0.03846973      -0.13498448      -0.00225805      -0.00180205      -0.00573741
C       -2.48141227       1.49588702       0.18294255      -0.12648211      -0.00285938      -0.00280748       0.00308567
C       -1.11738489       1.26632281       0.18597227      -0.10766248       0.00066825       0.00644954      -0.00553770
H        3.11705451      -1.30218785      -0.14631277       0.12131169       0.00018200       0.00132656      -0.00150762
H        4.22555565       1.49538751       0.41247790       0.16217732       0.00311541      -0.00257501      -0.00096692
H        5.21050015      -0.05664322       0.15463993       0.15175152      -0.00121332      -0.00088426       0.00267411
H        0.93121445      -1.32407916      -0.23059062       0.25832713       0.00004082      -0.00882218      -0.00317160
H       -3.61077216      -1.62569869      -0.44113281       0.14106922       0.00380975       0.00530874       0.00269983
H       -4.45377538       0.66936897      -0.03618154       0.14440763      -0.00245308      -0.00219355      -0.00108848
H       -2.83410863       2.50153325       0.35855055       0.14025453       0.00159622      -0.00356417       0.00227350
H       -0.41743696       2.06191292       0.35881000       0.14140673       0.00357257       0.00672827       0.00147064
