23
Properties=species:S:1:pos:R:3:charge:R:1:forces:R:3 energy=-14096.069801972977 pbc="F F F"
O       -2.42493622       1.41019769      -0.06795055      -0.43731755       0.00071200      -0.00326476       0.00151168
C       -2.49229073       0.21199166       0.12016048       0.45115966       0.00264399      -0.00153342      -0.00060233
C       -3.80013307      -0.49138330       0.30327154      -0.14922899       0.00073059      -0.00181658      -0.00147389
C       -4.94035052       0.18150594       0.26825062      -0.27880421       0.00115147       0.00148339      -0.00182240
N       -1.40467443      -0.61545338       0.18479154      -0.35905930       0.00251517       0.00447642      -0.00064245
C       -0.03709853      -0.28756146       0.04892861       0.11188734      -0.00103235      -0.00166022      -0.00270141
C        0.42705370       1.00161684      -0.18443036      -0.13379359      -0.00384382      -0.00155124      -0.00399853
C        1.79166836       1.21949898      -0.30756773      -0.14453733      -0.00131114      -0.00590099       0.00096853
C        2.71733168       0.18843273      -0.20120910       0.03260636      -0.00365669      -0.00199118      -0.00093144
C        4.19567529       0.44994501      -0.30956827      -0.22078897       0.00169289       0.00264205      -0.00067292
C        2.23418186      -1.09485418       0.03203580      -0.14932255      -0.00300807      -0.00283600       0.00122831
C        0.87758432      -1.33175720       0.15592593      -0.18061008      -0.00351078       0.00466396       0.00254539
H       -3.78925492      -1.56326342       0.46352733       0.12068986      -0.00213619      -0.00092822       0.00259935
H       -4.93813032       1.25005178       0.10673744       0.15889370       0.00615497       0.00555856      -0.00067209
H       -5.89317229      -0.31277531       0.39785474       0.14562508      -0.00186211       0.00421315       0.00086665
H       -1.58399434      -1.58924232       0.34666709       0.26781869      -0.00042627      -0.00030227       0.00049522
H       -0.27101949       1.81370020      -0.26887291       0.13803482      -0.00133232      -0.00674006       0.00283121
H        2.14047192       2.22674570      -0.49459394       0.12834899      -0.00772890      -0.00442863       0.00206535
H        4.39551914       1.29761181      -0.96081429       0.07865432       0.00235333       0.00380062      -0.00185672
H        4.62564827       0.67593447       0.66658089       0.08188286      -0.00211714      -0.00173645       0.00334622
H        4.71695662      -0.41822463      -0.70614974       0.07888848       0.00178782       0.00060822      -0.00038354
H        2.92662740      -1.92189046       0.11537673       0.12847742       0.00389003       0.00526983      -0.00218121
H        0.51996067      -2.33766855       0.33752453       0.13049500       0.00833321       0.00197463      -0.00051913
