25
Properties=species:S:1:pos:R:3:charge:R:1:forces:R:3 energy=-24950.59169059531 pbc="F F F"
O       -0.92074278      -0.05871672      -1.30604349      -0.50797772      -0.00310208      -0.00001833       0.00461199
C       -0.79667163      -0.79386601      -0.30039184       0.31476793      -0.00340430      -0.00417482      -0.00092219
C       -1.71549838      -1.68645896       0.22388448      -0.47590634      -0.00484109      -0.00334627      -0.00188055
C       -3.06777346      -1.80485151      -0.34944165      -0.11249635      -0.00365888      -0.00089929      -0.00600607
N        0.44197013      -0.71473890       0.44674458      -0.38409543       0.00139357      -0.00527396      -0.00259921
C        1.57095780       0.03456530       0.23273018       0.21154146      -0.00032474       0.00154478       0.00106842
C        1.74067142       0.89009764      -0.87063458      -0.13756992       0.00243336      -0.00309006      -0.00174052
C        2.91883718       1.60283119      -1.01464988      -0.16163447      -0.00159828       0.00574346       0.00029462
C        3.95694871       1.50792469      -0.09443808      -0.22163269       0.00053252      -0.00117522      -0.00084338
C        3.79204666       0.66715006       0.99773806      -0.17671698       0.00448117      -0.00107462       0.00026600
C        2.62659389      -0.05681350       1.16029897      -0.18855397       0.00159011       0.00312404      -0.00048997
H       -1.52719577      -2.19128371       1.16421478       0.10634627       0.00472164       0.00198140      -0.00215812
H       -3.43249922      -2.83158432      -0.39936111       0.07174969       0.00019536      -0.00301933       0.00758962
H       -3.09834859      -1.38303533      -1.35669716       0.08574729      -0.00029210       0.00449148      -0.00719767
H        0.44672503      -1.29086684       1.26566926       0.23729895       0.00103769       0.00311937       0.00350634
H        0.93394147       0.96183359      -1.57855463       0.12434576      -0.00510067      -0.00344732       0.00764958
H        3.02695960       2.25354205      -1.87339450       0.11048362      -0.00330430       0.00256557      -0.00484738
H        4.58116433       0.57333683       1.73367951       0.11173812       0.00303862      -0.00650948       0.00399980
H        2.51598944      -0.71108246       2.01797975       0.10711411       0.00138373       0.00569118      -0.00043254
H        4.86890493       2.07304617      -0.22518260       0.11806428      -0.00211691       0.00153376       0.00309574
S       -4.41542039      -0.93786685       0.59705984      -0.30722374      -0.00501620      -0.00200805       0.00463859
C       -3.72094820       0.71988927       0.49481020      -0.19630049       0.00067752      -0.00424424      -0.00170018
H       -2.76383656       0.74096211       1.00752971       0.09224235       0.00540101       0.00117534      -0.00680166
H       -4.41514610       1.41786778       0.96156178       0.09339008      -0.00077018       0.00307504       0.00034293
H       -3.56081432       1.00053714      -0.54285227       0.08527826       0.00664274       0.00423544       0.00055614
