37
Properties=species:S:1:pos:R:3:charge:R:1:forces:R:3 energy=-29233.000983507314 pbc="F F F"
O       -0.63731868      -1.77246020       1.33852903      -0.45937315      -0.00043781       0.00112601      -0.00507701
C        0.36678244      -1.07429742       1.28770668       0.43494591       0.00336733      -0.00214984       0.00568433
C        1.73602267      -1.69156570       1.44924851       0.01995068       0.00028230       0.00134224      -0.00841116
C        2.91645586      -0.82028855       1.73608849      -0.23066483       0.00170127      -0.00143278       0.00435996
C        1.81603650      -3.01350364       1.34187014      -0.37678263      -0.00195998      -0.00503496       0.00283240
N        0.34774862       0.27308904       1.11170900      -0.36085778       0.00029780      -0.00491928      -0.00665617
C       -0.89753328       1.01482380       0.85737257       0.11105571      -0.00657191      -0.00369331       0.00416423
C       -0.51706151       2.49027677       0.73101867      -0.24439389      -0.00244915       0.00038537      -0.00068855
C       -1.83204698       0.84564485       2.05079276      -0.24046132      -0.00401549      -0.00201237       0.00577203
C       -1.53349754       0.55728667      -0.46073299       0.05410047      -0.00301675       0.00745957       0.00001658
C       -0.73807207       0.53087319      -1.60900839      -0.11319297       0.00017083      -0.00467665      -0.00139717
C       -1.25566961       0.08033501      -2.80935049      -0.14885196      -0.00146674       0.00206704      -0.00320735
C       -2.58219201      -0.31761210      -2.90226305      -0.17129096      -0.00293452      -0.00015669       0.00576312
C       -3.38853592      -0.25859377      -1.77835240      -0.16515006       0.00014882       0.00026689       0.00341376
C       -2.86610955       0.18032185      -0.56645804      -0.14722660       0.00410706      -0.00147070      -0.00063744
H        3.18636722      -0.21134162       0.86835637       0.08236577       0.00019433       0.00027621       0.00292819
H        3.76336909      -1.44132635       2.02382704       0.07898255       0.00480536      -0.00206755      -0.00337173
H        2.68962130      -0.13375548       2.55445097       0.07341301       0.00232388       0.00185206       0.00792185
H        0.92218187      -3.58840611       1.15347857       0.14344187      -0.00171366      -0.00291210      -0.00129939
H        2.76128229      -3.53059616       1.44011922       0.13452068      -0.00040259       0.00746764       0.00177734
H        1.18929258       0.68856851       0.69414122       0.23380134      -0.00028299       0.00151614      -0.00496032
H        0.18476514       2.63433231      -0.08592268       0.07844185       0.00503595       0.00488910      -0.00497717
H       -1.40454634       3.09302877       0.54590233       0.07376727      -0.00397207       0.00759909      -0.00388232
H       -0.04338043       2.83012066       1.65203905       0.07435781      -0.00269748      -0.00210075       0.00341414
H       -1.30853944       1.15313002       2.95362447       0.07325298       0.00341389      -0.00005955      -0.00233128
H       -2.12518857      -0.19270420       2.15257446       0.08260160       0.00367175      -0.00092339       0.00286191
H       -2.71582359       1.47360853       1.93736121       0.06651281      -0.00228262      -0.00290797      -0.00258831
H        0.29190080       0.86847431      -1.56038074       0.12536842      -0.00021127      -0.00103872      -0.00274936
H       -0.62560660       0.03912733      -3.68776081       0.12395787       0.00451133       0.00233887      -0.00493043
H       -2.98159673      -0.67044004      -3.84267308       0.12791371      -0.00114157       0.00006375       0.00698843
H       -4.42459199      -0.56545862      -1.83491386       0.12485941       0.00316478       0.00372823      -0.00206043
H       -3.50446931       0.21155259       0.30379943       0.11950290       0.00775778      -0.00243938      -0.00564588
S        2.69854167       1.50951022      -0.95834481      -0.76037484       0.00071717       0.00354328       0.00170438
C        2.63673731      -0.05167152      -1.89123391      -0.28900000      -0.00195258       0.00173762       0.00448441
H        1.97252522       0.02847541      -2.75361920       0.09213565      -0.00420585       0.00051169      -0.00378052
H        3.62721801      -0.31596742      -2.26084300       0.09631075       0.00132176      -0.00460232      -0.00270490
H        2.27115965      -0.88039717      -1.27854546       0.08205988      -0.00527764      -0.00357231       0.00727000
