38
Properties=species:S:1:pos:R:3:charge:R:1:forces:R:3 energy=-29248.587796021213 pbc="F F F"
C       -3.68470678       2.24816086       1.04638678      -0.14069426      -0.00063982      -0.00155525       0.00301054
C       -2.33225382       2.51790389       0.88743835      -0.14116052      -0.00035530       0.00173544      -0.00166612
C       -1.53030976       1.64751974       0.17245980      -0.11444791       0.00049650      -0.00070654       0.00290517
C       -2.05274517       0.47930627      -0.38216148       0.04376160       0.00194545       0.00087816      -0.00414143
C       -1.11975390      -0.45098253      -1.15269914       0.11193029       0.00132059       0.00462231      -0.00742348
N        0.02187042      -0.69908591      -0.24700579      -0.35129827      -0.00149028       0.00065578       0.00168915
C        1.18118548      -1.30350830      -0.58099275       0.41040200      -0.00303495      -0.00799701      -0.00143164
O        1.38932933      -1.82441959      -1.66491031      -0.43839553       0.00321120       0.00343593       0.00314944
C        2.26839738      -1.25631763       0.48921768      -0.07453019      -0.00107268       0.00714550       0.00177353
C        3.07420352      -2.54547538       0.46768193      -0.22309668      -0.00116706       0.00125338      -0.00238394
C        3.17015670      -0.04922948       0.19583089      -0.11632969      -0.00063733       0.00472185       0.00240689
S        2.43699063       1.55558201       0.58457569      -0.19884728      -0.00519342       0.00283246       0.00195677
C        2.76223991       1.61005878       2.35908748      -0.18119375       0.00115262      -0.00686181      -0.00601339
C       -0.64993078       0.26793265      -2.42497345      -0.21166018       0.00026253       0.00204657      -0.00322188
C       -1.76483511      -1.78417035      -1.52089377      -0.21939847      -0.00160880       0.00464365      -0.00168024
C       -3.40786891       0.22248877      -0.22010178      -0.14965837       0.00108575      -0.00209780       0.00517376
C       -4.22022199       1.10055774       0.48729939      -0.13999182      -0.00167779      -0.00138598      -0.00537165
H       -4.31476206       2.92906278       1.59866943       0.13831027       0.00268595       0.00197841       0.00075635
H       -1.90252830       3.41243026       1.31440718       0.13158876       0.00230240       0.00252522       0.00057103
H       -0.48570380       1.88321530       0.02697175       0.11235180      -0.00364493      -0.00044816      -0.00088029
H       -0.00639498      -0.22992419       0.64057722       0.21685915       0.00403467       0.00002974       0.00206923
H        1.81263925      -1.12827722       1.47177181       0.07555071      -0.00079670       0.00159147       0.00457614
H        3.84753280      -2.51657899       1.23281231       0.07093874       0.00651709      -0.00543745      -0.00044775
H        3.54327763      -2.68322167      -0.50390517       0.08372217       0.00505254       0.00084754      -0.00383526
H        2.43767203      -3.40877005       0.65211394       0.07903246      -0.00225576      -0.00104432      -0.00039777
H        3.42937662      -0.03675853      -0.86120923       0.11215781       0.00264541      -0.00453530       0.00236111
H        4.09702489      -0.13623869       0.75986355       0.08927707       0.00006448       0.00135787       0.00062046
H        2.18823966       0.86804542       2.90910311       0.07909627       0.00051263       0.00572080       0.00193328
H        3.81993241       1.46284279       2.55528413       0.09232636       0.00209415      -0.00296626       0.00139100
H        2.47651307       2.59902513       2.70631371       0.11436861      -0.00474752      -0.00491153       0.00105625
H        0.00635583      -0.37339148      -3.00376888       0.08299537       0.00083487       0.00044239       0.00432898
H       -1.51513736       0.54309898      -3.02461861       0.08309360       0.00107297      -0.00580718      -0.00466051
H       -0.10646792       1.17208419      -2.16306144       0.07675624      -0.00163053      -0.00270968      -0.00701301
H       -2.12914897      -2.28966053      -0.62901074       0.07761597       0.00245726       0.00097552       0.00395414
H       -1.03169662      -2.41811957      -2.00864307       0.08410836      -0.00207972      -0.00253252       0.00371539
H       -2.59881428      -1.62333607      -2.20123942       0.07750428      -0.00378963       0.00129105       0.00075018
H       -3.84125033      -0.67210427      -0.63926456       0.12175890      -0.00041670       0.00374516      -0.00598632
H       -5.27244514       0.88305317       0.59883049       0.13519621      -0.00351113      -0.00347966       0.00640662
