28
Properties=species:S:1:pos:R:3:charge:R:1:forces:R:3 energy=-26021.093375320514 pbc="F F F"
O        0.99369333       0.99137669       1.06401662      -0.51620626      -0.00556764      -0.00184739       0.00070879
C        0.82561752      -0.14724974       0.56384792       0.31504279       0.00417744       0.00011857      -0.00535885
C        1.80422998      -1.07871710       0.24424533      -0.31132546       0.00306121      -0.00556110       0.00133933
C        1.52796977      -2.37144884      -0.47809723      -0.24445109       0.00297893       0.00040184      -0.00050052
C        3.21436136      -0.71556188       0.47296821      -0.13212769       0.00155115      -0.00046545      -0.00103756
N       -0.52367555      -0.55767146       0.25780196      -0.36128238      -0.00063476       0.00310382       0.00073957
C       -1.70613680       0.12966958       0.39242238       0.21342531      -0.00529829       0.00158342      -0.00056246
C       -1.79648614       1.43983822       0.89338275      -0.13724035      -0.00053792      -0.00012826       0.00364268
C       -3.03439862       2.05060719       1.00657409      -0.16598643      -0.00021356      -0.00191252      -0.00184154
C       -4.21064471       1.40996784       0.63336170      -0.21254487      -0.00088413       0.00059811       0.00241417
C       -4.12472028       0.11823912       0.13237085      -0.18124793      -0.00211302       0.00060238       0.00179856
C       -2.89974933      -0.51117472       0.01130698      -0.18260930      -0.00505978       0.00021608       0.00463440
H        0.99748336      -2.24725510      -1.43440759       0.06057772      -0.00171793       0.00357590       0.00536537
H        2.47575509      -2.84993165      -0.72685082       0.06448594       0.00281641       0.00344432      -0.00383753
H        0.95309874      -3.10184745       0.10985922       0.05730261      -0.00034805       0.00329804      -0.00423071
H        3.81342075      -1.54253598       0.86388228       0.07016553      -0.00253513       0.00134768      -0.00225317
H        3.28709122       0.12859995       1.15773286       0.08116824      -0.00301749      -0.00583996      -0.00209261
H       -0.58887274      -1.46624186      -0.16013934       0.23102199       0.00184686       0.00457404       0.00737531
H       -0.88090958       1.92776626       1.17638842       0.12523317      -0.00127517      -0.00087111       0.00339751
H       -3.07877353       3.05872761       1.40036083       0.11115499       0.00116362      -0.00454763      -0.00730831
H       -5.16775124       1.90257756       0.73086640       0.11816060       0.00566176       0.00057543      -0.00287167
H       -5.02236468      -0.40866106      -0.16725145       0.11249371       0.00712124      -0.00078487      -0.00410548
H       -2.85078128      -1.52022258      -0.38259377       0.10794783      -0.00090333       0.00091257       0.00379172
S        4.17150110      -0.20986647      -1.05566887      -0.29830638      -0.00259693       0.00018640       0.00323532
C        3.11595100       1.17773129      -1.50578955      -0.19281548      -0.00438126       0.00042894       0.00333024
H        2.11746316       0.81671223      -1.73485507       0.09060259       0.00800950      -0.00132734      -0.00142580
H        3.04101890       1.88370692      -0.68270590       0.08221263      -0.00091488      -0.00230469      -0.00529664
H        3.54613508       1.67105540      -2.37657629       0.09514808      -0.00038884       0.00062327       0.00094963
