31
Properties=species:S:1:pos:R:3:charge:R:1:forces:R:3 energy=-27091.423324118503 pbc="F F F"
O        0.10836151      -1.23353681      -0.35894984      -0.48456907      -0.00222002      -0.00305247       0.00196657
C        0.12702424      -0.04468978       0.04137214       0.30147782      -0.00468869      -0.00165154      -0.00258861
C       -0.87434956       0.89270386      -0.06488513      -0.43108913      -0.00364576       0.00386348       0.00019099
C       -2.18232468       0.51874186      -0.72453582       0.10400994      -0.00263405      -0.00177132      -0.00527168
C       -2.01570258       0.10902791      -2.18975320      -0.22794093      -0.00179685      -0.00083873      -0.00465137
C       -2.92611852      -0.59600851       0.01490548      -0.22794545       0.00041973      -0.00070032       0.00041124
N        1.33137003       0.42973780       0.70339822      -0.38523003      -0.00101887      -0.00163721       0.00423311
C        2.54339082      -0.18207449       0.88633420       0.20142432       0.00194585      -0.00356788       0.00130696
C        2.82658054      -1.49692833       0.47191845      -0.14061783       0.00371928      -0.00375323      -0.00623484
C        4.08132422      -2.03574875       0.69733215      -0.16200218       0.00622929       0.00240162      -0.00210269
C        5.09070294      -1.31824626       1.33006949      -0.22035956       0.00108782       0.00384476       0.00388241
C        4.81494737      -0.02173690       1.74334246      -0.17585397      -0.00144607       0.00262602       0.00000709
C        3.56986100       0.53634907       1.52819349      -0.19130003       0.00142440       0.00512139      -0.00343846
H       -0.73859145       1.89455325       0.32909390       0.09908070       0.00006151       0.00775761       0.00205838
H       -1.58650591       0.93417169      -2.75508644       0.06440216       0.00286483       0.00093020       0.00248613
H       -2.97173895      -0.17277838      -2.63539657       0.04936401      -0.00355229      -0.00099205       0.00054910
H       -1.33221815      -0.73514299      -2.24110092       0.07413598       0.00187984       0.00330471       0.00156275
H       -3.14225857      -0.27869385       1.03332975       0.06435042      -0.00003259      -0.00031646       0.00174778
H       -2.28599469      -1.47415240       0.05668612       0.07387315       0.00275461       0.00139975       0.00109685
H       -3.86103328      -0.85284826      -0.48737917       0.04931547       0.00284177      -0.00115699      -0.00271542
H        1.27344786       1.38717641       0.98803575       0.24008438       0.00035968       0.00151248       0.00136369
H        2.04026003      -2.04485615      -0.01771691       0.12431661      -0.00442790      -0.00485640      -0.00058472
H        4.27667004      -3.04822469       0.36603851       0.11139505      -0.00540705       0.00111468       0.00387091
H        6.06446677      -1.75582275       1.49684204       0.11901492      -0.00259736      -0.00337174      -0.00175492
H        5.57888755       0.56438556       2.23936957       0.11259457       0.00077605      -0.00688998      -0.00051588
H        3.37003228       1.54971486       1.85725002       0.10690621       0.00420112       0.00640363       0.00295967
S       -3.18557290       2.08255454      -0.63931020      -0.28247005       0.00096936      -0.00611201      -0.00002404
C       -4.74881996       1.64102972      -1.43028760      -0.20163912      -0.00021556       0.00043640      -0.00091948
H       -5.27285824       0.85172618      -0.89438797       0.07222413       0.00332079      -0.00164567       0.00133242
H       -4.61237816       1.33828552      -2.46671906       0.07176789      -0.00051989       0.00096454      -0.00160479
H       -5.36516541       2.53889450      -1.41160099       0.09127967      -0.00065223       0.00063256       0.00138126
