23
Properties=species:S:1:pos:R:3:charge:R:1:forces:R:3 energy=-14096.077834098542 pbc="F F F"
O        0.58915556      -0.58781184       2.19135304      -0.46577045      -0.00366193      -0.00027326       0.00116023
C        0.96663326      -0.27178124       1.08151093       0.44764987       0.00259905       0.00482972      -0.00043353
C        2.42341573      -0.23371005       0.75870994      -0.16908105       0.00070778      -0.00143103      -0.00261066
C        2.94987838      -0.28032563      -0.45721702      -0.09971560       0.00002214      -0.00203153      -0.00352411
C        4.41429827      -0.23054229      -0.75309093      -0.18171880       0.00104970       0.00164019      -0.00028427
N        0.13075696       0.08647853       0.05216216      -0.33409101      -0.00077553       0.00092690       0.00069172
C       -1.27491300       0.13171820       0.03898367       0.11810540      -0.00132141      -0.00060675      -0.00310152
C       -2.07054023      -0.44250667       1.02613954      -0.12385986       0.00283759      -0.00326520       0.00162988
C       -3.45142634      -0.37629985       0.90733252      -0.13866265       0.00399784      -0.00099614       0.00003075
C       -4.05496865       0.25154522      -0.17081415      -0.15737315      -0.00066873      -0.00056893       0.00239572
C       -3.25783469       0.82544460      -1.15021353      -0.14013779      -0.00658530       0.00058146       0.00004205
C       -1.87959040       0.76377689      -1.04622440      -0.16506843      -0.00410324       0.00080613      -0.00447570
H        3.04756429      -0.21717695       1.64120345       0.12537734      -0.00572035       0.00107706       0.00188881
H        2.29145260      -0.39265938      -1.31413665       0.12095691      -0.00023462      -0.00345429      -0.00444000
H        4.63804936       0.59499524      -1.42788706       0.07979091       0.00338116       0.00469308       0.00153875
H        4.99423103      -0.10346339       0.15659569       0.07915320      -0.00309724      -0.00634838       0.00509041
H        4.73504572      -1.14668678      -1.24725410       0.08065579       0.00074419       0.00014739      -0.00090947
H        0.56947422       0.51398082      -0.74070184       0.24504268       0.00180827       0.00415469       0.00473549
H       -1.60594955      -0.92376524       1.86790508       0.14196935       0.00477405      -0.00303819       0.00613129
H       -4.06232996      -0.82467606       1.67777312       0.13495131       0.00393292       0.00054833      -0.00162154
H       -5.13166422       0.29365840      -0.24772874       0.13764627       0.00009678       0.00509962       0.00130901
H       -3.70757975       1.32253678      -1.99785303       0.13641120      -0.00233681      -0.00205154      -0.00296017
H       -1.25953523       1.21042965      -1.81387201       0.12776858       0.00255303      -0.00043901      -0.00228369
