52
Properties=species:S:1:pos:R:3:charge:R:1:forces:R:3 energy=-59561.387993722725 pbc="F F F"
Cl      -3.27617026       2.10152365       4.01039073      -0.10469430       0.00298044      -0.00538285      -0.00614810
C       -2.50085032       1.24193149       2.71175748      -0.06853616       0.00063073       0.00123140      -0.00197301
C       -1.11540761       1.21980944       2.66013247       0.05033808      -0.00227487      -0.00008410      -0.00288359
N       -0.43390687       0.63504052       1.69742520      -0.33356208      -0.00299558      -0.00023735      -0.00235933
C       -1.17238703       0.05847151       0.74212838       0.45945618       0.00201142       0.00236953      -0.00287186
N       -0.60989637      -0.59551998      -0.30211269      -0.31286576       0.00195223      -0.00451397       0.00155357
C        0.72056589      -0.70102075      -0.74992036       0.06751873      -0.00053927      -0.00260731       0.00572676
C        1.79574074      -0.09759765      -0.13511288      -0.13378412      -0.00178337      -0.00017596       0.00404341
C        3.08262138      -0.22289365      -0.68566381       0.13569687      -0.00270997      -0.00547367       0.00133363
N        4.17296007       0.42612586      -0.15025214      -0.32106197      -0.00411783       0.00554050      -0.00671598
C        4.32678104       0.94521764       1.17877699       0.28287387      -0.00170759       0.00052791      -0.00250462
C        5.57864453       1.50936976       1.45881925      -0.52358818      -0.00102723      -0.00161966      -0.00106367
C        6.67370502       1.62123772       0.49853482      -0.10588685      -0.00238569      -0.00156881       0.00044255
O        3.37796699       0.82914493       1.98031884      -0.48639616       0.00328257      -0.00163866       0.00477798
C        3.24867043      -0.99568446      -1.83598716      -0.21656165      -0.00179186       0.00117135      -0.00270412
C        2.16521095      -1.62292207      -2.44200201      -0.21715854      -0.00298166       0.00272661      -0.00221095
C        0.90109201      -1.47229028      -1.90867168       0.07879077      -0.00233898       0.00600957       0.00116944
O       -0.25362880      -2.02288321      -2.43238158      -0.22750910      -0.00320035       0.00690787       0.00065153
C       -0.10455547      -2.82724437      -3.57632907      -0.07685980      -0.00107074       0.00226874       0.00277142
N       -2.50681911       0.05253572       0.69913816      -0.37215534       0.00419198      -0.00396411       0.00409682
C       -3.20461089       0.61047816       1.68714390       0.18038544       0.00290497       0.00175365      -0.00154211
C       -4.66612889       0.53433407       1.64932562       0.07982516       0.00243115       0.00187279      -0.00389227
C       -5.63468107       0.52511223       2.63771450      -0.03732147       0.00524817      -0.00225276       0.00041394
N       -6.87719212       0.38161324       2.14177725      -0.49439830       0.00410917       0.00533976      -0.00107989
C       -6.72776244       0.30607704       0.82574682       0.29437324      -0.00157072       0.00042264      -0.00137417
C       -7.70308783       0.17489360      -0.18863473      -0.18719032      -0.00040628      -0.00411175      -0.00471196
C       -7.30094924       0.12950287      -1.48523600      -0.13818721       0.00196335       0.00130976      -0.00425630
C       -5.92257143       0.20760917      -1.81346336      -0.18039200       0.00298647      -0.00102226       0.00360586
C       -4.98375292       0.32533261      -0.84331125      -0.05635994      -0.00049706       0.00577098       0.00388960
N       -5.39237290       0.38097899       0.46694544       0.04035994      -0.00163410      -0.00380322       0.00039209
H       -0.54212757       1.70145378       3.43885717       0.08034980      -0.00131557      -0.00251377      -0.00333206
H       -1.28250904      -1.04591711      -0.89641841       0.25821885       0.00511646      -0.00016341      -0.00470435
H        1.67204160       0.45953390       0.77473549       0.15281959       0.00253535       0.00006095       0.00387916
H        5.02825548       0.31812960      -0.67528691       0.22407840       0.00216147       0.00439161       0.00129247
H        5.71199524       1.81663305       2.48534344       0.11468975      -0.00326294       0.00255569      -0.00295202
H        6.36384894       2.06625475      -0.45561540       0.08354046       0.00390637      -0.00229725       0.00240024
H        7.50468976       2.22127836       0.87305020       0.09326971      -0.00269458      -0.00490280       0.00067906
H        4.23903949      -1.11641374      -2.25677311       0.12030824       0.00114052      -0.00282578       0.00310383
H        2.32975355      -2.22170049      -3.32468318       0.12338203       0.00200344       0.00424589      -0.00289187
H       -1.10206502      -3.17799325      -3.82741872       0.08253959      -0.00058164       0.00163328       0.00396395
H        0.29598887      -2.25929902      -4.41860399       0.07069179       0.00216222      -0.00644425      -0.00332900
H        0.53821626      -3.68816289      -3.38252099       0.07070294      -0.00109437      -0.00072768      -0.00318146
H       -5.48038440       0.59698929       3.69691596       0.10806894      -0.00191868       0.00137270       0.00397001
H       -8.74253254       0.11707317       0.09935213       0.12466832       0.00239906       0.00130028       0.00742124
H       -8.03000331       0.03459852      -2.27781628       0.12643895      -0.00047715      -0.00469773      -0.00156315
H       -5.60271166       0.17087662      -2.84468690       0.12847663       0.00203254      -0.00327535       0.00573078
H       -3.92001940       0.37021401      -0.99942620       0.11681056      -0.00340842       0.00386436      -0.00141358
S        7.53845240       0.02676538      -0.09537093      -0.24070695      -0.00504085       0.00284803      -0.00566333
C        7.02760708      -1.12897897       1.19202876      -0.18526471       0.00116693       0.00502059       0.00457819
H        7.39913187      -0.80403412       2.16014359       0.08593332      -0.00628657      -0.00207177       0.00203665
H        7.43533612      -2.10977794       0.95005168       0.10851663       0.00077133      -0.00641763       0.00000071
H        5.94237641      -1.17489105       1.22853390       0.07731813       0.00102834       0.00227643       0.00339643
