64
Properties=species:S:1:pos:R:3:charge:R:1:forces:R:3 energy=-64295.17296627043 pbc="F F F"
C       -2.23783258       2.46294702      -0.10792675       0.07004302      -0.00098198       0.00076047       0.00171164
N       -1.44443714       1.40685391      -0.05768317      -0.32861611       0.00099093       0.00267195       0.00176776
C       -2.03324817       0.25840283       0.29551253       0.44189852       0.00116159      -0.00055713      -0.00571248
N       -1.31831487      -0.89918633       0.40341238      -0.30130902      -0.00155598      -0.00365725      -0.00414769
C        0.04652567      -1.15919522       0.27501105       0.06748091      -0.00085290      -0.00552072       0.00269243
C        1.02500490      -0.19340651       0.17968475      -0.11714546      -0.00346581      -0.00067699       0.00106640
C        2.36496513      -0.56353008       0.05381636       0.07821541      -0.00077924       0.00278074       0.00581556
N        3.35241318       0.44451603      -0.09552624      -0.36106277       0.00356749      -0.00137756       0.00160932
C        3.37088479       1.66464332       0.51553363       0.41068277       0.00184884      -0.00208167      -0.00083991
O        2.52337326       2.05799456       1.28645120      -0.41878343      -0.00401452      -0.00524280      -0.00014287
C        4.58955015       2.50096263       0.16194206      -0.12687069       0.00403063      -0.00171106      -0.00263967
C        4.44157784       3.92286934       0.66629064      -0.10978384      -0.00290664      -0.00181490       0.00088846
S        5.86340448       4.96727792       0.27802291      -0.21088028      -0.00533417       0.00045989      -0.00080870
C        5.55991014       5.26309675      -1.47799751      -0.20126268       0.00035691      -0.00041236       0.00104953
C        2.74892806      -1.89571115       0.05204050      -0.00612550       0.00419712       0.00344946       0.00508840
C        4.23028263      -2.23620841      -0.03018577      -0.01593254       0.00160298      -0.00177359       0.00038403
N        4.65474001      -3.60370972       0.10683282      -0.27633753      -0.00131516      -0.00052914       0.00015714
C        4.39604097      -4.44999601      -1.03495468      -0.13938862      -0.00106875       0.00041541       0.00122444
C        4.44677675      -4.19089691       1.41170669      -0.13810036       0.00308940      -0.00063355      -0.00058910
C        1.75378471      -2.86826113       0.15335707      -0.17664360       0.00415919       0.00116429      -0.00384808
C        0.42820166      -2.51084907       0.27541333       0.10136063       0.00084346      -0.00565915      -0.00401287
O       -0.60626070      -3.39406962       0.40373697      -0.22196801      -0.00280290      -0.00185730       0.00891329
C       -0.28975527      -4.76627796       0.53324420      -0.06413905      -0.00055809       0.00041953       0.00048887
N       -3.33064463       0.09065052       0.55502831      -0.35935593       0.00227724       0.00245524       0.00074998
C       -4.14350777       1.13230245       0.40857717       0.16960780       0.00063934       0.00057638       0.00171528
C       -5.55853127       0.88801577       0.62181332       0.04468676       0.00014862      -0.00187025       0.00025263
C       -6.16095962       0.15019245       1.61690462      -0.00787886      -0.00080603       0.00115058       0.00359215
N       -7.50720316       0.16902374       1.52464201      -0.46475950      -0.00115032       0.00004093       0.00171638
C       -7.77675083       0.89245382       0.44464030       0.26727548       0.00046508      -0.00228847       0.00018069
C       -9.01569756       1.21271948      -0.15628451      -0.16878387       0.00077214       0.00112756       0.00144678
C       -9.02488354       1.90429545      -1.32669775      -0.11210706       0.00230567      -0.00011121       0.00146659
C       -7.80567267       2.29266545      -1.94809821      -0.15097728      -0.00046477       0.00143669      -0.00255579
C       -6.62135312       2.00294197      -1.36042562      -0.04887141       0.00027763       0.00178872      -0.00273242
N       -6.61405576       1.35158048      -0.15775589      -0.00456016       0.00043796       0.00104788      -0.00094252
C       -3.59684529       2.39004759       0.12733142      -0.06652943      -0.00110589      -0.00066575      -0.00350096
Cl      -4.53084240       3.84739243       0.19097485      -0.05604059      -0.00124595      -0.00385168      -0.00607098
H       -1.77871873       3.41433837      -0.34417105       0.09311909      -0.00430607      -0.00085080      -0.00096577
H       -1.89459888      -1.69951759       0.59345301       0.26049176       0.00107216      -0.00328715       0.00138577
H        0.75674289       0.84680206       0.22184162       0.14397794       0.00165577       0.00400307      -0.00264439
H        4.18256118       0.20509950      -0.60837268       0.24524258      -0.00228597       0.00559111       0.00189262
H        5.45833122       2.02432492       0.62235414       0.07801926       0.00168834       0.00006831      -0.00243358
H        4.75104511       2.46898937      -0.91808915       0.06845946      -0.00108628      -0.00242124      -0.00003958
H        4.33627225       3.92090989       1.74650339       0.11276124      -0.00084980      -0.00272635      -0.00042597
H        3.53442202       4.37013399       0.26560796       0.09643890       0.00374147       0.00300564      -0.00148534
H        4.57471470       5.69619746      -1.63412800       0.09418748       0.00388322      -0.00232837       0.00747046
H        5.65146296       4.35220817      -2.06445997       0.08655278       0.00245540       0.00649653      -0.00293611
H        6.31458490       5.96970524      -1.81263330       0.11638296      -0.00416746       0.00188313      -0.00444105
H        4.62200301      -1.87996266      -0.99020838       0.07442322      -0.00155976      -0.00138209       0.00120272
H        4.74849693      -1.66133283       0.74329945       0.07575854      -0.00156341      -0.00189341      -0.00166052
H        4.86825462      -5.41958304      -0.88631709       0.08739872       0.00054780      -0.00043900      -0.00096738
H        3.33395767      -4.61461166      -1.24534940       0.06127727      -0.00178777      -0.00180541       0.00199814
H        4.84093288      -3.99952024      -1.92201219       0.07892437      -0.00013866       0.00456206       0.00186096
H        3.39385210      -4.34377667       1.67271824       0.06043280       0.00033344       0.00604187      -0.00360015
H        4.95585396      -5.15185761       1.46514738       0.08793455       0.00024991      -0.00432396      -0.00342955
H        4.88628698      -3.54274571       2.16947704       0.07881725       0.00040170      -0.00134595       0.00384369
H        2.00278537      -3.91034850       0.14963235       0.11189401      -0.00256250       0.00001029      -0.00001005
H        0.18463941      -5.15432776      -0.37074790       0.07199529       0.00112284       0.00672729      -0.00014621
H       -1.23713922      -5.27078794       0.68575513       0.09557676       0.00135576       0.00271136       0.00087131
H        0.36294885      -4.94611031       1.39088301       0.06935749      -0.00449232      -0.00266717       0.00039167
H       -5.64838517      -0.39523509       2.39363589       0.12600332       0.00442666      -0.00268870       0.00004181
H       -9.92136559       0.88458732       0.32906713       0.13724014      -0.00082092      -0.00124204      -0.00327621
H       -9.96314578       2.15303842      -1.80104808       0.13698296       0.00028204      -0.00369965       0.00703953
H       -7.80965920       2.82148389      -2.88866919       0.14122516      -0.00000415       0.00531394      -0.00172935
H       -5.65680841       2.24647791      -1.76723338       0.11208723      -0.00035563       0.00723488      -0.00324152
