40
Properties=species:S:1:pos:R:3:charge:R:1:forces:R:3 energy=-34726.25052587303 pbc="F F F"
C        3.56865092       2.39138036      -0.75297462       0.07633260       0.00065457       0.00446301      -0.00206523
N        4.77222606       2.64169405      -1.20064694      -0.44890648       0.00442600       0.00075157       0.00195255
C        5.55650982       1.55466332      -1.42790132       0.23864825       0.00502118      -0.00101469       0.00291552
N        5.24871025       0.30081552      -1.25190260      -0.44813693      -0.00102305      -0.00579765       0.00010497
C        3.99496133       0.03787378      -0.78821972       0.30800200      -0.00166101      -0.00451925       0.00145316
C        3.08664956       1.08150782      -0.51497885       0.09962457      -0.00153170       0.00040258      -0.00135695
C        1.79352435       0.79000997      -0.04841086      -0.19758044      -0.00235950      -0.00213438      -0.00194604
C        1.37845142      -0.51812318       0.13525183       0.12907805      -0.00197514       0.00077302       0.00230604
N        0.08234084      -0.74688278       0.49817914      -0.31213877       0.00079403       0.00207815       0.00448406
C       -0.45728146      -1.89627969       1.15901175       0.30935395       0.00075180       0.00244991      -0.00667744
C       -1.83584825      -1.88316220       1.39582900      -0.48715487       0.00594490      -0.00013930      -0.00370351
C       -2.92956428      -1.18878731       0.66883837      -0.01787924       0.00410201      -0.00800222       0.00391119
C       -2.69554235       0.18304995       0.02236558      -0.02225399      -0.00016526      -0.00148824       0.00077767
N       -1.99016566       1.15134092       0.87172514      -0.25595325       0.00142694       0.00215999      -0.00303243
C       -1.92289875       2.44487124       0.22564246      -0.12575404      -0.00213058       0.00139615       0.00088393
C       -2.57277928       1.25690649       2.19543426      -0.12102241       0.00064676      -0.00176813      -0.00453296
O        0.33140093      -2.80257691       1.49516191      -0.54391015      -0.00839067      -0.00182139       0.00284265
C        2.31539620      -1.57089556      -0.12072365      -0.15532422      -0.00452956       0.00046640       0.00254951
C        3.56985107      -1.29398982      -0.57146330      -0.19036555      -0.00009754      -0.00229903      -0.00629626
H        6.55082577       1.76922835      -1.79838509       0.03724081       0.00416411       0.00491661       0.00078867
H        1.10710239       1.59757319       0.16958293       0.10578751      -0.00113617       0.00250310      -0.00199157
H       -0.49176910       0.08059686       0.62362717       0.23931053       0.00152483       0.00272969       0.00284126
H       -2.18032685      -2.74277883       1.95712959       0.10437734       0.00000031       0.00502837      -0.00375141
H       -3.77162390      -1.07753247       1.35302264       0.08993911      -0.00280131       0.00098203       0.00099261
H       -2.12106858       0.06300237      -0.89818060       0.06770606      -0.00093015       0.00142559      -0.00077415
H       -3.67091897       0.60162446      -0.26454546       0.05242591      -0.00171565       0.00238560      -0.00229956
H       -1.49380504       2.34759767      -0.77212635       0.05852978      -0.00654103      -0.00584280       0.00442566
H       -2.91532627       2.90536993       0.12501601       0.06047140      -0.00047162       0.00161825      -0.00119379
H       -1.29474558       3.11730373       0.81055686       0.06955592       0.00157680       0.00171038      -0.00562015
H       -2.01336392       1.99004868       2.77503169       0.07141258      -0.00068095      -0.00502359      -0.00114186
H       -3.62610798       1.57608483       2.16154417       0.05223906      -0.00054677       0.00014326       0.00572142
H       -2.51009669       0.29342528       2.68879176       0.06511840       0.00052807       0.00114277      -0.00130950
H        4.27688522      -2.08742306      -0.77404722       0.11022105       0.00169452      -0.00398691      -0.00407652
H        2.92142723       3.24327569      -0.56350301       0.05646921      -0.00365821       0.00091598       0.00449390
H        1.97893497      -2.57824750       0.06600083       0.12352567       0.00389960       0.00304335      -0.00347215
S       -3.74373358      -2.25435147      -0.64120193      -0.27501324       0.00303593      -0.00220950       0.00411876
C       -2.29530399      -2.63204503      -1.64084584      -0.19957781      -0.00221394       0.00480608       0.00345711
H       -1.93819937      -1.75827703      -2.18218734       0.07919429       0.00397426      -0.00160443      -0.00397673
H       -2.57852648      -3.39975276      -2.36055459       0.10674997       0.00372928       0.00321383       0.00580945
H       -1.50250392      -3.00089740      -0.99388111       0.08965740      -0.00333473      -0.00385465       0.00238845
