26
Properties=species:S:1:pos:R:3:charge:R:1:forces:R:3 energy=-24966.46244668055 pbc="F F F"
C        3.77099048       1.10294778      -0.74798964      -0.13405538      -0.00011132      -0.00347253      -0.00075119
C        2.41532965       0.81108320      -0.69789039      -0.11633472      -0.00106441       0.00081407      -0.00581128
C        1.94015401      -0.04144970       0.29491160       0.14378731       0.00174465       0.00192071      -0.00254033
N        0.58448745      -0.39355118       0.43836398      -0.36196527       0.00155620      -0.00193310      -0.00186934
C       -0.48067191      -0.07943215      -0.36355805       0.41703898      -0.00118732       0.00689472       0.00108240
O       -0.39514497       0.59602017      -1.36524531      -0.42428872       0.00061546      -0.00208338      -0.00527243
C       -1.80157387      -0.66779499       0.10971674      -0.13443319      -0.00085159       0.00003594       0.00075656
C       -2.93447496      -0.28625659      -0.82509423      -0.10215864      -0.00060346       0.00115637      -0.00271542
S       -4.53223912      -0.97045956      -0.33766547      -0.21012522      -0.00234754      -0.00143389       0.00133663
C       -4.94609519       0.16176028       1.00719896      -0.20206529       0.00087954      -0.00015064       0.00235909
C        2.83269675      -0.58691825       1.21682209      -0.15624943      -0.00109486      -0.00018268       0.00242735
C        4.18213897      -0.28828610       1.15327902      -0.14082636      -0.00055463       0.00204464       0.00057828
H        4.86238880      -0.71954093       1.87396330       0.13451152      -0.00586253      -0.00188054       0.00159251
C        4.66063623       0.56218328       0.16716566      -0.16131763       0.00132384       0.00080549      -0.00006997
H        5.71313353       0.79849749       0.11361218       0.13599327       0.00269584      -0.00004105       0.00085705
H        4.13125728       1.76557438      -1.52214657       0.13315316      -0.00237170      -0.00246175       0.00451024
H        1.72997271       1.22879740      -1.41219786       0.13541913      -0.00364870       0.00583672      -0.00322955
H        0.38565032      -0.97864229       1.22965695       0.26190579      -0.00075928       0.00019082      -0.00099732
H       -1.70407833      -1.75301111       0.16481852       0.07690092       0.00530799      -0.00360048       0.00016268
H       -1.99356896      -0.32440799       1.12807390       0.06878499       0.00099412       0.00011275       0.00249954
H       -2.72464785      -0.65849073      -1.82257411       0.11217390       0.00207234      -0.00198988      -0.00323854
H       -3.00512892       0.79519396      -0.90380668       0.09902021       0.00086969       0.00334365      -0.00225503
H       -5.95987280      -0.07360836       1.32057558       0.11607964      -0.00000219      -0.00266802       0.00111719
H       -4.91412006       1.19363211       0.66570567       0.09371106       0.00291889       0.00117038       0.00078131
H       -4.28136768       0.04125692       1.85882482       0.08815377       0.00440939      -0.00012489       0.00387940
H        2.45918001      -1.25180838       1.98502628       0.12718627      -0.00492872      -0.00230332       0.00480912
