53
Properties=species:S:1:pos:R:3:charge:R:1:forces:R:3 energy=-50788.89213566582 pbc="F F F"
C       -2.61699927      -0.76636979       1.16554686      -0.08539238       0.00128694       0.00129053      -0.00437216
N       -2.83263410       0.42427693       0.37094479      -0.37884516      -0.00009562      -0.00417297      -0.00368018
C       -1.89718357       1.37790486       0.21512456       0.40571177      -0.00282607       0.00035645       0.00010993
C       -2.29423405       2.43608481      -0.78269062      -0.00358849       0.00143634       0.00188461       0.00022443
C       -1.70533574       2.36797431      -2.04350755       0.09658494       0.00190781       0.00224450      -0.00071257
N       -0.74589064       1.34960597      -2.30565746      -0.40641916      -0.00020847      -0.00043283       0.00264934
C       -1.01677250       0.00641155      -2.40736711       0.29652411      -0.00211054       0.00087146      -0.00069810
C       -2.18511858      -0.58185362      -2.90407677      -0.08898263      -0.00464330       0.00080375       0.00106300
Cl      -3.54761515       0.32591927      -3.46167993      -0.04483742       0.00019103      -0.00135935      -0.00307098
C       -2.22259155      -1.96656039      -2.93161300       0.07074906      -0.00293038      -0.00091834       0.00268661
N       -1.26138222      -2.73281547      -2.44719837      -0.40219617      -0.00156260      -0.00090561      -0.00181248
C       -0.21772916      -2.07751450      -1.91407178       0.42219993       0.00000614       0.00014936       0.00140589
N        0.69457940      -2.85491424      -1.25860225      -0.33009717      -0.00169906       0.00026528       0.00171848
C        1.49478125      -2.46878176      -0.17679052       0.05115640       0.00335153       0.00635934      -0.00170777
C        2.44205584      -3.38775950       0.29722234       0.09435680       0.00194415       0.00310312      -0.00259446
O        2.45854821      -4.58443226      -0.36924589      -0.22207482       0.00513307       0.00340056      -0.00101354
C        3.52124114      -5.47047341      -0.07853217      -0.07530385       0.00070475      -0.00234265      -0.00057761
C        3.24075364      -3.05128394       1.37195132      -0.18969011       0.00004976      -0.00189329       0.00051017
C        3.10782970      -1.81820648       2.01105467      -0.13653786       0.00336151       0.00009284      -0.00300271
C        2.15865010      -0.92363513       1.55761320       0.10346361      -0.00005517       0.00109922       0.00362010
N        1.89460933       0.34542550       2.11995260      -0.33122462       0.00180474      -0.00276765       0.00518083
C        2.61312954       1.01448938       3.06210341       0.42983827       0.00092102       0.00156666       0.00133037
C        2.05023357       2.35737309       3.40700941      -0.14496544      -0.00085585       0.00086414       0.00242694
C        2.65152092       3.12356908       4.30323615      -0.28705737       0.00112939      -0.00040092      -0.00167234
O        3.62281931       0.58572462       3.59011763      -0.43748856      -0.00273042      -0.00181581       0.00233398
C        1.35869642      -1.26122491       0.46850888      -0.12990074       0.00475022       0.00433044      -0.00013664
N       -0.03074957      -0.77144841      -1.97722827      -0.32470480      -0.00116202       0.00041882      -0.00310666
C       -1.98996750       3.33056864      -3.00000263      -0.12773576       0.00186581       0.00135374      -0.00350206
C       -2.87360079       4.35555669      -2.69568155      -0.14025311       0.00001109      -0.00157153      -0.00194007
C       -3.47608976       4.41755789      -1.44581672      -0.14218456       0.00428228       0.00132536      -0.00243418
C       -3.19006442       3.45589485      -0.48764501      -0.15068001      -0.00190653      -0.00068986      -0.00058070
O       -0.81398095       1.37135282       0.78795793      -0.42467794       0.00041527       0.00048857       0.00378809
H       -2.02150693      -0.51501010       2.03783942       0.08490939       0.00240739       0.00133186       0.00535550
H       -3.57489977      -1.17358607       1.47631454       0.10720210      -0.00227915       0.00194900       0.00671293
H       -2.08227503      -1.53026848       0.60054649       0.06098672       0.00405125      -0.00094559      -0.00712782
H       -3.70885710       0.55351637      -0.10627487       0.26561290      -0.00176772      -0.00090848      -0.00093464
H        0.14520056       1.47166103      -1.84458883       0.26585329      -0.00034504       0.00073540      -0.00072484
H       -3.09162529      -2.45590222      -3.35386162       0.09511095      -0.00163754      -0.00079321      -0.00168444
H        0.61279578      -3.84410024      -1.41533427       0.27298003      -0.00090170      -0.00423929      -0.00168043
H        3.45958626      -5.84957560       0.94340319       0.08082651      -0.00027894       0.00541025       0.00086540
H        3.41508540      -6.30064717      -0.77046345       0.09558921      -0.00485527      -0.00445801       0.00060787
H        4.49045243      -4.99372121      -0.23497241       0.07966330       0.00126448      -0.00693086      -0.00001300
H        3.98475618      -3.73997933       1.74045188       0.13510539       0.00113879       0.00188598       0.00203266
H        3.73640423      -1.56586258       2.84451519       0.13865080      -0.00361563       0.00049256      -0.00263744
H        1.08462194       0.81646594       1.73300530       0.25212264      -0.00078360      -0.00171949      -0.00013639
H        1.14837843       2.67553707       2.90334103       0.12453121      -0.00004167      -0.00284987      -0.00064995
H        3.55390448       2.77180043       4.78314022       0.15826933      -0.00244371       0.00226397       0.00246935
H        2.27037519       4.09880666       4.57450402       0.14723784       0.00076564      -0.00283964      -0.00142956
H        0.61885050      -0.56190427       0.11632502       0.12018894       0.00333499       0.00017348       0.00036083
H       -1.51149570       3.27186496      -3.96598360       0.13373227      -0.00255492      -0.00236585       0.00201788
H       -3.09606458       5.10461887      -3.44098639       0.14083700      -0.00065832      -0.00094007       0.00135690
H       -4.16969259       5.21457226      -1.21925445       0.13895653       0.00112612       0.00006713       0.00203105
H       -3.65524576       3.49970081       0.48688021       0.13588685      -0.00369357       0.00168534       0.00077588
