69
Properties=species:S:1:pos:R:3:charge:R:1:forces:R:3 energy=-67432.03482820182 pbc="F F F"
C       -8.29863147       4.35919370      -0.95503738      -0.11617015       0.00659636       0.00001671       0.00606759
N       -8.08198974       2.92662897      -0.94546639      -0.42651835       0.00538489       0.00050144       0.00060277
C       -6.92642343       2.41488876      -1.45062610       0.44413182      -0.00011844      -0.00221409      -0.00582762
C       -6.77174799       0.93135118      -1.33169441       0.00915419      -0.00056926      -0.00189274       0.00173895
C       -5.49887215       0.33587808      -1.22828415       0.12873529      -0.00194523      -0.00479128      -0.00588956
N       -4.38162064       1.15310439      -1.29236779      -0.28373542      -0.00415245      -0.00243151      -0.00054037
C       -3.05434644       0.88778270      -1.02030157       0.31503502      -0.00323617      -0.00022190      -0.00407128
C       -2.09989773       1.89939883      -1.23156257      -0.08464888      -0.00019200       0.00049768       0.00491747
Cl      -2.53705726       3.47405665      -1.82490148      -0.09227811      -0.00093004      -0.00327538       0.00101759
C       -0.78918468       1.60322716      -0.95131518       0.03614396       0.00283712      -0.00469511      -0.00663364
N       -0.38448016       0.42429964      -0.49747319      -0.36912420      -0.00077811      -0.00091305       0.00314702
C       -1.34570689      -0.47915977      -0.32064366       0.43870836      -0.00286096      -0.00234751      -0.00540633
N       -1.09055741      -1.71851636       0.14027950      -0.31404212       0.00162713      -0.00023759       0.00178098
C        0.12169207      -2.36567603       0.44699042       0.07376659       0.00300868      -0.00103427      -0.00416296
C        0.01711581      -3.66853081       0.95037881       0.07056734       0.00343529       0.00085291      -0.00093908
O       -1.27664433      -4.14362153       1.06340763      -0.23051268      -0.00075563       0.00703528       0.00029155
C       -1.43353615      -5.38670989       1.70438051      -0.07856055      -0.00121020       0.00442511      -0.00099814
C        1.16040320      -4.36927292       1.27400104      -0.21396105       0.00258047       0.00006247       0.00041302
C        2.42365844      -3.80884874       1.10242801      -0.17794125       0.00048454       0.00224621       0.00163189
C        2.54696066      -2.51313829       0.59985089       0.12770799       0.00061627       0.00026073       0.00263345
N        3.73621762      -1.85699352       0.41064868      -0.30046743      -0.00077112      -0.00209493       0.00440950
C        5.08255961      -2.33909732       0.56916166       0.30551794      -0.00178246       0.00198895      -0.00458188
C        6.08188740      -1.38772716       0.37419912      -0.49222043       0.00078848      -0.00094528       0.00460174
C        5.84736165       0.04622962       0.17268647      -0.04297492      -0.00627305      -0.00342634      -0.00031018
C        7.08854945       0.86642397       0.49807846      -0.04205355      -0.00406167      -0.00137296       0.00058973
N        6.82672698       2.29317231       0.64535980      -0.23926271      -0.00222330       0.00158836      -0.00184654
C        8.05186999       3.04839929       0.54371563      -0.13876368       0.00242017      -0.00097024      -0.00077096
C        6.14145147       2.58292820       1.88894599      -0.12931730      -0.00169380      -0.00135840       0.00049934
O        5.25057102      -3.53839279       0.86338246      -0.53858840       0.00547005       0.00326462      -0.00049244
C        1.36426511      -1.80879800       0.27514572      -0.18041284       0.00287951      -0.00100843      -0.00182264
N       -2.65863688      -0.27942762      -0.56527779      -0.36248001      -0.00352413       0.00378224       0.00411437
C       -5.40266431      -1.05611231      -1.08718066      -0.12785165      -0.00106709      -0.00216414      -0.00215619
C       -6.54022063      -1.83544868      -1.07126010      -0.17252086      -0.00037283       0.00190844       0.00169983
C       -7.79983321      -1.25720945      -1.18712190      -0.18134022       0.00058454      -0.00005576       0.00040922
C       -7.90151980       0.11315584      -1.30626314      -0.17321788       0.00270189      -0.00207989       0.00045947
O       -6.09942981       3.15438532      -1.97893608      -0.44374821      -0.00079453       0.00434534      -0.00367527
H       -7.59697302       4.87204075      -0.29896448       0.07593106       0.00201537       0.00385857       0.00115838
H       -8.14583104       4.73278954      -1.96215601       0.08626851      -0.00210681       0.00046618      -0.00000760
H       -9.31637395       4.57153994      -0.63669923       0.08413132      -0.00330391       0.00248369       0.00096113
H       -8.60047943       2.36224025      -0.30133300       0.26592410       0.00025942       0.00318703      -0.00504461
H       -4.59881738       2.09873080      -1.59584758       0.25474602      -0.00195938       0.00016950       0.00664775
H       -0.03115058       2.35616428      -1.10361541       0.07024308      -0.00321408       0.00644386       0.00170646
H       -1.90392241      -2.29235979       0.27080923       0.26173267      -0.00004897       0.00030631      -0.00365916
H       -2.50561412      -5.55665890       1.76430410       0.08294267      -0.00180634      -0.00416564       0.00159818
H       -1.01578980      -5.37406965       2.71247169       0.07045557      -0.00024302      -0.00505046       0.00066022
H       -0.97878527      -6.19777717       1.13251695       0.07105683       0.00409137       0.00102083       0.00448877
H        1.09361169      -5.37316706       1.66474029       0.12365426       0.00063622      -0.00047975      -0.00373184
H        3.31678838      -4.35667316       1.34125250       0.13317817      -0.00060880       0.00251311      -0.00164660
H        3.63876468      -0.95981659      -0.03676189       0.22720098      -0.00212442      -0.00247695       0.00426608
H        7.09744302      -1.73419953       0.50146237       0.11147064       0.00250619      -0.00585278       0.00102199
H        4.99653260       0.39369965       0.76553127       0.09074093      -0.00487943       0.00229106       0.00162502
H        7.52582776       0.45778755       1.42053351       0.06088273       0.00197683      -0.00232518       0.00179119
H        7.82697053       0.71700339      -0.29244733       0.07199711      -0.00076160       0.00839449      -0.00092119
H        8.78416843       2.78530928       1.32494698       0.05438656       0.00055754       0.00289882       0.00052392
H        8.50744487       2.86080952      -0.42599279       0.07228464       0.00308716       0.00272145       0.00032877
H        7.84030419       4.11431527       0.62351819       0.07579142      -0.00051181      -0.00211810      -0.00542922
H        6.72235624       2.26817569       2.76963343       0.05907960       0.00046233      -0.00433116       0.00154142
H        5.18093839       2.07295675       1.92705905       0.05980141      -0.00266275      -0.00055289      -0.00000799
H        5.95516803       3.65531773       1.97052282       0.07613333      -0.00240740       0.00058851       0.00033582
H        1.41249187      -0.80833928      -0.12072384       0.13738899      -0.00049619      -0.00081372      -0.00128877
H       -4.41580072      -1.47926204      -0.99734495       0.12271646      -0.00236468      -0.00293299       0.00253028
H       -6.44598628      -2.90840178      -0.97005678       0.12603979       0.00763980       0.00564178      -0.00125236
H       -8.69184661      -1.86309658      -1.18309361       0.12854339       0.00290401       0.00056850      -0.00038846
H       -8.88307814       0.54661687      -1.42891882       0.11282120       0.00709554       0.00156787       0.00343637
S        5.30054640       0.47968879      -1.59546386      -0.23116089       0.00111766      -0.00495661      -0.00150279
C        4.29865597       1.95743616      -1.33545664      -0.19878340      -0.00088876      -0.00051149       0.00117888
H        4.10191157       2.37424482      -2.32326933       0.10628508       0.00171218       0.00166139      -0.00099776
H        4.85399417       2.67673157      -0.74134161       0.07929479      -0.00138799       0.00330653       0.00098540
H        3.33656921       1.74422841      -0.86023965       0.08006534      -0.00638911      -0.00676755      -0.00180890
