64
Properties=species:S:1:pos:R:3:charge:R:1:forces:R:3 energy=-66081.18935740879 pbc="F F F"
F      -10.33625810      -2.07311883       1.79704675      -0.15290740       0.00236864      -0.00431227       0.00290207
C       -9.02578136      -1.91864167       1.51060390       0.11928739       0.00066785       0.00258072      -0.00170165
C       -8.20746982      -3.02485161       1.40067819       0.00386758       0.00263859       0.00397559      -0.00089175
Cl      -8.86669990      -4.61035575       1.63539554      -0.10028302      -0.00650193       0.00450444      -0.00075924
C       -6.86379417      -2.87879190       1.10507790      -0.09097999       0.00287092       0.00241041      -0.00058475
C       -6.34084976      -1.60468401       0.91830458       0.14197287       0.00416235       0.00142710       0.00130849
N       -5.00071366      -1.37318200       0.60709746      -0.33492327       0.00099144       0.00018741      -0.00188010
C       -3.95322473      -2.25448023       0.42630818       0.33033833      -0.00155887      -0.00046843      -0.00122579
N       -4.09209272      -3.54011747       0.66391726      -0.40502334      -0.00098650      -0.00127912      -0.00268666
C       -2.99063283      -4.30575327       0.50345368       0.20854022       0.00342319       0.00402362       0.00160682
N       -1.79951738      -3.93935733       0.13746607      -0.46464086       0.00386856      -0.00274651      -0.00305970
C       -1.64839017      -2.60031550      -0.13005440       0.22029094       0.00197614      -0.00068012       0.00261586
C       -2.71526884      -1.70257953      -0.01991735       0.02823172      -0.00157783      -0.00101808      -0.00542319
C       -2.52865295      -0.33230144      -0.33567634      -0.16643420       0.00329248       0.00250357      -0.00085507
C       -1.29597238       0.15279027      -0.71395935       0.09589668       0.00516039       0.00178757      -0.00067418
N       -1.05250536       1.46136630      -1.03416980      -0.31059659      -0.00184443       0.00201483      -0.00521169
C       -1.76486633       2.58991806      -0.48526661       0.26350072       0.00276908      -0.00128773       0.00894910
C       -1.05952729       3.78630752      -0.42132083      -0.52757758      -0.00040245      -0.00103641      -0.00179933
C        0.32515533       3.99000728      -0.87958830      -0.10556661      -0.00275649      -0.00409921      -0.00195658
O       -2.93983885       2.40085389      -0.09185825      -0.52713293      -0.00159012       0.00198898      -0.00396952
C       -0.20634474      -0.78085538      -0.81069124       0.12045388       0.00358574       0.00014297      -0.00053387
O        0.97276002      -0.24341488      -1.22031380      -0.22102810       0.00230283       0.00276956      -0.00017023
C        2.16594381      -0.92780295      -0.87783093      -0.00802004      -0.00166126      -0.00282292      -0.00153043
C        3.31621106       0.03001156      -1.09419420      -0.12401810      -0.00439639       0.00088693       0.00088412
C        4.64424944      -0.58280157      -0.69204238      -0.04962759      -0.00353874      -0.00299754       0.00171897
N        5.75408158       0.30893769      -0.98267252      -0.27834278      -0.00237105      -0.00209402      -0.00303712
C        5.61139316       1.59737167      -0.30840651      -0.04149747      -0.00064100      -0.00155525      -0.00068343
C        6.93388719       2.32703275      -0.31891815      -0.01332320       0.00232577      -0.00326651      -0.00117681
O        7.94185553       1.65015328       0.43265817      -0.31721351      -0.00022637       0.00011545       0.00409877
C        7.69879513       0.25517428       0.54379409      -0.01536457      -0.00034203       0.00149437       0.00079978
C        7.06155382      -0.29414284      -0.71978105      -0.05601710      -0.00007140       0.00207590       0.00258149
C       -0.38685574      -2.10481096      -0.52184144      -0.22381416       0.00255252      -0.00115468      -0.00037143
C       -7.17473989      -0.49275011       1.03467088      -0.17556553       0.00071125      -0.00162314      -0.00058828
C       -8.51507146      -0.65016975       1.32920184      -0.17633712       0.00107243       0.00176040       0.00171406
H       -6.20993066      -3.72997873       1.01869084       0.12092900      -0.00122399      -0.00008314       0.00086267
H       -4.76124024      -0.40169433       0.50547785       0.25322080       0.00089459       0.00094253       0.00552861
H       -3.13171871      -5.35940256       0.71330567       0.04088528      -0.00174060       0.00842482      -0.00198421
H       -3.30069326       0.42170345      -0.29960436       0.13463241       0.00107949       0.00311804      -0.00323599
H       -0.10231924       1.62835590      -1.31743630       0.22772899       0.00223176      -0.00291534       0.00289505
H       -1.59757323       4.60333483       0.04010802       0.11709035      -0.00211392      -0.00294851      -0.00281177
H        0.49031896       3.62748233      -1.90279838       0.08466242      -0.00444336      -0.00277493       0.00007251
H        0.61120185       5.04139222      -0.87126211       0.09303100      -0.00336654      -0.00627331       0.00010254
H        2.12669825      -1.24534005       0.16785252       0.06063297      -0.00215293       0.00206622       0.00184011
H        2.27900564      -1.81734445      -1.50532240       0.06402925       0.00177666      -0.00499594      -0.00346988
H        3.36288503       0.32500812      -2.14497573       0.08371127      -0.00348192       0.00346587      -0.00079544
H        3.13785581       0.93090879      -0.51106393       0.09276586       0.00229313       0.00276657       0.00334946
H        4.82076287      -1.50099582      -1.25583244       0.07231604      -0.00081714      -0.00025794      -0.00460984
H        4.61125766      -0.86141160       0.37887104       0.05168997      -0.00125463      -0.00168912       0.00545301
H        4.87105573       2.19860010      -0.83005634       0.08825299      -0.00139449       0.00138119       0.00108406
H        5.26326809       1.48498384       0.72907021       0.08211017      -0.00204155      -0.00043203       0.00052408
H        6.82556169       3.31564853       0.11838094       0.07303312       0.00115014      -0.00462067      -0.00170689
H        7.26288105       2.43393879      -1.35550756       0.07287216      -0.00402282       0.00160117      -0.00395792
H        8.65774663      -0.21865935       0.73862568       0.07702582      -0.00231576       0.00204395      -0.00142575
H        7.03726793       0.06100200       1.39512378       0.06717001       0.00652075      -0.00035935       0.00300111
H        7.73968282      -0.09382956      -1.55431607       0.07992572      -0.00552622       0.00266876       0.00056347
H        6.95102585      -1.37441883      -0.63991843       0.07023474       0.00639878       0.00246831       0.00327344
H        0.42880485      -2.80618731      -0.58400480       0.11486657       0.00551391       0.00006929       0.00020285
H       -6.76304241       0.49627854       0.88934642       0.12701528      -0.00300203      -0.00274363       0.00388248
H       -9.17756277       0.19624492       1.42145567       0.14245309      -0.00174998       0.00021085       0.00125674
S        1.73035726       3.15948517       0.06814527      -0.22754480      -0.00054996      -0.00133892      -0.00243033
C        0.92116930       2.82688601       1.64306183      -0.17768346       0.00194302      -0.00503062      -0.00068856
H        1.62144394       2.29389443       2.28622548       0.10153327      -0.00079384       0.00196278       0.00070875
H        0.03790424       2.21708996       1.47273457       0.08005083      -0.00233210       0.00222196      -0.00068725
H        0.62499916       3.75950873       2.11514398       0.08521365      -0.00175207      -0.00315925       0.00479521
