39
Properties=species:S:1:pos:R:3:charge:R:1:forces:R:3 energy=-26952.83407899299 pbc="F F F"
O        2.92241908       0.21975251      -2.19687353      -0.43323416       0.00093681      -0.00078490       0.00071221
C        3.93472036       0.65852444      -1.68603053       0.45494744      -0.00320814      -0.00003592      -0.00230728
C        5.22398817       0.76304993      -2.43178078      -0.14651942       0.00075726      -0.00222370      -0.00259043
C        5.30700215       0.36835816      -3.69329673      -0.27737081      -0.00381072       0.00098001      -0.00530264
N        4.00260510       1.09810765      -0.39251098      -0.35460982       0.00098746      -0.00516679       0.00310657
C        2.98629353       1.12568917       0.58838241       0.09600291      -0.00676901       0.00166875       0.00050768
C        1.71161926       0.66098723       0.38812359      -0.14740980      -0.00439049      -0.00398055       0.00318626
C        0.75932568       0.73397915       1.43150303       0.04609399      -0.00242693      -0.00580894      -0.00017089
C        1.12161888       1.26600559       2.67848570       0.21961522      -0.00221578      -0.00087279      -0.00333650
C        2.44427864       1.73390977       2.85707934      -0.15871532      -0.00411280       0.00439955       0.00156567
C        3.34927939       1.66762101       1.84054800      -0.16251364      -0.00426920      -0.00206738       0.00309819
N        0.24158349       1.34543379       3.72512459      -0.42716092       0.00271268       0.00084601      -0.00441701
C       -0.95111528       0.89183548       3.48966242       0.23447289       0.00330248      -0.00065554      -0.00026201
N       -1.42793916       0.35615088       2.34386757      -0.38271055       0.00444769       0.00130410       0.00264248
C       -0.61083921       0.28169952       1.32180311       0.31907597       0.00069485       0.00083532       0.00115123
N       -1.02917844      -0.22022792       0.12069726      -0.32766107      -0.00112228       0.00480939       0.00379357
C       -2.26343703      -0.77598863      -0.27522557       0.08445595       0.00231373       0.00274205       0.00107061
C       -2.39380593      -1.10959194      -1.62220754      -0.17538770       0.00112622       0.00163898       0.00122126
C       -3.57554585      -1.66608968      -2.07297862      -0.15586576       0.00211627       0.00103156      -0.00062190
C       -4.62639624      -1.89347664      -1.19790623      -0.16589618       0.00215027       0.00146975       0.00081764
C       -4.50200914      -1.56563082       0.14443764       0.04818020      -0.00088895       0.00034133       0.00083384
C       -5.64891172      -1.77784755       1.09826625      -0.21854712      -0.00136052      -0.00043134       0.00029729
C       -3.31135531      -1.00762830       0.60098213      -0.13948347       0.00144808      -0.00289055       0.00019220
H        6.08780706       1.16680065      -1.91676653       0.12186257      -0.00156347       0.00061703       0.00031302
H        6.23421552       0.43749574      -4.24502948       0.14661431      -0.00192081      -0.00142511      -0.00170675
H        4.44067425      -0.03394659      -4.20003874       0.15973754      -0.00505200      -0.00175657      -0.00102053
H        4.88803053       1.45430492      -0.08262921       0.27167928       0.00180843      -0.00113735       0.00210676
H        1.47688327       0.23588910      -0.57005620       0.13050847       0.00911105       0.00182654      -0.00042297
H        2.70548777       2.14063790       3.82084030       0.12714787       0.00069509       0.00424233       0.00272871
H        4.35759697       2.03132293       1.99130127       0.13414849      -0.00416491       0.00022227       0.00011597
H       -1.66507578       0.94145718       4.30253785       0.06025973      -0.00002027      -0.00291643      -0.00295110
H       -0.37625221      -0.14638625      -0.63252238       0.25267559       0.00222078      -0.00213237       0.00656179
H       -1.57387382      -0.93282420      -2.30713534       0.13549507       0.00242670       0.00081167      -0.00040249
H       -3.67877362      -1.92544020      -3.11606493       0.13796821       0.00411652       0.00166046      -0.00625621
H       -5.54562727      -2.33066731      -1.56134873       0.13290960       0.00442334       0.00170038      -0.00510443
H       -6.29476392      -2.58512980       0.76034699       0.08069055       0.00061659      -0.00522494       0.00505900
H       -6.25520209      -0.87493042       1.16881349       0.08170307       0.00007241       0.00011151       0.00136617
H       -5.29462057      -2.01250999       2.10009425       0.07571331       0.00294576       0.00423982      -0.00132034
H       -3.17667246      -0.74488438       1.63473744       0.12112755      -0.00413343       0.00201255      -0.00425318
