36
16H (SP=-838.405627895221,U=-838.08328855,H=-838.08234434,G=-838.14387136)
N   -3.81963896266616      0.01038574666233      0.30530454649807
C   -2.50485007592455      0.34833836259341      0.36732936584821
C   -1.82001277534656     -0.12032213922983      1.60575327510602
C   -0.53261877452920      0.14164403555325      1.81358031847609
O   -1.93130909725093      0.99271295814871     -0.51362976710947
H   -2.40930496150404     -0.67449201892830      2.33245597346566
H   0.03075121241167      0.69126562847756      1.06441905103032
C   0.18591957075570     -0.33875496554157      3.03645073258547
C   -4.69164183797369      0.34124911911883     -0.76343185703542
C   -5.55172213037229     -0.60399001829029     -1.25707376604572
C   -6.45806131713505     -0.24917926578651     -2.28667887280210
C   -6.47074958043313      1.05758831703660     -2.81317879446369
C   -5.57518009839183      2.01836216722250     -2.27974790986443
C   -4.71363322540947      1.66844043132681     -1.27583697167477
H   -5.55146345365965     -1.61738904181920     -0.86613555234658
H   -4.04630529420260      2.40845260023278     -0.85040440980884
H   -4.16681746910635     -0.64370644904362      0.99497777734031
H   1.04539751376932     -0.96007102814223      2.77145613035600
H   -0.48465584574396     -0.90679822834538      3.68136706808733
N   0.72786689685639      0.79539354668488      3.86264265370401
C   1.80683039091918      1.55457029404844      3.16487650416801
C   1.20558236573209      0.29085323528558      5.18323367716149
H   0.37513466764193     -0.19860355385426      5.69080508283281
H   1.56192388774703      1.13856558701293      5.76728343159595
H   2.01586949316599     -0.41636472029798      5.00503485069034
H   1.40810194908815      2.00027237280905      2.25551311204698
H   2.61329395886387      0.85900876474463      2.93190339760029
H   2.15922270070638      2.33642644261110      3.83655594408469
N   -7.34147365858836      1.40204795501237     -3.81294827006748
C   -8.14720860360826      0.46295845463789     -4.23727469099951
N   -8.22504576223944     -0.82587195078870     -3.79823275328035
H   -8.84083305362296      0.72728519906531     -5.03021416926662
C   -7.38946738926804     -1.16045396119773     -2.84120736524355
H   -7.42835847482747     -2.18290785470852     -2.47088825172066
H   -5.59452329044664      3.03123619931597     -2.66810627297077
H   -0.04481947540697      1.44383777837318      4.04020678202189