21
21_TS (SP=-1062.261861176438,U=-1062.0959178,H=-1062.0949736,G=-1062.14755823)
N   -3.36502754451394  	0.01110491521180  	0.01578495137771
C   -2.10267660402592  	0.47593691209384  	0.19572002628701
C   -1.30427602502612 	-0.20242487675250  	1.19723620043112
C   0.00027507822745  	0.15873549570627  	1.41008761242664
O   -1.68739704426962  	1.44641573316514 	-0.48917316180054
S   1.59895909074104 	-0.87077229148442 	-0.13209549234248
C   2.90725322220057  	0.39511016619380 	-0.08023205698542
H   -1.73127804983745 	-1.06844569481579  	1.69370160048628
H   0.36405178076595  	1.12081302703466  	1.06621125037913
C   0.64527492141363 	-0.29069979506670  	2.69103091885380
H   2.49617592250862  	1.35509775482187  	0.25512583509845
H   3.71635517492310  	0.11858516575797  	0.60154993571663
H   3.33692750376384  	0.55408989611399 	-1.07401543526723
C   -4.29035736997471  	0.61765250784288 	-0.92507196715132
H   -3.67899847897516 	-0.75910561353834  	0.58544644337761
H   -3.90056430014521  	0.57827855657635 	-1.94631723299912
H   -5.22842216516403  	0.06291303883083 	-0.88891563126637
H   -4.49177506277882  	1.66277089215409 	-0.67049972263224
F   0.05901059621114  	0.34230811862578  	3.75524549396022
F   0.50767485406428 	-1.61168136155571  	2.93593064481878
F   1.95681449989138  	0.00231745308417  	2.79324978723133