28
22_TS (SP=-956.294211670244,U=-956.05019967,H=-956.04925546,G=-956.10529063)
N   -3.16594145942787 	-0.14398774199677  	0.07302161409221
C   -1.89229195835925  	0.37043919324341  	0.04448813792305
C   -1.00571863864978 	-0.04521958574084  	1.09480687994800
C   0.34031867986494  	0.28462161905758  	1.06910746483924
O   -1.56285329395404  	1.14515706815858 	-0.89730414634709
S   1.76562735302532 	-1.14213031856431 	-0.19561162587306
C   3.19557527234120 	-0.03613473377450  	0.01590472343857
H   -1.38047633201806 	-0.76646579102035  	1.81698465393699
H   0.66369820751466  	1.12619309334006  	0.46567769469458
H   0.94286061297488  	0.09966039522396  	1.95155740134184
H   3.10456302938412  	0.85949843134531 	-0.60736566683979
H   3.28294084950352  	0.28619032755309  	1.06003318308425
H   4.12659238433155 	-0.54191465286877 	-0.25537732547466
C   -4.23470444433555  	0.39918026137581 	-0.76152739386010
H   -3.45254505647839 	-0.60186264802194  	0.92694054249584
H   -3.88314053377712  	0.44566024245407 	-1.79333953970750
H   -4.49274039515669  	1.41922939577467 	-0.45096068950845
C   -5.45217479758479 	-0.48988992442046 	-0.67356035773333
C   -6.37702514064259 	-0.31983063140146  	0.35936527171563
C   -5.64759706481310 	-1.52022765712261 	-1.59567819917768
C   -7.47878995892061 	-1.16622855045417  	0.47059553726263
H   -6.23304841658258  	0.48289801046012  	1.07835794233795
C   -6.74999519392321 	-2.36621915304115 	-1.49015130171722
H   -4.93166740121027 	-1.65765864030476 	-2.40201140961946
C   -7.66752864562491 	-2.19142838843516 	-0.45506572379985
H   -8.19151465235893 	-1.02324550800137  	1.27763774325703
H   -6.89310123267264 	-3.16157204360728 	-2.21588226705054
H   -8.52732177244965 	-2.84971206921074 	-0.37164314365906