35
Properties=species:S:1:pos:R:3:charge:R:1:forces:R:3 18=T (SP=-837.940539079532,U=-837.63400589,H=-837.63306168,G=-837.6949811) energy=-22801.048477823497 pbc="F F F"
N       -3.75329767       0.07355254       0.08852660      -0.35654554      -0.00107531      -0.00256469      -0.00191540
C       -2.60272550       0.71954481       0.48514691       0.43260407      -0.00362982      -0.00240965      -0.00532630
C       -1.85320866      -0.00673688       1.54325466      -0.18392296      -0.00396115       0.00340526      -0.00209109
C       -0.69344206       0.47683320       1.96786843      -0.08216886      -0.00220822       0.00234784      -0.00074021
O       -2.22498439       1.77137941       0.01445632      -0.44040564      -0.00003552      -0.00155458      -0.00326474
H       -2.27127523      -0.92321086       1.94249438       0.11633385      -0.00355902       0.00187396      -0.00304626
H       -0.36476478       1.41216530       1.53703887       0.13864882       0.00255871       0.00130462      -0.00180469
C        0.17696535      -0.20014666       2.97466428      -0.02235327       0.00351942       0.00274379       0.00185029
C       -4.65399161       0.44119260      -0.92396512       0.12900722       0.00431590       0.00133158       0.00070660
C       -5.66928721      -0.50531874      -1.23725604      -0.17752112       0.00501178       0.00246158       0.00202409
C       -6.58033833      -0.25012426      -2.21263918      -0.17652221       0.00086555      -0.00160810       0.00471199
C       -6.52888398       0.97070313      -2.92440956       0.08535377       0.00445365      -0.00561735      -0.00214128
C       -5.53318637       1.91293190      -2.60788058       0.28054771       0.00084873      -0.00187334       0.00108208
C       -4.59051980       1.63460212      -1.59321759      -0.15771155       0.00286517      -0.00210633      -0.00269893
N       -5.46411375       3.09702656      -3.27802727      -0.41285172       0.00181996      -0.00171119      -0.00011900
C       -6.35248693       3.29227871      -4.21231432       0.26400244      -0.00048347       0.00002666      -0.00118245
N       -7.34957345       2.45697445      -4.60466783      -0.40109369      -0.00835318       0.00323330       0.00275143
C       -7.42094127       1.32200656      -3.95936771       0.08051338      -0.00277038       0.00054725      -0.00035878
H       -5.70830021      -1.44098635      -0.69419238       0.13166395      -0.00253209      -0.00065609      -0.00186768
H       -7.34385478      -0.97548427      -2.45107426       0.13050818      -0.00566523       0.00307256      -0.00122032
H       -3.83472174       2.36164224      -1.36513273       0.13804506       0.00407082      -0.00123550      -0.00501351
H       -6.30057271       4.23017004      -4.74972359       0.06209316      -0.00126472       0.00280637      -0.00014987
H       -8.20821658       0.63352195      -4.24964454       0.08627258      -0.00023251       0.00045667       0.00179082
H       -3.94136282      -0.80205393       0.54245791       0.26645446      -0.00085111      -0.00006278       0.00146773
H        0.96724689      -0.74721828       2.43329762       0.06697451       0.00192234      -0.00822070      -0.00236868
H       -0.41440894      -0.95265811       3.49940391       0.08332370      -0.00032461      -0.00188832      -0.00368722
N        0.75851239       0.71075612       3.95179238      -0.25250304       0.00175110       0.00609359       0.00628087
C        1.79309520       1.54274267       3.36935759      -0.14476135       0.00375438       0.00342806       0.00087353
C        1.26715563      -0.02723712       5.08950407      -0.15095893       0.00120126      -0.00262203       0.00137474
H        0.45610157      -0.59051944       5.54549244       0.08057850       0.00205637      -0.00058838       0.00552296
H        1.66304117       0.66502077       5.82894227       0.08652951      -0.00262986      -0.00224346      -0.00254343
H        2.06633880      -0.73313865       4.81554134       0.06448234       0.00268932       0.00011890       0.00280940
H        1.39422472       2.14678729       2.55874451       0.07977111      -0.00502680       0.00332199       0.00189340
H        2.62602388       0.94825148       2.96954649       0.06791510       0.00073233      -0.00180694       0.00108560
H        2.18415713       2.22052042       4.12443582       0.08769652       0.00016575       0.00019633       0.00531442
