28
Properties=species:S:1:pos:R:3:charge:R:1:forces:R:3 24_carbanion=T (SP=-956.301215800905,U=-956.05719985,H=-956.05625565,G=-956.11229426) energy=-26018.151184393602 pbc="F F F"
N       -2.93742554      -0.26888407      -0.33158557      -0.13444878       0.00194061       0.00354487      -0.00415200
C       -1.75372627       0.47470491      -0.18903007       0.42852005      -0.00589471       0.00105339       0.00025224
C       -0.93184977       0.18342772       0.93730809      -0.22841677      -0.00215911      -0.00145865      -0.00537559
C        0.38019321       0.81489935       0.96040311      -0.10431812       0.00473664      -0.00455945      -0.00214924
O       -1.39538763       1.30845401      -1.02211799      -0.43232319      -0.00152447      -0.00032552      -0.00152247
S        1.01375208      -0.73612384       0.20522348      -0.12877108       0.00125591       0.00386138       0.00199160
C        2.84151423      -0.59520563       0.08390059      -0.18154015      -0.00913895       0.00146972      -0.00232991
H        0.46876402       1.63912611       0.25610812       0.12059718       0.00439996       0.00095997       0.00425517
H        0.79983464       1.03278063       1.94209574       0.11441714      -0.00101953       0.00146318       0.00459138
H        3.20154962       0.16339340      -0.61383950       0.10042427      -0.00124353      -0.00133911      -0.00078436
H        3.30283489      -0.43388917       1.05933698       0.09643953      -0.00218329       0.00480028      -0.00416116
H        3.13638446      -1.57509179      -0.28689689       0.10813197      -0.00465673      -0.00035332       0.00111417
C       -4.09073928       0.21254934      -0.97334758       0.11698703       0.00089833      -0.00218656      -0.00046762
C       -5.28907095      -0.50663937      -0.88115178      -0.17588964       0.00249050      -0.00003553      -0.00024043
C       -6.43477617      -0.03814605      -1.49789768      -0.15081766       0.00124241       0.00124073       0.00312727
C       -6.41820932       1.14840891      -2.21155380      -0.15938914       0.00056334      -0.00245798       0.00066338
C       -5.23597483       1.86515069      -2.29593062      -0.14668530       0.00253386      -0.00145272      -0.00068523
C       -4.07572211       1.41773370      -1.68931250      -0.14362411       0.00423705      -0.00504843       0.00119107
H       -5.34518608      -1.42509374      -0.32200249       0.12313981      -0.00054315       0.00180080      -0.00043060
H       -7.35011988      -0.60759912      -1.41820798       0.13263230       0.00393851       0.00229961       0.00030098
H       -3.14686750       1.96107001      -1.75588461       0.13916227       0.00434253      -0.00081947       0.00131572
H       -5.22089228       2.79326775      -2.84972516       0.13366544       0.00249669       0.00011353      -0.00403026
H       -7.31193817       1.51022854      -2.69531958       0.13641560      -0.00467387       0.00109722       0.00635491
H       -1.21057066      -0.44640236       1.76438845       0.12179624      -0.00303567      -0.00110951       0.00505340
C       -2.98213529      -1.60440290       0.22832226      -0.13929977       0.00182995       0.00131943      -0.00269631
H       -3.55511591      -1.64781327       1.15530781       0.08008633      -0.00394270       0.00003617      -0.00097871
H       -3.44226152      -2.28027032      -0.48894561       0.08735916       0.00246939      -0.00441533      -0.00379475
H       -1.96832631      -1.93343390       0.41553556       0.08574948       0.00064029       0.00050129       0.00358730
