29
Properties=species:S:1:pos:R:3:charge:R:1:forces:R:3 25_TS=T (SP=-1031.53414262624,U=-1031.28546382,H=-1031.28451961,G=-1031.34354333) energy=-28066.472989327183 pbc="F F F"
N       -3.04758518       0.19733233       0.21140432      -0.33719486       0.00014238      -0.00022804      -0.00288463
C       -1.86902439       0.86053452       0.50937508       0.43108499       0.00069206       0.00258437      -0.00130704
C       -0.96672663       0.09283253       1.29205768      -0.25490889       0.00198978       0.00215653       0.00280016
C        0.41576549       0.51649920       1.28708793      -0.10122672       0.00069924       0.00040508       0.00161006
O       -1.58361203       1.97263103       0.06634142      -0.43507257      -0.00153214       0.00146517       0.00131236
S        0.57337764      -0.58269294      -0.20685862      -0.12658675      -0.00174230      -0.00317344      -0.00089575
C        2.32825045      -0.59984034      -0.75559920      -0.18549123       0.00269729      -0.00475922      -0.00490206
H        0.53849253       1.55708102       1.00030679       0.12321174      -0.00156680      -0.00044443      -0.00176521
H        1.04013703       0.20223876       2.12043368       0.11674697       0.00106528       0.00007502      -0.00110498
H        2.68123713       0.32422675      -1.21991676       0.10147577       0.00088408       0.00190939       0.00320904
H        3.00813756      -0.87694072       0.05172484       0.09611706       0.00210353      -0.00006571       0.00342663
H        2.34001220      -1.38784099      -1.50690211       0.10687867      -0.00560361      -0.00001625      -0.00225823
C       -4.10180552       0.63363725      -0.59393591       0.09382138      -0.00248967       0.00346233       0.00174488
C       -5.20996129      -0.19763972      -0.72267080      -0.16752093       0.00164567      -0.00303607      -0.00282730
C       -6.28729366       0.16972134      -1.50892902      -0.17321633      -0.00029451      -0.00289640      -0.00112686
C       -6.25627187       1.38824871      -2.18248791       0.14935657      -0.00092054      -0.00185232       0.00055137
C       -5.14614705       2.21842234      -2.05324125      -0.15993215       0.00058994      -0.00359797      -0.00312319
C       -4.06991628       1.85888036      -1.26739188      -0.12341839      -0.00050026       0.00279610      -0.00122759
H       -5.22372628      -1.14571028      -0.19883554       0.12750188      -0.00185285      -0.00189985       0.00106618
H       -7.13674228      -0.49011229      -1.59197870       0.12821655      -0.00073735      -0.00195597      -0.00075286
H       -3.20165024       2.48802611      -1.14997390       0.13778843       0.00082228       0.00210672       0.00103014
H       -3.17073175      -0.69673259       0.64436313       0.25958931       0.00064840       0.00092033       0.00218699
H       -5.15403829       3.15671505      -2.59047035       0.13648249      -0.00293874      -0.00144355       0.00307335
H       -1.25596671      -0.83301403       1.75904173       0.12929773       0.00281348       0.00148020       0.00288806
O       -7.25363944       1.85089619      -2.98538315      -0.24211583       0.00145834       0.00555069       0.00534290
C       -8.40293330       1.04238334      -3.13255623      -0.08056693       0.00379305       0.00621169       0.00113284
H       -9.06779717       1.57842478      -3.80154796       0.09534594      -0.00124543      -0.00126333      -0.00612528
H       -8.15569312       0.07401073      -3.57255525       0.07707153      -0.00668070      -0.00012288      -0.00103970
H       -8.90771839       0.88695817      -2.17658089       0.07726466       0.00606011      -0.00436871      -0.00003499
