28
Properties=species:S:1:pos:R:3:charge:R:1:forces:R:3 28=T (SP=-500.041130595585,U=-499.77248905,H=-499.77154484,G=-499.82445668) energy=-13607.409226917152 pbc="F F F"
N       -3.74588920       0.52071455       0.49507338      -0.44236779      -0.00729957      -0.00551566      -0.00031840
C       -2.37964372       0.52460186       0.40128234       0.45306399      -0.00093925       0.00461302       0.00291639
C       -1.69339563      -0.27972507       1.38343564      -0.25156024      -0.00473439      -0.00595327      -0.00184076
C       -0.32266703      -0.30930115       1.42293008      -0.09202407       0.00241735       0.00451984       0.00328502
O       -1.79728218       1.20319065      -0.44385419      -0.49184474       0.00214310      -0.00623885       0.00153116
H       -2.25527323      -0.80159528       2.15330491       0.10623418      -0.00130642       0.00280143       0.00359492
H        0.20161865       0.19878014       0.62453373       0.12775278      -0.00071295       0.00001045      -0.00535640
C        0.34354608      -0.86954154       2.48596637      -0.18559878      -0.00019277       0.00225928       0.00264839
C       -4.53996137       1.17303654      -0.52654860      -0.12671508      -0.00063412       0.00203110      -0.00018715
H       -4.16758983      -0.19797937       1.05172131       0.28394219       0.00369704       0.00391408      -0.00545334
H        1.41027676      -1.01821346       2.47513011       0.11887261      -0.00092802       0.00246278      -0.00132078
H       -0.21494505      -1.46019749       3.20275102       0.12396206       0.00464115       0.00124624       0.00442371
N        0.70374541       0.79482878       4.14100909      -0.14889273      -0.00149461       0.00019197       0.00102049
C        1.48959597       1.79110840       3.45020170      -0.13335924       0.00129300      -0.00076691       0.00269334
C        1.33844285       0.27182621       5.32883997      -0.13361023       0.00002473      -0.00230222      -0.00019669
H        0.72016760      -0.52251311       5.74263118       0.07205961       0.00242562      -0.00218803      -0.00291854
H        1.48726211       1.03836377       6.10212405       0.06905349       0.00032427      -0.00000028       0.00076173
H        2.30820384      -0.14669201       5.06572711       0.07379700       0.00454857       0.00402955      -0.00162284
H        1.02696560       2.00213169       2.48871418       0.07378263      -0.00104054      -0.00440954       0.00439826
H        2.49632308       1.41359319       3.27723155       0.07627402      -0.00076687      -0.00092150      -0.00116514
H        1.56819425       2.72742774       4.01752823       0.07153613      -0.00275962       0.00199060      -0.00740900
H       -4.42077316       0.70234391      -1.50460188       0.08387595       0.00589888       0.00553602       0.00134679
H       -5.58902327       1.14226106      -0.24027249       0.08858714      -0.00022601       0.00345470      -0.00574976
H       -4.22285993       2.20877779      -0.61889560       0.09217941       0.00021385      -0.00496719       0.00259337
C       -0.65993789       1.21115369       4.35898085      -0.12505624      -0.00087640      -0.00331315       0.00060767
H       -1.08063286       1.55535717       3.41721684       0.07529519      -0.00640537      -0.00113161       0.00113752
H       -1.24452637       0.35698276       4.69507152       0.06722417      -0.00258819      -0.00256194       0.00527348
H       -0.74442904       2.00746919       5.10995226       0.07353663       0.00527754       0.00120895      -0.00469290
