28
Properties=species:S:1:pos:R:3:charge:R:1:forces:R:3 6_TS=T (SP=-1081.653851811863,U=-1081.42739889,H=-1081.42645468,G=-1081.48411877) energy=-29430.085401063498 pbc="F F F"
C       -0.05414682       1.76985273       1.31145321      -0.21033435       0.00321319       0.00117524       0.00419063
H       -0.04308979       2.80378880       1.66195532       0.13314131      -0.00329791       0.00513908      -0.00043496
H        0.77547172       1.24135342       1.79015396       0.07745556       0.00431664       0.00309478      -0.00214130
S        0.10905011       1.79413022      -0.45249207      -0.20932895      -0.00235773      -0.00412296      -0.00126130
C        1.69797355      -0.65889353       0.04899185       0.08000323      -0.00018911       0.00209534      -0.00137367
C        0.53286497      -0.40330726      -0.69641831      -0.04310758      -0.00448407       0.00069453       0.00003092
H        0.71442646      -0.21772848      -1.74389851       0.10207654      -0.00282709       0.00489256       0.00068589
C       -0.70357907      -1.18897362      -0.44187963       0.06700543      -0.00531739       0.00089051      -0.00425795
C       -1.37412699      -1.77118710      -1.50991515      -0.13011713      -0.00524325      -0.00085412      -0.00472401
C       -1.22338874      -1.33484563       0.83378648      -0.10334628       0.00486641      -0.00655044       0.00110245
C       -2.53759666      -2.49540547      -1.30289788      -0.13193318       0.00188682      -0.00696028       0.00078917
H       -0.98906933      -1.66036635      -2.51375346       0.13069795       0.00273289       0.00006485      -0.00067565
C       -2.38816793      -2.05307166       1.04769336      -0.12374090       0.00269165      -0.00415635       0.00032329
H       -0.71768959      -0.89433307       1.67554624       0.11667688      -0.00131021       0.00249334       0.00212344
C       -3.04794982      -2.63667254      -0.02418225      -0.13749424       0.00170921      -0.00098979      -0.00053344
H       -3.04782539      -2.95121736      -2.13783903       0.14226621      -0.00640460       0.00691493      -0.00022510
H       -2.78161930      -2.16490830       2.04765826       0.14052097      -0.00062163       0.00229390       0.00151685
H       -3.95510196      -3.19878935       0.13688567       0.14142485       0.00307555      -0.00298920      -0.00099072
C        1.70934666      -1.36176748       1.28205693       0.25122586      -0.00114064       0.00486822      -0.00311867
N        1.71071315      -1.91480776       2.29179665      -0.36910623      -0.00465154       0.00376949       0.00350275
N        2.89133449      -0.06047681      -0.30041814       0.15562503       0.00286827       0.00553528       0.00298274
C        3.38317468       0.34950401      -1.50553488       0.11988906       0.00669198       0.00626019       0.00101585
C        4.78311219       0.77179478      -0.01070802       0.16884997      -0.00148103       0.00540083       0.00316681
H        2.85062354       0.23683210      -2.43134208       0.13161340      -0.00476354      -0.00720321      -0.00208338
H        5.67662546       1.11494679       0.47863772       0.13614526      -0.00578737      -0.00712712      -0.00327435
N        3.80600393       0.21720180       0.66024873      -0.31181383       0.00339386      -0.00679355       0.00507039
N        4.56760640       0.87305961      -1.36253801      -0.41908407       0.00900238      -0.00196574      -0.00204655
H       -0.98513475       1.30707492       1.63699922       0.09478936       0.00342733      -0.00587035       0.00064072
