12
Properties=species:S:1:pos:R:3:charge:R:1:forces:R:3 9=T (SP=-306.661485261095,U=-306.55917939,H=-306.55823518,G=-306.59587082) energy=-8344.980194240166 pbc="F F F"
C        0.00124079       0.11091322       0.09197223       0.49275997      -0.00610219       0.00391122      -0.00314622
C        1.45766268      -0.14727462      -0.02644980      -0.14912161       0.00150982      -0.00332102      -0.00123575
C        2.33244252       0.84030027       0.08893390      -0.26781088       0.00240151       0.00158718      -0.00223520
H        1.75604119      -1.16951252      -0.21012482       0.12766422       0.00149827      -0.00751270       0.00227266
H        3.39353533       0.65708634       0.00442074       0.14564124       0.00417700       0.00169403      -0.00108753
H        2.00466451       1.85414362       0.26979416       0.16003248      -0.00398699       0.00121404       0.00412460
O       -0.70188270      -1.02615148      -0.05837927      -0.27262905      -0.00575414       0.00257742       0.00147403
O       -0.50225917       1.18552885       0.29438238      -0.43254793      -0.00064347       0.00075690       0.00034961
C       -2.12366065      -0.87883041       0.03580440      -0.09596725       0.00031255       0.00059078       0.00080220
H       -2.53858870      -1.87122909      -0.10307529       0.10138340       0.00210569       0.00524390      -0.00083532
H       -2.39802297      -0.48260609       1.01033475       0.09533238       0.00386142      -0.00220182      -0.00384977
H       -2.48378294      -0.20201691      -0.73507887       0.09526307       0.00062011      -0.00453985       0.00336662
