6
Properties=species:S:1:pos:R:3:charge:R:1:forces:R:3 MeSH=T (SP=-438.760535465403,U=-438.7100893,H=-438.70914509,G=-438.73756155) energy=-11939.977744632226 pbc="F F F"
S        0.26558740       1.83681286      -0.13682246      -0.24475297       0.00375222      -0.00081988       0.00137757
C       -1.33711146       2.40635496      -0.77997381      -0.20577852      -0.00072132      -0.00124561      -0.00273120
H       -1.21552152       2.94965793      -1.71171966       0.10007734       0.00266598       0.00135775      -0.00405031
H       -1.94017550       1.52209014      -0.96607702       0.10993093      -0.00381356      -0.00240071      -0.00035661
H       -1.84962662       3.03462717      -0.05839435       0.10028046       0.00009928       0.00207195       0.00568532
H        0.82908962       3.04371181      -0.00773593       0.14024279      -0.00198249       0.00103662       0.00007519
