19
Properties=species:S:1:pos:R:3:charge:R:1:forces:R:3 energy=-19731.85525905547 pbc="F F F"
N       -2.12653213      -0.59231935      -0.59368453      -0.10768785      -0.00028339      -0.00456397       0.00294374
C       -1.13976543       0.11208520       0.01880653       0.16024992       0.00387289       0.00664702      -0.00565092
O       -1.34997371       1.14577657       0.64079633      -0.31138942      -0.00156228      -0.00351287       0.00255493
C        0.25547591      -0.47819059      -0.14129986      -0.04223820       0.00046674       0.00506392      -0.00225258
C        1.20819594       0.03860415       0.91722643      -0.02772618      -0.00073161      -0.00227226      -0.00086078
S        2.93860844      -0.51319500       0.70524696      -0.10151671       0.00051136       0.00149559       0.00001299
C        3.47514802       0.59594282      -0.63336515      -0.06809500      -0.00066444      -0.00372682       0.00135274
C       -3.51291993      -0.18485345      -0.58095253      -0.01280850      -0.00201301       0.00201777       0.00609746
H       -1.87904060      -1.43028046      -1.09167563       0.13720433      -0.00025053      -0.00296772       0.00082307
H        0.62073700      -0.20895068      -1.13545317       0.03754377      -0.00188748       0.00543568       0.00661766
H        0.21666143      -1.56918007      -0.12003654       0.03966593       0.00063043       0.00501453      -0.00522813
H        1.16686936       1.12352295       0.95401810       0.03324521       0.00356258      -0.00328681      -0.00424976
H        0.91685366      -0.32475666       1.90012591       0.03792301      -0.00509624      -0.00100779       0.00519475
H        2.93086191       0.41316747      -1.55656657       0.03681977      -0.00471356      -0.00186539      -0.00274933
H        4.52589854       0.38513489      -0.80882331       0.03955468       0.00445561      -0.00032554       0.00171789
H        3.37183032       1.64090476      -0.34845109       0.03606370      -0.00004158       0.00042755      -0.00124494
H       -3.87667012       0.01620852      -1.58841084       0.03692795       0.00396282       0.00028727      -0.00517670
H       -3.58476801       0.72333557       0.00671572       0.03860588      -0.00075040       0.00380174      -0.00171633
H       -4.14328014      -0.94941477      -0.12814395       0.03765771       0.00053208      -0.00666127       0.00181459
