20
Properties=species:S:1:pos:R:3:charge:R:1:forces:R:3 energy=-20768.24374427618 pbc="F F F"
C       -2.85667036      -0.06732393       0.61940619      -0.06112430      -0.00126265       0.00588257      -0.00064805
S       -2.35810488      -0.46214059      -1.08272066      -0.08062065      -0.00853843      -0.00213639       0.00050881
C       -0.54017268      -0.53098074      -0.95134154       0.00507149       0.00922742       0.00178309       0.00221557
C        0.04515220      -1.54624227       0.02302149      -0.04191840       0.00779200      -0.00496193       0.00377924
C        1.33963504      -0.91859272       0.50964597       0.15185028      -0.00367128      -0.00054577      -0.00214427
O        2.21900570      -1.46069283       1.15742431      -0.31576085      -0.00000664      -0.00169140       0.00190106
N        1.34732396       0.38312393       0.09942908      -0.07015774       0.00097978      -0.00136028      -0.00510817
C        2.38124383       1.31452701       0.47309462      -0.01319544      -0.00555525      -0.00095107      -0.00028698
C        0.14994206       0.79432237      -0.60287885       0.00845046       0.00334710      -0.00078734       0.00145801
H       -2.47146928       0.89453449       0.94744335       0.03611260       0.00326161       0.00379202      -0.00058467
H       -3.94192331      -0.01637879       0.61460127       0.04067061       0.00191956       0.00296706      -0.00230390
H       -2.55675099      -0.84255706       1.31897933       0.03680035      -0.00490854       0.00102015       0.00151801
H       -0.25735442      -0.80544136      -1.96359646       0.03839271       0.00185912       0.00492528       0.00122506
H       -0.59745108      -1.71482023       0.88526071       0.03685671       0.00011724      -0.00233823       0.00073922
H        0.23086632      -2.51758746      -0.42534807       0.04322464       0.00338177      -0.00358425      -0.00551379
H        3.15845317       0.75972505       0.98816199       0.04117525      -0.00302473       0.00584904       0.00048301
H        2.80636191       1.79403944      -0.40918259       0.03732591      -0.00025176      -0.00163543      -0.00261224
H        1.99700509       2.08863527       1.14066285       0.03494970      -0.00373552      -0.00012435      -0.00152498
H        0.39556454       1.37295452      -1.49515513       0.03970793      -0.00579920       0.00103580       0.00209145
H       -0.47955748       1.42775131       0.02880465       0.03218880       0.00486788      -0.00713871       0.00480723
