29
Properties=species:S:1:pos:R:3:charge:R:1:forces:R:3 energy=-23975.98861170752 pbc="F F F"
C        4.64865356      -1.20157569       0.34330804      -0.06749413       0.00065944      -0.00378166      -0.00195403
S        3.86029088      -0.58838941       1.86332795      -0.10330613       0.00051643      -0.00076681       0.00121529
C        2.65107445       0.58814282       1.15563274      -0.02994340      -0.00440626      -0.00077258      -0.00142254
C        1.43365287      -0.07372839       0.54313857      -0.04552506      -0.00029295       0.00029873      -0.00015085
C        0.43644757       0.95721174       0.03307447       0.16292654       0.00184931       0.00067862       0.00452145
O        0.64803837       2.15794498       0.17849019      -0.30247724      -0.00250187       0.00298942      -0.00483290
N       -0.68274841       0.48915426      -0.58988080      -0.06985977       0.00595136      -0.00242008       0.00117365
C       -1.08191810      -0.90854929      -0.66855275       0.01100842      -0.00052252      -0.00012945      -0.00372930
C       -2.30981657      -1.17132668       0.19200025      -0.03982058       0.00204295       0.00125175      -0.00197897
C       -3.44050448      -0.22209184      -0.17651956      -0.04046127       0.00054996      -0.00029846       0.00098139
C       -2.97400166       1.22623098      -0.13500364      -0.04294852      -0.00054422       0.00066483       0.00229388
C       -1.72857696       1.42362443      -0.98517018       0.01001282       0.00625267      -0.00323693       0.00012978
H        5.41519989      -1.90739985       0.64931859       0.03981809       0.00486792      -0.00260898       0.00477931
H        3.93912441      -1.72160337      -0.29589846       0.03690395       0.00268767      -0.00719974       0.00019510
H        5.11876300      -0.39423334      -0.21427923       0.03619773      -0.00459961       0.00399364      -0.00304599
H        3.14677409       1.22559714       0.42648279       0.03291947      -0.00343898       0.00254626       0.00069043
H        2.35398561       1.22598133       1.98298805       0.03959539       0.00022859       0.00055815       0.00161475
H        1.72671379      -0.73370712      -0.27458404       0.03566455       0.00212380       0.00025368       0.00136817
H        0.94310202      -0.71412607       1.27963581       0.03632474       0.00252384       0.00074655      -0.00126420
H       -0.25602227      -1.54771923      -0.38195163       0.03825342       0.00128187       0.00424615      -0.00051248
H       -1.30934652      -1.14008096      -1.71453093       0.03114461      -0.00452068      -0.00193222      -0.00427070
H       -2.04310494      -1.03926359       1.24368087       0.02365984       0.00192361       0.00419214      -0.00425114
H       -2.62113347      -2.21045680       0.07138552       0.03315869      -0.00121920       0.00308977       0.00389131
H       -4.29327175      -0.36966472       0.48715054       0.03082409      -0.00397468      -0.00176548      -0.00429797
H       -3.78913049      -0.45826905      -1.18583316       0.02335811       0.00144048      -0.00173487       0.00253776
H       -3.76192615       1.89397289      -0.48642681       0.03168544      -0.00520740      -0.00066289      -0.00326052
H       -2.75054590       1.51372318       0.89398909       0.02546143       0.00187637       0.00027200       0.00569094
H       -1.32743257       2.42576355      -0.88875912       0.03577928      -0.00237801       0.00098154       0.00350275
H       -1.96089994       1.24800888      -2.04011966       0.02713951      -0.00316987       0.00054699       0.00038548
