28
Properties=species:S:1:pos:R:3:charge:R:1:forces:R:3 energy=-26000.59095517197 pbc="F F F"
C        2.86746572      -1.04653609      -1.97090461      -0.08697759      -0.00537734      -0.00730542       0.00069517
C        1.85374316      -1.29569650      -0.89642807      -0.00917501      -0.00409892      -0.00063176      -0.00010442
C        2.16627920      -1.68372139       0.34922890      -0.06792143       0.00064928       0.00126420      -0.00008344
C        0.44929600      -0.97369979      -1.24736912       0.16434197      -0.00159125       0.00413141       0.00447993
O        0.00192386      -1.09931445      -2.39252417      -0.34639093       0.00128981      -0.00238049       0.00103161
N       -0.26380587      -0.46840520      -0.18865452      -0.10385644      -0.00255924       0.00115243       0.00576712
C       -1.56240099       0.01200269      -0.17214570       0.04103392       0.00091482       0.00598893      -0.00218348
C       -1.92571431       0.80226075       0.92974465      -0.05580206       0.00027302      -0.00245676       0.00353322
C       -3.21436431       1.28413479       1.05277710      -0.05885266       0.00272576      -0.00138862      -0.00134195
C       -4.17354562       0.99834094       0.08624421      -0.07813770      -0.00097871      -0.00546988       0.00458368
C       -3.81280955       0.22383714      -1.00967227      -0.05601762      -0.00031649      -0.00126023      -0.00254665
C       -2.52309417      -0.26481454      -1.15472500      -0.05921771      -0.00213741      -0.00431768       0.00496281
H        3.86572003      -1.33914329      -1.64708147       0.02394716      -0.00449620       0.00248554       0.00294621
H        2.89897093       0.00942352      -2.25058135       0.02242915       0.00576798       0.00417097      -0.00233984
H        2.61612045      -1.59397263      -2.88130262       0.02281351       0.00127006       0.00036944      -0.00743726
H        3.18860245      -1.76404012       0.69343724       0.02183408       0.00108179      -0.00139347       0.00093943
H        1.41920252      -2.01794417       1.05144839       0.02024944      -0.00218999       0.00629721      -0.00353561
H        0.31591747      -0.21364171       0.65528486       0.07882065      -0.00118363      -0.00347449       0.00636927
H       -1.16900329       1.03043689       1.67394824       0.02629531      -0.00398200       0.00204390       0.00090615
H       -3.47725108       1.89149862       1.91169000       0.01931515       0.00521856      -0.00310717      -0.00265807
H       -5.18414534       1.37460529       0.18630335       0.02061374       0.00123555      -0.00266731      -0.00266835
H       -4.54789139      -0.00765830      -1.77236018       0.01862178      -0.00148426       0.00348856      -0.00601203
H       -2.24422160      -0.85072933      -2.01574039       0.02448235       0.00199897       0.00244414      -0.00281639
S        1.58199809       0.48425690       2.22068865      -0.51802188      -0.00141362       0.00160265       0.00058579
C        2.56190060       1.46097667       1.02649462      -0.11999438       0.00041017       0.00650030      -0.00037109
H        3.58034160       1.07644952       0.92499176       0.01933960       0.00026460      -0.00527986      -0.00007338
H        2.62566284       2.50740257       1.33550031       0.01831174       0.00664697       0.00150151       0.00097745
H        2.10463086       1.44188212       0.03242991       0.01791593       0.00206172      -0.00230850      -0.00360613
