23
Properties=species:S:1:pos:R:3:charge:R:1:forces:R:3 energy=-14079.772582158843 pbc="F F F"
C       -4.77843582       0.38672834       0.23844789      -0.06833453      -0.00270147       0.00061754      -0.00188636
C       -3.39332419       0.03644825       0.63380877      -0.00779392      -0.00491893      -0.00066498       0.00087620
C       -2.30108906       0.26506854      -0.09355562      -0.05734665      -0.00293727       0.00034718       0.00221235
C       -0.95889690      -0.12665375       0.39137318       0.16977510      -0.00378932      -0.00078111       0.00113296
O       -0.76689164      -0.68105371       1.46624526      -0.29605493      -0.00625221       0.00318335       0.00271871
N        0.05591225       0.19292431      -0.48414895      -0.09996545       0.00283828      -0.00131433      -0.00259484
C        1.43331734      -0.02044540      -0.36301326       0.04370337       0.00532421       0.00222875      -0.00048435
C        2.24019844       0.40485538      -1.42137644      -0.05163828       0.00332986      -0.00382894      -0.00285363
C        3.61051013       0.22850026      -1.37869285      -0.03661196       0.00011920       0.00149660       0.00115178
C        4.20260480      -0.37445498      -0.27814750      -0.04690823      -0.00268985       0.00348956      -0.00275288
C        3.40304278      -0.79531518       0.77392182      -0.03879195       0.00460969       0.00005161      -0.00361724
C        2.02793351      -0.62602998       0.74530493      -0.04537668       0.00224780      -0.00251376       0.00791105
H       -5.40809298      -0.50433562       0.20760466       0.03787272      -0.00167452       0.00051719      -0.00069063
H       -5.23243182       1.05672056       0.97083021       0.03786810       0.00196021      -0.00023039       0.00050213
H       -4.81599930       0.86749488      -0.73624784       0.03739155       0.00245090       0.00027776      -0.00213792
H       -3.25698759      -0.44779354       1.59630982       0.03825212       0.00662796      -0.00110207      -0.00148141
H       -2.38658424       0.74810083      -1.06303686       0.04046476       0.00835435      -0.00111273       0.00132609
H       -0.22396363       0.64331605      -1.33928987       0.13718478       0.00103038       0.00212869      -0.00069783
H        1.78806411       0.87722832      -2.28544862       0.04204901      -0.00446585       0.00100772      -0.00175657
H        4.21825858       0.56397551      -2.20877743       0.04289561      -0.00406921      -0.00052294       0.00166422
H        5.27435720      -0.51299745      -0.24290836       0.04248713      -0.00491113      -0.00057936       0.00167821
H        3.85269357      -1.26624201       1.63818510       0.04156072       0.00076144       0.00160174      -0.00372359
H        1.40942916      -0.95288102       1.56278733       0.03731764      -0.00124364      -0.00429724       0.00350307
