35
Properties=species:S:1:pos:R:3:charge:R:1:forces:R:3 energy=-28595.659564408084 pbc="F F F"
N        3.84284242       0.54240843      -0.77994308      -0.10622777       0.00172685      -0.00181415      -0.00375930
C        2.64975869       0.27282673      -0.19059617       0.16865847      -0.00445801       0.00798023      -0.00396612
O        2.33349638       0.71670696       0.90496948      -0.30748421      -0.00291258      -0.00147650      -0.00005086
C        1.74407267      -0.63844141      -1.00949578      -0.04393816      -0.00069535      -0.00114797       0.00230194
C        0.39636833      -0.88615559      -0.34804083       0.00497508      -0.00314426      -0.00731696      -0.00235112
S       -0.42171491      -2.38538046      -1.05052069      -0.07859436       0.00350979       0.00026020       0.00176591
C        0.61167282      -3.68981156      -0.31911160      -0.06270073       0.00185676      -0.00367197       0.00454627
C       -0.51078454       0.33424978      -0.48361707      -0.00241431      -0.00041553       0.00023656      -0.00129993
N       -1.51498415       0.42742550       0.55448105      -0.13145775      -0.00064982      -0.00273453       0.00439323
C       -2.67963045      -0.41967771       0.33014249      -0.00993901      -0.00421723       0.00153098      -0.00103994
C       -3.83893737       0.03566419       1.18482807       0.03253467      -0.00146482      -0.00001187       0.00210390
O       -4.28868403       1.35009253       0.85530497      -0.19910759       0.00341997       0.00043989       0.00369290
C       -3.23880987       2.19005934       0.37150573       0.03385748      -0.00036959       0.00144276      -0.00162630
C       -1.89303009       1.79048375       0.93918251      -0.00762642      -0.00317941      -0.00164932       0.00363500
C        4.85476525       1.37706834      -0.17611353      -0.01198391       0.00106653      -0.00108722      -0.00101181
H        4.02716358       0.13761141      -1.68288167       0.13676105       0.00363834      -0.00273490      -0.00322429
H        2.26473068      -1.58164419      -1.16553717       0.03642911      -0.00043222      -0.00131338      -0.00019182
H        1.59737702      -0.21170023      -2.00684849       0.03859175       0.00287921       0.00346417       0.00535700
H        0.56019438      -1.06233802       0.71232306       0.02538317       0.00050973      -0.00744566      -0.00291648
H        1.62948825      -3.67949901      -0.70341319       0.03497254      -0.00555647       0.00122018       0.00249746
H        0.63246001      -3.60653904       0.76446608       0.03599494       0.00477847       0.00079826       0.00074018
H        0.15244951      -4.63685678      -0.58708316       0.03814872       0.00376179       0.00276755      -0.00208849
H        0.14219351       1.19904432      -0.39598548       0.03049669       0.00631889      -0.00000729       0.00426302
H       -0.94434791       0.37058025      -1.49744832       0.01674008       0.00020977       0.00342822      -0.00735901
H       -2.99514435      -0.40942335      -0.72458508       0.01995946       0.00614117       0.00077824      -0.00552829
H       -2.43942767      -1.45259889       0.57676239       0.02557433       0.00218458       0.00451263      -0.00162194
H       -3.54973083      -0.00682990       2.24078792       0.02102470      -0.00221330       0.00454829       0.00250977
H       -4.69333225      -0.62526594       1.04946875       0.03326704      -0.00029548      -0.00049474       0.00032218
H       -3.20282232       2.14849386      -0.72386626       0.02035777       0.00756292       0.00332928      -0.00556415
H       -3.49529251       3.20980757       0.65759501       0.03554696      -0.00603453       0.00001655       0.00230587
H       -1.94588182       1.86619458       2.03051620       0.02663230      -0.00485652      -0.00060217       0.00465600
H       -1.12398014       2.49418557       0.62274227       0.03801345      -0.00557941      -0.00135973       0.00188814
H        5.78312247       0.82574713      -0.02689522       0.03555505       0.00307304       0.00200764       0.00085717
H        4.48096273       1.70387743       0.78770887       0.03669848      -0.00646694      -0.00361890      -0.00291639
H        5.06302849       2.25371061      -0.78975056       0.03530095       0.00030463      -0.00027393      -0.00131994
