34
Properties=species:S:1:pos:R:3:charge:R:1:forces:R:3 energy=-28580.313761960977 pbc="F F F"
C        4.77451204       0.83571384       0.22424039      -0.02946433      -0.00204787       0.00274359       0.00219576
N        3.35164882       0.63361874       0.25337844      -0.12613139      -0.00461620      -0.00081229      -0.00272504
C        2.59580342       0.79684743      -0.85099547       0.14603209      -0.00258693      -0.00579714      -0.00726082
O        3.05026316       1.16748955      -1.94937641      -0.39483547       0.00274792       0.00285482      -0.00235930
C        1.14921376       0.49592289      -0.72837156      -0.05059645      -0.00613164      -0.00040941       0.00195074
C        0.45578311       0.56063167       0.40210281      -0.02921355      -0.00348251      -0.00446909       0.00408225
C       -0.94418071       0.09847894       0.59188514       0.00075435       0.00189940      -0.00223678       0.00141394
N       -1.64739355      -0.18240366      -0.65074971      -0.11699744       0.00017976       0.00028002       0.00887240
C       -2.73982381      -1.12700830      -0.54062106      -0.00089549       0.00137919       0.00213804      -0.00147024
C       -4.02292035      -0.51386262      -0.00011778       0.03355625      -0.00078642       0.00096628       0.00095437
O       -4.41809342       0.61887363      -0.77085637      -0.19588163      -0.00144557      -0.00068088      -0.00310619
C       -3.37114139       1.59006935      -0.81419956       0.03523655       0.00246565       0.00231874      -0.00146974
C       -2.08782406       1.00051044      -1.37439571      -0.00540563       0.00675518      -0.00457908       0.00218306
H        5.10817698       0.91459450      -0.80661276       0.02310453       0.00344729      -0.00162715       0.00335983
H        5.27073299      -0.00512892       0.70805548       0.02458985      -0.00287421      -0.00081215       0.00089357
H        5.06156637       1.74784963       0.75636369       0.01581753       0.00547373       0.00621839      -0.00007448
H        2.98360639       0.11501081       1.09054421       0.07511833      -0.00606984      -0.00024368      -0.00285256
H        0.68103391       0.22448342      -1.66596110       0.02768693       0.00401101      -0.00275977      -0.00126000
H        0.95549509       0.89004526       1.30780256       0.02310604      -0.00287110      -0.00099140      -0.00059559
H       -0.89182174      -0.80948111       1.20082506       0.02573837       0.00557370       0.00283474      -0.00201096
H       -1.47602836       0.83708279       1.21858499       0.00534381       0.00715292      -0.00639147      -0.00247524
H       -2.94586184      -1.53137674      -1.53539648       0.01623636      -0.00133554      -0.00041389      -0.00335091
H       -2.42857135      -1.96499000       0.08438162       0.02246922       0.00107577       0.00155740      -0.00437309
H       -3.90155179      -0.22673671       1.05276293       0.01469613      -0.00006691      -0.00183621       0.00490924
H       -4.84781856      -1.22625993      -0.05652606       0.01939872      -0.00195460       0.00114548      -0.00470420
H       -3.72960952       2.40049283      -1.44958510       0.01894349      -0.00467181       0.00504969      -0.00222497
H       -3.20456029       2.00005080       0.18931504       0.01390694       0.00361647       0.00321875       0.00254749
H       -1.29697476       1.74943123      -1.35729477       0.02886152       0.00086726       0.00412786       0.00322893
H       -2.25842104       0.72764386      -2.41961851       0.01536946      -0.00669139      -0.00489243       0.00124016
S        2.37884113      -1.11005005       2.68553684      -0.56706291       0.00243508      -0.00070598      -0.00036231
C        2.13803547      -2.46628794       1.48217259      -0.12165450       0.00086596       0.00252445       0.00090479
H        1.23777162      -3.04736285       1.70554798       0.01808788       0.00488985      -0.00025607       0.00083756
H        2.02659885      -2.07239971       0.46664091       0.01926519      -0.00199517      -0.00294503       0.00539601
H        2.98654472      -3.15939671       1.47320160       0.01481925      -0.00520865       0.00488108      -0.00229373
