25
Properties=species:S:1:pos:R:3:charge:R:1:forces:R:3 energy=-13543.862196748343 pbc="F F F"
C        4.83664505      -0.33848692       0.66950182      -0.01774962      -0.00154514       0.00079422      -0.00052086
N        3.54253330       0.20842234       0.34125868      -0.12126958      -0.00115068      -0.00242365       0.00053461
C        2.47947553      -0.56933122      -0.01268069       0.16240445      -0.00159130       0.00141443      -0.00253067
O        2.54574878      -1.79421993      -0.06962253      -0.32782093      -0.00065542       0.00317879      -0.00498322
C        1.24615655       0.18703792      -0.32029718      -0.05346571       0.00146657       0.00122620      -0.00345128
C        0.13914674      -0.43515463      -0.71472814      -0.00551242      -0.00130171      -0.00136563       0.00614412
C       -1.15246381       0.22952805      -1.02323944       0.00738381       0.00007508       0.00121936       0.00144912
N       -2.22060786      -0.30276566      -0.20654799      -0.15050922       0.00244122       0.00381072       0.00625963
C       -3.56829946       0.26983930      -0.36517305       0.00736059       0.00358089      -0.00399460      -0.00220886
C       -3.75187138       0.14047748       1.15091001      -0.04996079       0.00534807      -0.00125168       0.00737044
C       -2.22471040       0.04077749       1.22475084       0.00390530      -0.00294824       0.00127697       0.00718161
H        5.60296217       0.01538389      -0.02061365       0.03522267       0.00313515      -0.00046041       0.00305482
H        4.76411244      -1.41730190       0.59175887       0.03720288       0.00520348       0.00136970       0.00298101
H        5.13109775      -0.07472402       1.68537582       0.03551941       0.00209012      -0.00090275      -0.00036371
H        3.41845748       1.20501195       0.36650500       0.13283125       0.00401823      -0.00469768      -0.00131580
H        1.26547019       1.26689814      -0.21534101       0.03875254       0.00003233      -0.00212816       0.00384422
H        0.16994931      -1.51507473      -0.80120520       0.03684684       0.00274884       0.00043316      -0.00422688
H       -1.04941774       1.32088317      -0.90071924       0.02364804      -0.00414564       0.00402797      -0.00549427
H       -1.40870484       0.05134301      -2.07180205       0.03381699      -0.00075265      -0.00045437      -0.00096611
H       -4.23050098      -0.29975705      -1.01834271       0.03217878      -0.00423118      -0.00176532      -0.00539403
H       -3.55163229       1.31919038      -0.69891828       0.02417494      -0.00152913      -0.00035213      -0.00113408
H       -4.23152346      -0.79644588       1.42283314       0.02957337      -0.00518131       0.00401101       0.00296705
H       -4.22583266       0.96669657       1.67584678       0.03172499      -0.00126492      -0.00152265      -0.00335813
H       -1.78849897      -0.70804159       1.88734165       0.03188151      -0.00122525       0.00043872      -0.00266387
H       -1.75087619       1.01223330       1.42907639       0.02185988      -0.00261660      -0.00188223      -0.00317501
