30
Properties=species:S:1:pos:R:3:charge:R:1:forces:R:3 energy=-25464.545312855724 pbc="F F F"
C       -4.15298288      -0.08697127       1.46089642      -0.02857079      -0.00093449       0.00065560       0.00106898
N       -2.79509501       0.00029569       0.99439485      -0.12514499       0.00001784      -0.00338528       0.00668103
C       -2.41549860      -0.55355052      -0.17172124       0.14830573       0.00107034      -0.00535445       0.00665388
O       -3.17519400      -1.19712023      -0.91845771      -0.39561033      -0.00094243      -0.00249715      -0.00395415
C       -1.00325960      -0.35051914      -0.57103628      -0.05118744       0.00030325       0.00954939      -0.00267323
C        0.02745674      -0.16164615       0.24610675      -0.01295577       0.00492115      -0.00218362      -0.00277978
C        1.38518330       0.23613779      -0.21351462       0.00363858       0.00535697      -0.00170766      -0.00241595
N        2.34772099      -0.85383257      -0.13500249      -0.15527003       0.00289918       0.00017723      -0.00426739
C        2.17763056      -1.95983596      -1.09196645       0.00767990       0.00185748      -0.00256381      -0.00049972
C        3.69930191      -1.99953118      -1.25983553      -0.05753441      -0.00008831      -0.00032961       0.00221776
C        3.70477394      -0.59488295      -0.64411281       0.00709282       0.00063331       0.00434582       0.00102504
H       -4.23813723      -0.75150536       2.32664012       0.01515011      -0.00056392       0.00225168      -0.00270001
H       -4.49965448       0.90161408       1.76225388       0.02293860       0.00311951      -0.00142101       0.00070740
H       -4.78595844      -0.46927973       0.66467411       0.02275516       0.00191008       0.00119577      -0.00014031
H       -2.18062825       0.70923981       1.47729464       0.07418292       0.00573239       0.00047922       0.00041151
H       -0.85746767      -0.38684815      -1.64492850       0.02299359       0.00000934       0.00598389      -0.00589188
H       -0.09919080      -0.26914716       1.31739216       0.02429322       0.00327089      -0.00555735      -0.00272877
H        1.74130997       1.05272058       0.41795847       0.02249712       0.00000572       0.00395203      -0.00118924
H        1.32865006       0.62559314      -1.24426310       0.00815649      -0.00495184       0.00242239      -0.00228217
H        1.65066077      -1.65061738      -2.00572243       0.01160803       0.00355530      -0.00402845      -0.00126411
H        1.68685793      -2.85083973      -0.69503316       0.01429954      -0.00421788      -0.00045528       0.00153644
H        4.09170804      -2.11014617      -2.26919981       0.01580556      -0.00360564      -0.00477982       0.00238814
H        4.16129919      -2.73307219      -0.60377974       0.01502980      -0.00432175       0.00122081       0.00457753
H        3.73665055       0.20334174      -1.40283616       0.00962626      -0.00265182       0.00132956      -0.00424079
H        4.44923868      -0.37602562       0.12454429       0.01336874      -0.00198130      -0.00213849       0.00666414
S       -1.11380264       2.29592834       2.29378560      -0.56264704      -0.00278832       0.00023023      -0.00662962
C       -1.20246192       3.18229962       0.69748007      -0.12025608      -0.00086319       0.00390256      -0.00139562
H       -1.86842310       4.04959497       0.75525827       0.01315598      -0.00088057      -0.00097387       0.00339536
H       -0.21992542       3.53848970       0.37368455       0.01810198      -0.00504356      -0.00119024       0.00447781
H       -1.58603672       2.52799821      -0.09248564       0.01849680      -0.00082798       0.00087013       0.00324828
