21
Properties=species:S:1:pos:R:3:charge:R:1:forces:R:3 energy=-20784.891896692337 pbc="F F F"
C       -1.91119146      -1.22447048       2.12729795      -0.10278074      -0.00071774       0.00352653      -0.00301265
C       -1.25086305      -0.75516981       0.85527345      -0.01662405       0.00159082      -0.00025228      -0.00452144
C        0.06328431      -0.24720541       0.97376924      -0.20065707       0.00576364      -0.00105744       0.00348517
C        1.01258880      -0.38249899      -0.05427922       0.09337422      -0.00042451       0.00396290      -0.00307691
O        0.87413333      -1.02196121      -1.11952586      -0.38715744       0.00038292      -0.00729182      -0.00051579
N        2.26800388       0.26355971       0.18404922      -0.17789340       0.00315385       0.00249688      -0.00035209
C        3.06990377       0.56586720      -0.97608979      -0.03869838       0.00441935       0.00043379      -0.00320306
H       -1.95237887      -0.42326798       2.86568308       0.01127433      -0.00064612      -0.00036599      -0.00059039
H       -2.92940744      -1.56937584       1.94177762       0.00903574      -0.00321378       0.00677068      -0.00075163
H       -1.33990769      -2.05261869       2.55156210       0.00824003      -0.00073956       0.00220725      -0.00131993
H       -1.34832189      -1.46662973       0.04471200       0.01091889      -0.00360727      -0.00264587      -0.00371858
H        0.31403322       0.34512789       1.84911277       0.00092028       0.00055891       0.00136479       0.00356398
H        2.16721029       1.04539763       0.81228754       0.09277011       0.00839102      -0.00384488       0.00108064
H        3.19723063      -0.34648712      -1.55300430       0.01246802      -0.00195033       0.00160994      -0.00067484
H        2.62991249       1.31265505      -1.65595089       0.00505960      -0.00063385       0.00121038       0.00397838
H        4.05206748       0.92366095      -0.65876662       0.01062836       0.00142174       0.00203734       0.00100375
S       -2.71649093       0.59982369       0.08095662      -0.28017765      -0.00220674      -0.00240245      -0.00436130
C       -1.71229499       1.02800455      -1.36008881      -0.10054295      -0.00529059      -0.00643888      -0.00096885
H       -2.25499240       1.72410731      -1.99912796       0.01050946       0.00291385      -0.00400472       0.00564510
H       -1.44741072       0.14199042      -1.93089271       0.01820356      -0.00319003       0.00039788       0.00298113
H       -0.77880171       1.48448875      -1.03901408       0.02112916      -0.00597567       0.00228578       0.00532925
