21
Properties=species:S:1:pos:R:3:charge:R:1:forces:R:3 energy=-15519.007438060338 pbc="F F F"
C        3.91019215       0.69116565       0.22960593      -0.05270334       0.00069716      -0.00420188      -0.00317477
C        3.14577429       0.15878349       1.17661173      -0.02602443       0.00103142      -0.00071970       0.00112645
C        1.66588233       0.02189811       1.15619267       0.18182208       0.00176400      -0.00132792       0.00329929
O        1.03302970      -0.05466350       2.19901346      -0.28475320      -0.00215176      -0.00046571       0.00458046
N        1.09052009      -0.02999254      -0.09455948      -0.09767995       0.00530949      -0.00161151      -0.00098397
C       -0.25944790      -0.13091563      -0.43737369       0.04522230       0.00160383      -0.00046306       0.00099097
C       -0.56406738      -0.34842590      -1.78594426      -0.04914796      -0.00039221      -0.00036093       0.00017429
C       -1.87571003      -0.43640600      -2.21083005      -0.02254485      -0.00048967      -0.00216197      -0.00110790
C       -2.91651527      -0.30954759      -1.30841148      -0.02012262       0.00117625       0.00172604      -0.00050388
C       -2.61809873      -0.09209993       0.03933443       0.02881961      -0.00203854      -0.00455066      -0.00020180
C       -1.29670184      -0.00395110       0.48301970      -0.02903168      -0.00165979       0.00141666      -0.00023159
C       -3.67847538       0.03975622       0.97603361       0.07473505      -0.00367824       0.00002907      -0.00272177
N       -4.55485166       0.14586390       1.72780840      -0.22339037       0.00195495       0.00121972       0.00282925
H        4.98212966       0.76290519       0.35145611       0.05047650       0.00005993       0.00212456       0.00022341
H        3.51230487       1.11755412      -0.68270576       0.04478852      -0.00053000       0.00528949       0.00108393
H        3.58081508      -0.17658571       2.10870837       0.04727789      -0.00238738      -0.00094841       0.00203543
H        1.72670155      -0.13268705      -0.86655114       0.13851789       0.00260698       0.00063997      -0.00743311
H        0.23883499      -0.44975453      -2.50558160       0.04874262       0.00121362       0.00055480       0.00075787
H       -2.09108121      -0.60573938      -3.25652619       0.04971682      -0.00430038      -0.00052544      -0.00254879
H       -3.94431371      -0.37620202      -1.63005317       0.05129237       0.00163124       0.00088124       0.00296975
H       -1.08061349       0.15404204       1.52436714       0.04398676      -0.00142058       0.00345571      -0.00116259
