20
Properties=species:S:1:pos:R:3:charge:R:1:forces:R:3 energy=-25515.2385121093 pbc="F F F"
C        4.26159872       0.00375512       0.40891032      -0.04935236       0.00276615       0.00023448      -0.00171086
C        3.09090718       0.49732798       0.02557041      -0.04014716       0.00071056       0.00363326       0.00352113
C        1.81855134      -0.18526587       0.37557670       0.18191598       0.00195413      -0.00407277      -0.00524000
O        1.77767899      -1.22273183       1.02060376      -0.28794765      -0.00307748       0.00135296       0.00191929
N        0.69688731       0.46284071      -0.09645875      -0.09469623       0.00159904      -0.00319554       0.00225819
C       -0.65085059       0.11286423       0.04169354       0.05090924       0.00008827       0.00349416      -0.00069321
C       -1.08588561      -1.02296170       0.72691950      -0.04397599      -0.00057912      -0.00265295      -0.00188783
C       -2.44317905      -1.28598755       0.80749862      -0.03248652      -0.00336628      -0.00044633       0.00148531
C       -3.38486077      -0.45181857       0.22495394      -0.04653068      -0.00017298      -0.00082713       0.00072759
C       -2.93384611       0.67060202      -0.45028825       0.03724439       0.00271312       0.00433342       0.00372022
C       -1.58858265       0.96418973      -0.54825474      -0.05267663       0.00042857      -0.00694512      -0.00338022
Cl      -4.09465133       1.75386213      -1.20291584      -0.07294519      -0.00447538       0.00167263      -0.00058249
H        4.30009787      -0.91177473       0.98315599       0.04335741       0.00064806       0.00091824       0.00258540
H        5.19508850       0.49199123       0.16398843       0.04552538       0.00242027       0.00216461      -0.00496018
H        3.04934871       1.41418178      -0.55222992       0.04479781      -0.00546576       0.00187071       0.00021354
H        0.85944013       1.30808283      -0.61761750       0.13958198       0.00316787      -0.00291379       0.00423121
H       -0.36170697      -1.67636527       1.18026334       0.03985373      -0.00176485       0.00105779       0.00166095
H       -2.77746413      -2.16617202       1.33961636       0.04510916      -0.00188710      -0.00270949      -0.00075036
H       -4.44184754      -0.66058263       0.28945182       0.04657140       0.00142896       0.00326094      -0.00212956
H       -1.27562553       1.85081703      -1.08248001       0.04589198       0.00286371      -0.00022996      -0.00098845
