20
Properties=species:S:1:pos:R:3:charge:R:1:forces:R:3 energy=-13010.320230926389 pbc="F F F"
C        4.19041205      -0.02367520      -0.54977498      -0.05217618       0.00119574      -0.00524474       0.00220727
C        3.10620698      -0.24584327       0.18231048      -0.04173252      -0.00327965       0.00464109       0.00071468
C        1.74915299       0.06653594      -0.33787141       0.17920215      -0.00211997      -0.00519789      -0.00521973
O        1.55929169       0.53574241      -1.45137917      -0.29276556       0.00571538       0.00564767      -0.00554791
N        0.73799342      -0.22358848       0.54912662      -0.09740094      -0.00023061      -0.00141919       0.00577635
C       -0.64589277      -0.06331738       0.40201155       0.04474026      -0.00297916       0.00181004      -0.00475131
C       -1.45217424      -0.44587178       1.47650284      -0.05104216      -0.00153586      -0.00344707      -0.00303198
C       -2.82631729      -0.31563081       1.40546174      -0.03594446       0.00032444       0.00188610       0.00317017
C       -3.42074673       0.19824130       0.26191985      -0.04585657      -0.00123472      -0.00039478       0.00334901
C       -2.62057117       0.57715682      -0.80536153      -0.03842552      -0.00192343      -0.00009257      -0.00229552
H       -3.07252732       0.97868030      -1.70256239       0.04226689      -0.00260607      -0.00029475       0.00125945
C       -1.24193437       0.45234705      -0.74966424      -0.04501355      -0.00526616       0.00116603       0.00079998
H        5.18268807      -0.24915824      -0.18318466       0.04377287       0.00681389       0.00233498       0.00252133
H        4.09536498       0.39303857      -1.54332163       0.04200068      -0.00057749      -0.00236355       0.00305435
H        3.19972574      -0.66224485       1.17971620       0.04328813      -0.00245893      -0.00083495      -0.00240719
H        1.02158008      -0.60664689       1.43509567       0.13784626       0.00634339      -0.00118288       0.00122318
H       -0.99840246      -0.84989436       2.37377919       0.04274752      -0.00020394       0.00458667      -0.00191833
H       -3.43526413      -0.61637775       2.24760079       0.04353425       0.00008933      -0.00201399       0.00152043
H       -4.49542377       0.30148523       0.20541572       0.04311825       0.00177340      -0.00130836       0.00053771
H       -0.62206316       0.74587599      -1.57865520       0.03784018       0.00216052       0.00172225      -0.00096197
