29
Properties=species:S:1:pos:R:3:charge:R:1:forces:R:3 energy=-28046.228028286456 pbc="F F F"
C        5.04989530      -0.35159625       0.80622497       0.01117955       0.00037442       0.00235049      -0.00261853
O        4.38853732       0.67475866       0.10384789      -0.16056103       0.00015507       0.00768661       0.00284126
C        3.01901492       0.55713390      -0.02175499       0.06669421       0.00065089      -0.00525021      -0.00159258
C        2.25926130      -0.46634672       0.53057003      -0.07143373      -0.00233885      -0.00082731       0.00344142
C        0.88868787      -0.49917996       0.33173385      -0.05785966       0.00169427      -0.00486430      -0.00715922
C        0.23992788       0.47642732      -0.42853076       0.03723919      -0.00235127       0.00003690       0.00131929
C        1.01373344       1.51833124      -0.95925220      -0.05735267       0.00119254      -0.00679314      -0.00289602
C        2.38141475       1.54688686      -0.75837687      -0.06341111      -0.00044849      -0.00012037      -0.00027827
N       -1.13005933       0.32707544      -0.64974978      -0.09506161      -0.00272804       0.00089290      -0.00079644
C       -1.99325143       1.30674609      -1.03301823       0.16472565      -0.00221489       0.00333938       0.00276927
O       -1.68162743       2.49981173      -1.15566965      -0.35601431      -0.00186957       0.00078150      -0.00082023
C       -3.39393858       0.90435730      -1.29961073      -0.05290288      -0.00051061       0.00507792      -0.00156085
C       -3.85036419      -0.30321108      -1.62214639      -0.08083300       0.00595477      -0.00025549       0.00570261
H        4.72301237      -0.40755239       1.84923034       0.02207208       0.00278114      -0.00426306      -0.00061352
H        6.10921040      -0.10879139       0.78033684       0.02432118       0.00033570       0.00077028       0.00499832
H        4.89707194      -1.32816667       0.33691919       0.02227868       0.00115162      -0.00121295       0.00461633
H        2.71648971      -1.24864662       1.11931804       0.02630355      -0.00651941       0.00325993       0.00019681
H        0.29675246      -1.29735450       0.76472798       0.02536114       0.00320745       0.00052475      -0.00866579
H        0.53493155       2.30243923      -1.52085344       0.02581016      -0.00338077       0.00452680       0.00245607
H        2.97776054       2.34936667      -1.17405918       0.02524813       0.00571276      -0.00090096      -0.00691270
H       -1.53439015      -0.60706679      -0.34662812       0.08067559       0.00015061      -0.00102829       0.00350115
H       -4.06698919       1.75278525      -1.27473229       0.02010880       0.00126260      -0.00382230       0.00036157
H       -4.90714081      -0.45338864      -1.81876700       0.02121426      -0.00063026      -0.00238508      -0.00163660
H       -3.21284718      -1.17369924      -1.68541053       0.02302227      -0.00113239       0.00395566       0.00105514
S       -2.15231506      -2.45959817       0.48752751      -0.53905559      -0.00114931       0.00262815       0.00379831
C       -3.22083954      -1.53816670       1.65492796      -0.12147295      -0.00262516       0.00412918       0.00326093
H       -3.05269817      -0.45759430       1.58991489       0.02121883       0.00243837      -0.00189897      -0.00159505
H       -4.28108045      -1.70799765       1.44991066       0.02084739      -0.00016073      -0.00319381      -0.00323525
H       -3.02671045      -1.83458023       2.68982842       0.01763784       0.00099809      -0.00314443       0.00006273
