26
Properties=species:S:1:pos:R:3:charge:R:1:forces:R:3 energy=-24946.782156911304 pbc="F F F"
C       -3.89400834      -1.12649645      -0.01954441      -0.03942272       0.00558566       0.00153873      -0.00065028
C       -2.51518365      -1.01760120      -0.11344983      -0.04443114       0.00682334      -0.00117175      -0.00157335
C       -1.93144013       0.24799009      -0.15200428       0.04693659      -0.00024780       0.00366380      -0.00093491
N       -0.54892110       0.45944707      -0.24728093      -0.09269267      -0.00294124      -0.00029868       0.00407764
C        0.47504004      -0.45069432      -0.31560450       0.17699859      -0.00131913       0.00097966      -0.00363619
O        0.31611929      -1.66111222      -0.31098322      -0.28061834      -0.00214963       0.00799040      -0.00340604
C        1.84916827       0.19964747      -0.40030606      -0.04186867       0.00463737      -0.00174493       0.00339093
C        2.94112352      -0.82819257      -0.61011687      -0.02868644      -0.00436497       0.00175242      -0.00300455
S        4.62800432      -0.12772063      -0.69589485      -0.09930003      -0.00316771      -0.00242701      -0.00218480
C        4.93091465       0.20319585       1.06601751      -0.06841803       0.00146467       0.00096563       0.00411690
C       -2.74563465       1.38105034      -0.09523333      -0.05195715      -0.00266814       0.00011992       0.00045677
C       -4.11927762       1.25594843      -0.00197721      -0.03795540      -0.00358606       0.00218126      -0.00196222
C       -4.70355842      -0.00173512       0.03678867      -0.04957058       0.00173067      -0.00797897      -0.00145648
H       -5.77712354      -0.10277720       0.10943058       0.04065230      -0.00358248       0.00308069       0.00035860
H       -4.33828126      -2.11275692       0.00919492       0.03954393       0.00044569       0.00495083       0.00121639
H       -1.88959646      -1.89247635      -0.15750158       0.03626881      -0.00273178       0.00068359       0.00057109
H       -0.27782011       1.42963155      -0.26278737       0.14154124       0.00137306      -0.00582952      -0.00173709
H        2.02600974       0.76410257       0.51949176       0.03905876       0.00015762      -0.00246086      -0.00208913
H        1.85819511       0.94069861      -1.20418903       0.04118484      -0.00233429      -0.00548233       0.00403592
H        2.89517321      -1.58620149       0.16796963       0.03448298       0.00312762       0.00630107       0.00023360
H        2.79548300      -1.33972067      -1.55824394       0.04076762       0.00221512      -0.00024706       0.00340140
H        4.87557455      -0.70845679       1.65711010       0.03736143       0.00087864      -0.00153375       0.00007637
H        5.93718206       0.60557444       1.13863652       0.04119565       0.00500417      -0.00704489       0.00087480
H        4.23964493       0.94024581       1.46749617       0.03780161      -0.00213984       0.00746660      -0.00286800
H       -2.29658432       2.36714314      -0.12483868       0.04014733      -0.00288098      -0.00417724      -0.00033127
H       -4.73516903       2.14455591       0.03938248       0.04097953       0.00067039      -0.00127873       0.00302375
