26
Properties=species:S:1:pos:R:3:charge:R:1:forces:R:3 energy=-24936.24656797685 pbc="F F F"
C        2.24393191      -1.74186435       1.44072607      -0.05972784      -0.00560693      -0.00323183      -0.00046492
C        1.15946147      -0.81409612       1.27465011      -0.21868123       0.00245541       0.00207658      -0.00049812
C        0.44786689      -0.76471800       0.06806391       0.07853267       0.00268476      -0.00001843       0.00018836
O        0.62077974      -1.50849434      -0.93161730      -0.38847956       0.00624621      -0.00252827       0.00004940
N       -0.55873116       0.24373841      -0.07605381      -0.12375560      -0.00052598       0.00121317       0.00125924
C       -1.13739978       0.93725203       1.05016674      -0.00371066       0.00033882       0.00178363      -0.00154383
C       -2.19435828       1.80975807       0.39636556      -0.05452016       0.00255337       0.00247892       0.00226382
C       -2.74120845       0.93698905      -0.72913645       0.06472117      -0.00054466       0.00288274       0.00342901
C       -1.55892493       0.03806522      -1.10838184      -0.01203015      -0.00095982       0.00088106      -0.00054343
O       -3.84151761       0.10758983      -0.30936951      -0.26651707       0.00025319      -0.00085485       0.00325488
H        2.19136902      -2.57377953       0.74639203       0.01687673      -0.00149802      -0.00507038       0.00056788
H        2.39864669      -2.09583383       2.45592309       0.00719143       0.00061025       0.00686761       0.00069097
H        1.01769137      -0.05629685       2.03657634       0.01112164      -0.00545497       0.00039326       0.00141742
H       -0.38530779       1.53185936       1.56658482       0.01664046      -0.00365809      -0.00451510       0.00341186
H       -1.58377701       0.25045656       1.78850307       0.00782173       0.00350068      -0.00009005      -0.00793177
H       -1.71864991       2.69096759      -0.03545338       0.01447864       0.00188187      -0.00043048      -0.00265485
H       -2.96758545       2.14878949       1.08775351       0.01439500      -0.00127673      -0.00511719      -0.00039339
H       -3.06722852       1.54947003      -1.57611314       0.00646966      -0.00198022       0.00024315      -0.00009837
H       -1.16241316       0.30132390      -2.09443542       0.00987743      -0.00046757       0.00332476      -0.00400086
H       -1.87293248      -1.00583608      -1.16388820       0.01188486      -0.00028366      -0.00244058       0.00166939
H       -4.52422442       0.69799340       0.02743867       0.11511263       0.00271616       0.00140118       0.00209966
S        4.09698381      -1.05438798       1.10152473      -0.21950921      -0.00350656       0.00310984       0.00042891
C        3.82668507      -0.50036646      -0.60646544      -0.08572545       0.00095472      -0.00597829       0.00712179
H        4.67602312       0.11127979      -0.91608979       0.01387319       0.00211610       0.00175916      -0.00331378
H        2.91250227       0.08747298      -0.65037264       0.02582158      -0.00220878       0.00071474      -0.00138972
H        3.71735421      -1.34404500      -1.28506943       0.01783811       0.00166026       0.00114593      -0.00501943
