63
Properties=species:S:1:pos:R:3:charge:R:1:forces:R:3 energy=-64279.64740396549 pbc="F F F"
Cl      -7.10210202      -0.58240657      -1.80542484      -0.11274645       0.00584641       0.00396214       0.00093575
C       -5.75643186      -1.36417154      -1.02760735      -0.07874911       0.00221422       0.00101623       0.00309133
C       -5.88260707      -2.68663192      -0.64988746       0.03784814       0.00449469      -0.00229064      -0.00379397
N       -4.90188706      -3.37471089      -0.09280537      -0.43776092      -0.00259082      -0.00279778       0.00597432
C       -3.75069657      -2.69231109       0.07414107       0.44723412      -0.00167810      -0.00016860      -0.00527321
N       -2.74346867      -3.42464553       0.61541702      -0.34366086      -0.00315675       0.00624482       0.00266565
C       -1.39300052      -3.07533605       0.75028404       0.08274709      -0.00358105       0.00140260       0.00105864
C       -0.45138326      -4.10659295       0.63750233       0.07748017      -0.00335141       0.00315032       0.00058594
O       -0.98737396      -5.36808336       0.48168367      -0.23621386       0.00712168       0.00352512      -0.00053649
C       -0.07728622      -6.44310711       0.46224372      -0.07816241       0.00158629      -0.00199182      -0.00283875
C        0.89679634      -3.81649542       0.68928167      -0.20852064      -0.00340684      -0.00232328       0.00104136
C        1.33530085      -2.51073889       0.89243607      -0.16510484       0.00376655      -0.00524791      -0.00418300
C        0.41006747      -1.48579325       1.06967408       0.13386868       0.00193298      -0.00541705       0.00089129
N        0.76419978      -0.17220206       1.27215750      -0.36828774      -0.00456584       0.00285205      -0.00006791
C        2.06714475       0.44102145       1.18579607       0.30540961       0.00298654      -0.00045524       0.00190827
C        2.07071631       1.82100340       1.03029732      -0.41261566      -0.00189081       0.00162147       0.00344414
C        3.32260695       2.58758262       1.12176152      -0.02395174      -0.00038064       0.00452959      -0.00133226
C        3.55348015       3.50490042      -0.07795027      -0.04608658       0.00088382       0.00465469      -0.00078912
N        4.01626026       2.86297028      -1.29775148      -0.31342742      -0.00252643      -0.00077100       0.00229673
C        3.08548876       1.90546407      -1.86881203      -0.12206304      -0.00221918      -0.00375572      -0.00248869
C        5.33912291       2.27846254      -1.16175916      -0.14280048      -0.00249819       0.00224012      -0.00063925
O        3.07060718      -0.30447705       1.24303557      -0.46980906       0.00019511      -0.00605720      -0.00097302
C       -0.96320155      -1.79619474       1.02365352      -0.15655130       0.00184566      -0.00210501       0.00287526
N       -3.54610143      -1.43039136      -0.24952789      -0.27342558      -0.00276113       0.00072167       0.00170825
C       -4.53639879      -0.71721326      -0.79315936       0.17898513       0.00307422      -0.00197287      -0.00584250
C       -4.25289690       0.67166644      -1.09354589      -0.01430026      -0.00198502      -0.00112683       0.00323487
C       -2.95477668       1.18887361      -1.19615798       0.11439219      -0.00208937      -0.00153759      -0.00375631
C       -1.66206805       0.65010485      -1.19750978      -0.10894784      -0.00217217       0.00071375       0.00244576
C       -0.58987674       1.49235288      -1.16677384      -0.10603721       0.00090187       0.00039059       0.00164631
C       -0.78853960       2.89428825      -1.25106227      -0.14554295       0.00086943       0.00054875       0.00138148
C       -2.02809822       3.40841133      -1.34705717      -0.06115462       0.00036419      -0.00021431      -0.00982589
N       -3.09219148       2.54637705      -1.31693916       0.12284048       0.00005970      -0.00222821       0.00026852
N       -4.38745728       2.93361774      -1.34184433      -0.40226802      -0.00010413      -0.00209969       0.00162917
C       -5.07613166       1.81982229      -1.20955370      -0.01381068       0.00054252      -0.00082047       0.00621072
H       -6.82097615      -3.20072536      -0.81278033       0.07437696       0.00305414       0.00356696      -0.00117433
H       -2.94227588      -4.41008985       0.63480088       0.25877103      -0.00137246       0.00707529      -0.00072100
H        0.51560950      -6.48594545       1.37764207       0.07018629      -0.00364848       0.00323056       0.00074159
H       -0.68252906      -7.34235054       0.38558798       0.08248281      -0.00146032      -0.00360425      -0.00311104
H        0.59229224      -6.39013109      -0.39801169       0.07034816      -0.00069574       0.00456944      -0.00475296
H        1.63346689      -4.59500560       0.56490969       0.12467211       0.00172497       0.00552526       0.00671559
H        2.37740010      -2.25310726       0.92116302       0.13090318       0.00263704       0.00122586       0.00516281
H        0.00214670       0.47905696       1.32722158       0.23075199       0.00079256       0.00118944      -0.00046536
H        1.16481867       2.40810803       0.98234281       0.11938158      -0.00242115       0.00603074      -0.00206465
H        4.17729233       1.91699359       1.24596253       0.11218975      -0.00374557       0.00193194       0.00671190
H        2.61193643       4.00654539      -0.29470447       0.07018245      -0.00180188       0.00243367       0.00284633
H        4.28348073       4.27506493       0.17051556       0.06715617       0.00291254       0.00454983       0.00288754
H        3.02202700       0.97650778      -1.29491265       0.07520579       0.00149936      -0.00639388       0.00219331
H        3.39737772       1.67597535      -2.89010352       0.07493190       0.00456179       0.00168722      -0.00593317
H        2.08847429       2.34133036      -1.90570126       0.06646645      -0.00295977      -0.00133508      -0.00049676
H        5.35352454       1.37372173      -0.54083577       0.06579730       0.00077355       0.00262087      -0.00641835
H        6.02113135       3.00389193      -0.71810720       0.07172921       0.00362329      -0.00798731      -0.00070046
H        5.73048546       2.01324778      -2.14525351       0.07796258      -0.00516521       0.00391581       0.00134144
H       -1.70143044      -1.03039327       1.19827672       0.11995861       0.00341388      -0.00248243       0.00539706
H       -1.57592917      -0.42452386      -1.19272389       0.11767780       0.00004309       0.00185137      -0.00094625
H        0.40549313       1.10166760      -1.03043737       0.09814604       0.00075041      -0.00821816       0.00132884
H        0.05302280       3.56246532      -1.22947278       0.10904004       0.00553292      -0.00511706       0.00100570
H       -2.26176873       4.45581248      -1.43037393       0.12898672      -0.00266313       0.00143098       0.00293188
H       -6.14866062       1.88085175      -1.18126971       0.10558841       0.00248095      -0.00218325      -0.00283141
S        3.38233631       3.71090444       2.61541639      -0.25867081      -0.00318052      -0.00327287      -0.00652206
C        3.12683034       2.48754249       3.90698574      -0.19811223      -0.00274553      -0.00560271       0.00573405
H        3.79871332       1.64075610       3.78272773       0.08723095      -0.00108807       0.00309570      -0.00220832
H        2.10491235       2.12147886       3.88526471       0.07962035       0.00319111       0.00082063      -0.00402876
H        3.32802695       2.97652340       4.86081398       0.10823209      -0.00177266      -0.00474558      -0.00557592
