37
Properties=species:S:1:pos:R:3:charge:R:1:forces:R:3 energy=-29684.713099146895 pbc="F F F"
C        5.03988497      -0.70767907      -1.17151506      -0.13882624      -0.00035479      -0.00164122       0.00270434
C        3.72940103      -0.90298022      -0.76157616      -0.10999241       0.00145134       0.00440837       0.00119011
C        3.13616602       0.02875568       0.08149036       0.15252976      -0.00394760       0.00237350      -0.00107369
N        1.82725209      -0.12391210       0.58044039      -0.33786660      -0.00058497       0.00118293      -0.00250922
C        0.78420356      -0.78088216      -0.00689670       0.40634069      -0.00040000       0.00283704       0.00238463
O        0.85831783      -1.37067574      -1.06644167      -0.43142927       0.00206513      -0.00389479      -0.00755514
C       -0.54008340      -0.65048327       0.71406610      -0.14450800       0.00044885       0.00176324      -0.00019510
C       -1.37582962       0.38712146      -0.04215208      -0.04935120      -0.00028251       0.00065150       0.00246267
S       -0.82734457       2.09019638       0.28123450      -0.19764386      -0.00050900      -0.00199529       0.00254805
C       -1.34833670       2.35683961       1.98770683      -0.18154234       0.00069914      -0.00058713       0.00003710
C       -2.87549429       0.18730748       0.16054748      -0.03301673       0.00058499      -0.00039499       0.00211296
N       -3.31191863      -1.12691842      -0.29236390      -0.24520864      -0.00032113      -0.00037775      -0.00070006
C       -4.66832160      -1.39471742       0.14776120      -0.14165664      -0.00333919       0.00143252      -0.00212389
C       -3.20406393      -1.27988746      -1.73187071      -0.13743198      -0.00033665       0.00006496      -0.00110742
C        3.85639725       1.14676848       0.49336491      -0.14883383      -0.00249899       0.00611752      -0.00369331
C        5.16083787       1.33273621       0.07181066      -0.14547780      -0.00049269      -0.00119349       0.00575221
H        5.70850765       2.20675666       0.39350803       0.13306452       0.00087228      -0.00047668       0.00237787
C        5.76344670       0.40205767      -0.76272451      -0.16246375       0.00162845       0.00538970      -0.00153091
H        6.78221028       0.54403946      -1.09248605       0.13417122      -0.00029709      -0.00198316      -0.00098772
H        5.49615545      -1.43650389      -1.82544132       0.13158593      -0.00106121      -0.00406163      -0.00208987
H        3.16148129      -1.75463788      -1.09256592       0.13281713       0.00323578      -0.00655599      -0.00394056
H        1.57390659       0.51150722       1.31659352       0.23657972       0.00271020       0.00173643      -0.00070578
H       -1.05127267      -1.60666112       0.64252443       0.09904309      -0.00074623       0.00090224       0.00053887
H       -0.42821172      -0.38903013       1.76500301       0.06425346      -0.00012484       0.00169893       0.00013848
H       -1.15312382       0.26471092      -1.09963425       0.11965693      -0.00264053      -0.00035759       0.00411581
H       -1.05817801       3.37669188       2.22601917       0.11667951       0.00158207      -0.00011811       0.00019803
H       -2.42476123       2.27077899       2.09670594       0.08365855       0.00330164       0.00023660      -0.00009161
H       -0.85835646       1.68412674       2.68759721       0.07683536      -0.00232905       0.00027933      -0.00068784
H       -3.10247436       0.27704694       1.22396772       0.07633797       0.00062044       0.00056082       0.00413151
H       -3.42552717       0.98598279      -0.35344018       0.06508257      -0.00050616      -0.00413315      -0.00200834
H       -5.40513013      -0.70734663      -0.29541458       0.06345785      -0.00079982       0.00615256      -0.00364654
H       -4.94595099      -2.41018564      -0.12644098       0.08273646       0.00059941      -0.00169867       0.00364112
H       -4.72906177      -1.31001751       1.23079011       0.07452451      -0.00378114      -0.00322344       0.00025841
H       -3.74492824      -0.49541595      -2.28014069       0.06577283       0.00263791      -0.00157059      -0.00101631
H       -2.16225606      -1.26864441      -2.04342562       0.07990413      -0.00285129      -0.00570734       0.00382449
H       -3.62201146      -2.24113982      -2.02537261       0.08566242       0.00189197       0.00205623      -0.00391916
H        3.38067965       1.87649279       1.13740453       0.12455460       0.00387568       0.00012662       0.00116634
