28
Properties=species:S:1:pos:R:3:charge:R:1:forces:R:3 energy=-26473.89192574683 pbc="F F F"
C        3.44590491       0.77678277      -0.50867892      -0.15094481      -0.00313328       0.00133302       0.00068026
C        2.06708702       0.65049789      -0.56059305      -0.11614873      -0.00220939      -0.00160167       0.00081796
C        1.43710432      -0.32954697       0.19912672       0.10155540      -0.00604313       0.00370160       0.00054396
N        0.03694893      -0.53399635       0.22260662      -0.35980567      -0.00188467      -0.00159835      -0.00531227
C       -0.93851479       0.09799700      -0.48875921       0.41883618       0.00166366      -0.00144568      -0.00166400
O       -0.73089390       0.99016509      -1.28401271      -0.42974207       0.00355909       0.00192544       0.00028861
C       -2.34153490      -0.42564298      -0.20749966      -0.13118121       0.00344169      -0.00160005       0.00152588
C       -3.37079588       0.30471547      -1.04824893      -0.09929501       0.00121058       0.00146056      -0.00046714
S       -5.06241145      -0.27038003      -0.78457953      -0.21337795      -0.00148418      -0.00802567      -0.00221891
C       -5.40413005       0.52854293       0.79869609      -0.20100990       0.00221601      -0.00377006       0.00086600
C        2.21226707      -1.16900106       0.99254849      -0.16212699      -0.00616877      -0.00074618      -0.00719897
C        3.58876146      -1.03919617       1.03853961      -0.15995786      -0.00607708      -0.00057515      -0.00187631
C        4.22624843      -0.05341819       0.29028117       0.11810184      -0.00362408       0.00071870       0.00155735
N        5.62258871       0.05467319       0.28824907      -0.67567635       0.00098212      -0.00080685       0.00108633
H        3.92961361       1.53706039      -1.10809824       0.13135532       0.00412456      -0.00148516      -0.00292463
H        1.48158118       1.30099705      -1.18576283       0.13149916       0.00375432       0.00136193       0.00297206
H       -0.26903575      -1.26800848       0.83542404       0.26116836       0.00009238       0.00335857       0.00256624
H       -2.54808357      -0.31688652       0.85929263       0.06823533      -0.00046814      -0.00166456       0.00107610
H       -2.36347672      -1.49609443      -0.41784517       0.07548725      -0.00681971      -0.00064430      -0.00359952
H       -3.14985291       0.16192189      -2.10123704       0.11062157       0.00240119       0.00116429       0.00206170
H       -3.31430613       1.37301779      -0.85844049       0.09814449       0.00425217       0.00472724      -0.00631363
H       -6.45767952       0.37227269       1.01532988       0.11478267      -0.00123946      -0.00125081       0.00179430
H       -4.81491721       0.09890933       1.60474887       0.08736490       0.00633926       0.00101040       0.00642664
H       -5.21143593       1.59703899       0.73938698       0.09240045       0.00048729       0.00148572       0.00161729
H        1.72270959      -1.93889097       1.57675493       0.12508737       0.00417007       0.00304384       0.00255461
H        4.17793695      -1.70774903       1.65242938       0.13234009      -0.00033733       0.00201780       0.00113803
H        5.96384907       0.96892033       0.04358527       0.31564438       0.00106309      -0.00037893      -0.00105446
H        6.06399104      -0.28650955       1.12531048       0.31664175      -0.00026806      -0.00171629       0.00305742
