20
Properties=species:S:1:pos:R:3:charge:R:1:forces:R:3 energy=-15727.540641386418 pbc="F F F"
O        1.27597430       1.72471121      -1.38393666      -0.45227805      -0.00570412       0.00383913      -0.00457376
C        1.67727416       0.90360083      -0.58494221       0.45817164      -0.00036216      -0.00055862       0.00058501
C        3.14863648       0.76663760      -0.32364072      -0.15103002       0.00106670      -0.00047736       0.00434278
C        3.75574288      -0.27941639       0.21927267      -0.27635625       0.00661100      -0.00147416      -0.00323535
N        0.87032052       0.06398193       0.13554354      -0.33489028      -0.00102670       0.00032537       0.00207254
C       -0.53592629      -0.05200237       0.07768870       0.09821126      -0.00365147       0.00220211       0.00053591
C       -1.30661090       0.52039002      -0.92999662      -0.11145241      -0.00395975      -0.00114217      -0.00263409
C       -2.68085682       0.33109100      -0.93039370      -0.14717339      -0.00306549       0.00104427       0.00302693
C       -3.26680877      -0.41794437       0.06591623       0.11237071      -0.00207442       0.00248159       0.00133941
F       -4.60382380      -0.59563609       0.05520118      -0.14046076       0.00001298       0.00237615       0.00064241
C       -2.52569256      -0.99279186       1.07694269      -0.15044697      -0.00024115       0.00004387      -0.00306854
C       -1.15441239      -0.80395435       1.07317478      -0.15931150      -0.00128642       0.00188439       0.00249611
H        3.70735767       1.62058279      -0.67693401       0.12782185       0.00142437      -0.00193506       0.00310103
H        3.21857979      -1.16896849       0.51947990       0.13691756      -0.00161084       0.00507676      -0.00287641
H        4.82658704      -0.30099872       0.35753179       0.15236430       0.00681182       0.00066903       0.00054509
H        1.30876115      -0.42786376       0.89170736       0.25647745      -0.00149941      -0.00526129       0.00246181
H       -0.83013984       1.10817479      -1.69398253       0.14303626       0.00156302      -0.00293953      -0.00148165
H       -3.30386538       0.76529174      -1.69830580       0.15381631       0.00318074      -0.00467469      -0.00019439
H       -3.01908581      -1.57238305       1.84269911       0.15503523       0.00276204       0.00336674      -0.00369515
H       -0.55091308      -1.24564816       1.85622842       0.12917709       0.00104970      -0.00484631       0.00061049
