26
Properties=species:S:1:pos:R:3:charge:R:1:forces:R:3 energy=-27668.534519391218 pbc="F F F"
C        4.08371567       1.34562414       0.17688316      -0.15246850      -0.00524048      -0.00022863      -0.00421748
C        2.73020706       1.36042944       0.46589311      -0.14951415      -0.00657655       0.00203611      -0.00233597
C        1.91581268       0.27524054       0.14589711       0.11674939       0.00279374      -0.00473613      -0.00161936
N        0.54861639       0.39004000       0.46845411      -0.36413306       0.00383057      -0.00138064       0.00109527
C       -0.44572017      -0.54265109       0.34711810       0.41248992       0.00476954      -0.00169932       0.00222830
O       -0.27205177      -1.65806666      -0.09311683      -0.42068246      -0.00250742      -0.00456683       0.00153204
C       -1.80526928      -0.06053626       0.83051714      -0.13436726       0.00305233       0.00465762       0.00136216
C       -2.85257497      -1.14794246       0.68228505      -0.10628386       0.00675136      -0.00089311      -0.00362707
S       -4.48944207      -0.65272821       1.25978848      -0.20722181       0.00201266       0.00008352       0.00474319
C       -5.00845645       0.36495188      -0.13891624      -0.20287935       0.00084609       0.00067207       0.00176356
C        2.47107498      -0.84427480      -0.46960710      -0.10588700       0.00067308       0.00016273      -0.00489551
C        3.82685381      -0.85931005      -0.76089716      -0.14404666       0.00561956      -0.00363044       0.00203804
C        4.60870637       0.22781215      -0.43702206       0.11179580      -0.00172753       0.00539388       0.00121363
F        5.92548158       0.19969421      -0.72815049      -0.14564990       0.00138196       0.00118292       0.00463111
H        4.72972595       2.17687854       0.41597748       0.15197460      -0.00692588      -0.00094796       0.00341646
H        2.29332872       2.22461711       0.94964945       0.12738001      -0.00310093      -0.00016714      -0.00333838
H        0.28072127       1.27287079       0.86485863       0.26378503      -0.00269871      -0.00214686       0.00137105
H       -2.08091744       0.83494976       0.26996011       0.06978885       0.00456976       0.00502502      -0.00342088
H       -1.71899368       0.24515268       1.87424573       0.07824413       0.00025571       0.00009095       0.00776630
H       -2.90825470      -1.47227404      -0.35322425       0.10020342      -0.00352186      -0.00699652      -0.00496900
H       -2.56191632      -2.01565998       1.26565080       0.11392763      -0.00334982       0.00024632       0.00292821
H       -4.41311917       1.27044274      -0.22689722       0.08899800      -0.00007452       0.00220528       0.00193800
H       -4.95144672      -0.19775508      -1.06766025       0.09499497       0.00063270       0.00133654      -0.00194684
H       -6.04344016       0.64410589       0.04090368       0.11757906       0.00151868       0.00364526      -0.00356594
H        1.84785319      -1.68542151      -0.71262138       0.13474606      -0.00157258       0.00165007      -0.00161936
H        4.28454120      -1.71289931      -1.23802828       0.15047719      -0.00141243      -0.00099400      -0.00247175
