23
Properties=species:S:1:pos:R:3:charge:R:1:forces:R:3 energy=-14095.548151383242 pbc="F F F"
O        1.50150947       1.18315152      -0.91946476      -0.44953859      -0.00009296       0.00011681      -0.00176814
C        1.59823899       0.15972657      -0.27078227       0.44573537       0.00063722       0.00355737       0.00210324
C        2.93900203      -0.43311434       0.04066023      -0.16360645      -0.00242992      -0.00058833       0.00200178
C        4.02623856       0.18251294      -0.40190416      -0.28819951       0.00400282      -0.00235606      -0.00700013
N        0.49674960      -0.50508526       0.21091918      -0.18743859       0.00044983       0.00164928       0.00080991
C        0.61000572      -1.71264821       1.02051138      -0.13782740      -0.00326893      -0.00077279      -0.00131505
C       -0.79906412       0.07263583       0.03275758       0.12745638       0.00044841      -0.00121668       0.00059652
C       -1.62406076       0.27433097       1.13404304      -0.15721844      -0.00082961      -0.00164228      -0.00045748
C       -2.89497933       0.80341843       0.96408880      -0.14494218       0.00121524       0.00268365       0.00025418
C       -3.35125610       1.12729684      -0.30384272      -0.15009007      -0.00042019       0.00094933      -0.00125525
C       -2.52423843       0.93045606      -1.40079077      -0.14893723       0.00214570       0.00143739      -0.00014499
C       -1.24748952       0.41733190      -1.23605022      -0.11789733       0.00170935       0.00097649       0.00049082
H        3.01877210      -1.34130827       0.61699549       0.12108826       0.00058535       0.00004612       0.00227294
H        5.01767079      -0.20109692      -0.20871652       0.14704020       0.00167587       0.00215627       0.00272720
H        3.93102385       1.09548953      -0.97299893       0.16047627      -0.00264501       0.00410541      -0.00148216
H        1.21263509      -2.46247452       0.51112890       0.09089309      -0.00055358      -0.00002008       0.00349578
H        1.05238206      -1.52163505       2.00024882       0.08362810      -0.00114386      -0.00355899      -0.00245222
H       -0.38021053      -2.12933914       1.16173761       0.08884161      -0.00123776      -0.00082759      -0.00152272
H       -1.27089888       0.02780039       2.12559954       0.12720622       0.00095684      -0.00365143      -0.00126312
H       -3.52700249       0.95944567       1.82620974       0.13753095       0.00107533       0.00223854       0.00139782
H       -4.34239154       1.53715865      -0.43740199       0.13866296      -0.00219399       0.00007656      -0.00062867
H       -2.86932084       1.19383066      -2.38989598       0.13834698      -0.00171470      -0.00088287       0.00068356
H       -0.57968466       0.30527067      -2.07427978       0.13878945       0.00162772      -0.00447620       0.00245617
