29
Properties=species:S:1:pos:R:3:charge:R:1:forces:R:3 energy=-26036.48550732026 pbc="F F F"
C       -4.08052499       1.91958177      -0.61429625      -0.15455170       0.00019650       0.00016461      -0.00222152
C       -3.46102772       1.87446297       0.62473112      -0.14505099      -0.00385019       0.00072822      -0.00025367
C       -2.33380608       1.08840344       0.81197269      -0.15111424      -0.00192056       0.00141488      -0.00036728
C       -1.81098629       0.35479220      -0.24729193       0.13975908       0.00356167       0.00187617       0.00081944
N       -0.67505061      -0.48216158      -0.03230899      -0.18729688       0.00278608      -0.00273616      -0.00258990
C        0.44409731      -0.31829808      -0.80946262       0.41137451       0.00314216       0.00234449      -0.00278170
O        0.46495969       0.42824133      -1.76360916      -0.41519123      -0.00245204       0.00195076      -0.00363835
C        1.64805744      -1.17158657      -0.43487432      -0.13697645       0.00132607      -0.00254884      -0.00134695
C        2.88876639      -0.81762375      -1.23912986      -0.12497675       0.00054357      -0.00431940      -0.00205339
S        3.78521742       0.65420660      -0.65867022      -0.19434407      -0.00612987      -0.00005231      -0.00003734
C        4.62682259      -0.05721673       0.77207516      -0.19721116      -0.00308667       0.00166473      -0.00193792
C       -0.66999742      -1.34731343       1.14006291      -0.12523682       0.00228349      -0.00281313       0.00102834
C       -2.41918526       0.41450908      -1.49472433      -0.11531106       0.00235645       0.00220910       0.00233023
C       -3.55748454       1.18547943      -1.66949724      -0.14792840       0.00214115      -0.00041010      -0.00095539
H       -4.96178173       2.52754556      -0.76016889       0.13676850       0.00074552       0.00083957      -0.00020171
H       -3.85404579       2.44937518       1.45028910       0.13552149      -0.00560813      -0.00114144       0.00295489
H       -1.85440233       1.05163982       1.78010178       0.12342207      -0.00077476       0.00210298      -0.00167696
H        1.37716450      -2.21127325      -0.62950726       0.08364810       0.00019021      -0.00324970      -0.00172834
H        1.84338318      -1.09976562       0.63434250       0.06388234       0.00310544       0.00007060      -0.00093452
H        3.58443591      -1.65494687      -1.24157686       0.08852229       0.00360199      -0.00205457       0.00271965
H        2.60562741      -0.61242152      -2.26766701       0.11183313       0.00150086      -0.00294059      -0.00249682
H        5.29469475       0.70730379       1.16028603       0.11654994      -0.00198697       0.00149166       0.00099375
H        5.21863073      -0.92455175       0.48800308       0.09243876      -0.00026628       0.00032484       0.00167733
H        3.93369143      -0.33837483       1.56205552       0.08169989      -0.00124066      -0.00000996       0.00107978
H       -0.11219513      -0.92081843       1.97561689       0.07484672       0.00102525      -0.00022835       0.00380510
H       -1.69481510      -1.51397338       1.45293044       0.08807706      -0.00142124       0.00264616       0.00002708
H       -0.23064912      -2.31146583       0.89915008       0.07902058       0.00358237      -0.00505681       0.00423648
H       -1.97884585      -0.12664311      -2.31670395       0.13209793       0.00131635       0.00568937       0.00111834
H       -4.02930981       1.22606743      -2.64040657       0.13572744      -0.00466783       0.00204313       0.00243154
