26
Properties=species:S:1:pos:R:3:charge:R:1:forces:R:3 energy=-24966.50396505804 pbc="F F F"
C        3.90875353      -0.65438207      -1.81960468      -0.16130878       0.00008889      -0.00025287       0.00319406
C        2.87626802      -1.58087366      -1.78487965      -0.14543462      -0.00104028      -0.00211487      -0.00119050
C        1.68411481      -1.27054883      -1.15623082      -0.15131117      -0.00017514      -0.00156769       0.00116052
C        1.50388938      -0.02493765      -0.55570685       0.13786106      -0.00087582      -0.00167989      -0.00150233
N        0.26283336       0.20570345       0.07153948      -0.32145849       0.00046757      -0.00133850       0.00696209
C       -0.24981706       1.38298621       0.53226706       0.40947217      -0.00496786       0.00546926      -0.00627050
O        0.33177239       2.44620966       0.48172482      -0.44781601      -0.00121966       0.00847062       0.00405796
C       -1.65818774       1.27257272       1.10334668      -0.14128837      -0.00204339      -0.00046458       0.00369040
C       -2.71721859       0.91993505       0.05312865      -0.11798973      -0.00218319       0.00075152       0.00118281
S       -2.90746579      -0.84546166      -0.31448021      -0.17937052       0.00260583       0.00312145      -0.00055098
C       -3.59452181      -1.40195885       1.25698473      -0.18243046       0.00172928      -0.00211104       0.00087090
C        2.53504056       0.90855163      -0.58537268      -0.11640394       0.00241749      -0.00242843       0.00021604
C        3.72611906       0.58031640      -1.21716919      -0.13951047       0.00387320       0.00216541      -0.00367152
H        4.84067816      -0.89268593      -2.31027786       0.13601871       0.00108002      -0.00039435       0.00185865
H        3.00002792      -2.54800406      -2.25027700       0.13505664      -0.00346196      -0.00634061       0.00152315
H        0.88121878      -1.99640609      -1.13272598       0.12779889      -0.00011010      -0.00272074      -0.00451151
H       -0.36927908      -0.58305084       0.06537474       0.22615413      -0.00418308      -0.00235314      -0.00669305
H       -1.89471490       2.24489398       1.52107151       0.09620692      -0.00108619       0.00295251       0.00037092
H       -1.67197170       0.54036701       1.90873666       0.06627043       0.00040104      -0.00572758       0.00521742
H       -3.69016384       1.27784952       0.38096663       0.09419040      -0.00258556       0.00179894      -0.00044447
H       -2.49126716       1.41660979      -0.88692848       0.11052875      -0.00330632       0.00011705       0.00001275
H       -3.91388927      -2.43187623       1.12484948       0.11911459       0.00364022      -0.00052677      -0.00355398
H       -4.45651770      -0.80077491       1.53264963       0.09314471       0.00435220      -0.00188243       0.00055447
H       -2.85839599      -1.36406342       2.05567633       0.08148097       0.00218546       0.00468263      -0.00090689
H        2.39645565       1.87106545      -0.12665877       0.13731596      -0.00153596      -0.00318812      -0.00268592
H        4.52127432       1.31125203      -1.23730757       0.13370831       0.00593314       0.00556161       0.00110945
