23
Properties=species:S:1:pos:R:3:charge:R:1:forces:R:3 energy=-14096.100731248882 pbc="F F F"
O        1.92678477       0.72878992       1.89462994      -0.43444681       0.00232975      -0.00123244      -0.00258970
C        1.92874132       0.11632348       0.84596798       0.44714326       0.00175873      -0.00122769      -0.00502211
C        3.19332130      -0.40023921       0.23530303      -0.14848770       0.00189142      -0.00179727      -0.00021706
C        4.36039245      -0.19919275       0.82877685      -0.28203672       0.00181147      -0.00237831       0.00398226
N        0.80730530      -0.16894818       0.11325788      -0.34042785      -0.00142937       0.00124601       0.00105156
C       -0.53695257       0.16577239       0.38646464       0.11792875      -0.00516032      -0.00116673      -0.00701216
C       -1.50273650      -0.25213390      -0.54235422       0.01090958      -0.00787987      -0.00109170      -0.00361810
C       -1.11414287      -1.02253129      -1.77822612      -0.21010289      -0.00090017      -0.00075901      -0.00013980
C       -2.83385736       0.05794380      -0.30549358      -0.15694058       0.00225629       0.00019747      -0.00204377
C       -3.22105150       0.76651231       0.82006557      -0.16668968      -0.00337350      -0.00148300      -0.00089142
C       -2.25696623       1.17314673       1.72680657      -0.14828071      -0.00144434       0.00062649      -0.00153905
C       -0.91851483       0.87852499       1.51827180      -0.14226083      -0.00701383      -0.00280056       0.00008899
H        3.13065160      -0.94199856      -0.70289570       0.11829653       0.00008580       0.00244642       0.00253067
H        4.41025824       0.34093432       1.76348884       0.15888886      -0.00909254       0.00172959      -0.00225025
H        5.28231189      -0.56614545       0.39999079       0.14675671       0.00141738       0.00454173       0.00624602
H        0.95384292      -0.68606204      -0.73502454       0.25189298       0.00616680       0.00190476       0.00013945
H       -2.00013006      -1.25233383      -2.36339250       0.08508994      -0.00386890       0.00269561       0.00417420
H       -0.62868022      -1.97082478      -1.53688628       0.07487837      -0.00051801      -0.00163520      -0.00277519
H       -0.43773476      -0.45482737      -2.42116287       0.07492370       0.00157572      -0.00274566      -0.00122356
H       -3.57845882      -0.26406373      -1.02078256       0.12811077       0.00515531       0.00197009       0.00563145
H       -4.26339119       0.99636868       0.98366168       0.13862877       0.00695253       0.00108459       0.00228907
H       -2.54101954       1.72677677       2.60949644       0.13765754       0.00442762       0.00262271       0.00587388
H       -0.16634878       1.19136626       2.21771801       0.13856792       0.00485187      -0.00274805      -0.00268571
