26
Properties=species:S:1:pos:R:3:charge:R:1:forces:R:3 energy=-24966.462484632473 pbc="F F F"
C       -3.93915004      -0.38745019      -0.83797409      -0.13399968      -0.00278253      -0.00133765       0.00161684
C       -2.56507179      -0.51456458      -0.69257852      -0.11640245      -0.00190685       0.00054137      -0.00473861
C       -1.90432969       0.28109063       0.23940540       0.14372700      -0.00068545      -0.00628499       0.00039063
N       -0.51373064       0.23786714       0.45562908      -0.36193269       0.00231996       0.00022596      -0.00057785
C        0.42338395      -0.59356136      -0.09865060       0.41709509       0.00109611      -0.00252716      -0.00161325
O        0.16599264      -1.45523687      -0.90991177      -0.42432725      -0.00137461      -0.00442109       0.00003984
C        1.83758425      -0.34942521       0.40676162      -0.13437916      -0.00038319       0.00199218       0.00249128
C        2.82160863      -1.30843597      -0.23758681      -0.10214075      -0.00517251      -0.00027096      -0.00062846
S        4.51965581      -1.08892148       0.33486325      -0.21005791      -0.00531736      -0.00253223      -0.00043107
C        4.96787161       0.38181975      -0.61247514      -0.20198420      -0.00124415       0.00040469       0.00077280
C       -2.63386428       1.18390291       1.01216933      -0.15630530       0.00235989       0.00372291      -0.00349610
C       -4.00412180       1.29777638       0.85743987      -0.14084943       0.00246334      -0.00447325       0.00434561
C       -4.66696845       0.51047958      -0.07293406      -0.16134717      -0.00020599       0.00456837       0.00155713
H       -5.73637579       0.59641363      -0.19815676       0.13601060       0.00142303      -0.00027985       0.00208185
H       -4.44396088      -1.00737640      -1.56510684       0.13310975       0.00134418      -0.00182981      -0.00005375
H       -2.00588823      -1.21584185      -1.28421894       0.13547646       0.00250454      -0.00020245      -0.00633030
H       -0.17406866       0.90123104       1.12833641       0.26183060      -0.00110542      -0.00090338       0.00322616
H        2.10697887       0.68944264       0.20697995       0.06880575      -0.00254821       0.00420446       0.00054465
H        1.84815899      -0.46611108       1.49141624       0.07683539      -0.00131399      -0.00046985       0.00414365
H        2.78120972      -1.21285634      -1.31929887       0.09902814       0.00154516      -0.00341697      -0.00146592
H        2.54105151      -2.33036225      -0.00388873       0.11218868      -0.00172487      -0.00178243       0.00126148
H        6.02647083       0.55878396      -0.44096444       0.11607248      -0.00049085       0.00611709      -0.00057657
H        4.80539359       0.21954882      -1.67533251       0.09377757      -0.00056731       0.00193305      -0.00104495
H        4.41059438       1.25803446      -0.29070649       0.08807779       0.00065034       0.00266441       0.00247077
H       -2.11673992       1.79641351       1.73977827       0.12718999       0.00467342       0.00145333      -0.00221083
H       -4.55665158       2.00062857       1.46477177       0.13450079       0.00644399       0.00290377      -0.00177548
