21
Properties=species:S:1:pos:R:3:charge:R:1:forces:R:3 energy=-15537.456438139601 pbc="F F F"
O        1.62448092      -2.17828057      -0.49892294      -0.44185865       0.00270688      -0.00286987      -0.00208455
C        1.97115779      -1.11655071      -0.02938807       0.45158389       0.00486649       0.00208256       0.00646178
C        3.40807743      -0.87423396       0.32277832      -0.15246995       0.00312413       0.00258115      -0.00055632
C        3.98396766       0.31009053       0.47401221      -0.27113199       0.00388075       0.00092593      -0.00081789
N        1.11924707      -0.06928553       0.23496917      -0.32467809       0.00028844       0.00237750      -0.00045519
C       -0.25571220       0.02417096      -0.02357223       0.10949560      -0.00561658      -0.00279799       0.00570397
C       -0.95454890      -0.89174162      -0.80268683      -0.09908060      -0.00604464      -0.00334247      -0.00309451
C       -2.30792781      -0.70329123      -1.02197247      -0.12543221      -0.00642581      -0.00010357      -0.00268809
C       -2.97801364       0.38633571      -0.47258863       0.05452957      -0.00101381      -0.00184274      -0.00154676
C       -4.38598917       0.57097596      -0.70548177       0.24251007       0.00331064       0.00089402       0.00239647
N       -5.51045516       0.72523220      -0.88730185      -0.40252906       0.00465136      -0.00326496      -0.00245871
C       -2.27333945       1.30096728       0.30764700      -0.13100132      -0.00384078      -0.00271038       0.00261978
C       -0.92504824       1.11499166       0.52421689      -0.14845702      -0.00158505       0.00546372       0.00106953
H        3.97328272      -1.79076855       0.40006643       0.13064414      -0.00640969      -0.00409920      -0.00270232
H        3.44283999       1.23603465       0.33408696       0.13774964       0.00296498       0.00138700      -0.00051719
H        5.03317409       0.40301876       0.71293903       0.15442248       0.00178068      -0.00421461      -0.00049474
H        1.49963923       0.67007252       0.79651841       0.25734019       0.00175538       0.00524588       0.00148689
H       -0.43730010      -1.73501003      -1.22228060       0.14442694       0.00043854       0.00038526      -0.00242860
H       -2.85705454      -1.40953396      -1.62578857       0.14093910      -0.00188972      -0.00181209      -0.00187547
H       -2.78685941       2.14706171       0.73748443       0.14151107      -0.00201283      -0.00061460      -0.00326453
H       -0.37731228       1.82474316       1.12847895       0.13148633       0.00507138       0.00632918       0.00524669
