32
Properties=species:S:1:pos:R:3:charge:R:1:forces:R:3 energy=-17307.642331688166 pbc="F F F"
C        4.36067528      -0.81695128      -0.21933562      -0.32500708      -0.00074307      -0.00409950      -0.00415691
C        3.18376151      -0.20595459      -0.26522085      -0.00220531       0.00056643      -0.00019327       0.00202793
C        3.02617566       1.21321894      -0.72923716      -0.20095189      -0.00116381      -0.00002195       0.00061683
C        1.97360968      -0.98786160       0.17377128       0.44442740      -0.00114202       0.00132295       0.00285218
O        2.06512764      -2.13945213       0.56498602      -0.46274880       0.00134820      -0.00343998      -0.00544214
N        0.79664350      -0.31792391       0.09678229      -0.36511350      -0.00226528       0.00007234       0.00085932
C       -0.52653778      -0.85651118       0.46624888       0.10894936      -0.00368611      -0.00238805      -0.00483932
C       -0.54904944      -1.18072726       1.95973167      -0.22060958       0.00359465       0.00323942      -0.00243894
C       -0.83323697      -2.12544000      -0.34151123      -0.21543227      -0.00001240      -0.00151363      -0.00093573
C       -1.54017588       0.22548714       0.08988147       0.02959725      -0.00162080       0.00043128      -0.00135623
C       -2.54148355       0.65649446       0.95124436      -0.14908503      -0.00119564      -0.00060849      -0.00124439
C       -3.43835681       1.64589218       0.56586590      -0.13706347       0.00397059       0.00298154       0.00083119
C       -3.34891424       2.21873130      -0.69062597      -0.13720953      -0.00294343      -0.00163186      -0.00127920
C       -2.36056566       1.78953323      -1.56646128      -0.13820733      -0.00401489      -0.00333978      -0.00011773
C       -1.47441380       0.80018293      -1.18040579      -0.12956274       0.00138136       0.00482033       0.00126179
H        5.26226308      -0.30460982      -0.52328248       0.14564796      -0.00185123       0.00272166       0.00029237
H        4.42748315      -1.83716324       0.12365392       0.15429835      -0.00251087      -0.00478774       0.00146359
H        2.63620624       1.85038886       0.06654002       0.07393404       0.00169628      -0.00268879       0.00296604
H        3.98983872       1.61103728      -1.03910708       0.08843523      -0.00293671       0.00143724       0.00011134
H        2.33971611       1.28592002      -1.57486495       0.06876500      -0.00175847       0.00095755       0.00118933
H        0.83389151       0.65874997      -0.12613544       0.22687015       0.00128371       0.00128259       0.00493645
H       -0.38201019      -0.27717959       2.54246242       0.07952815      -0.00170669       0.00362004       0.00043593
H        0.23261715      -1.89733996       2.18830921       0.08840039       0.00023592      -0.00078976       0.00177355
H       -1.51075460      -1.60845677       2.23705168       0.07863302       0.00409024       0.00725733      -0.00184499
H       -0.09763163      -2.89438233      -0.13100130       0.08678385      -0.00057568       0.00141292       0.00195368
H       -0.81643927      -1.90590424      -1.40643813       0.07641114       0.00354999       0.00021665       0.00213673
H       -1.82510622      -2.48918445      -0.07982223       0.08199740       0.00159091       0.00223269      -0.00153926
H       -2.63196620       0.22977168       1.93805046       0.12322297       0.00334140      -0.00092725      -0.00028904
H       -4.20575725       1.96687979       1.25541242       0.13618915       0.00176470      -0.00522993      -0.00055028
H       -4.04388771       2.98953934      -0.98944467       0.13964827       0.00032384      -0.00130583      -0.00089478
H       -2.28592850       2.22404066      -2.55334550       0.13532862       0.00379202      -0.00359376       0.00245070
H       -0.72337493       0.45281805      -1.87693759       0.11612898      -0.00240309       0.00255309      -0.00122963
