28
Properties=species:S:1:pos:R:3:charge:R:1:forces:R:3 energy=-26021.093365426685 pbc="F F F"
O        0.99379251       0.99155292       1.06382480      -0.51624954      -0.00536444      -0.00322696      -0.00155518
C        0.82569848      -0.14700705       0.56340710       0.31501582       0.00532939       0.00057633      -0.00174469
C        1.80424822      -1.07854533       0.24372207      -0.31128180       0.00386650      -0.00410993       0.00125238
C        1.52766311      -2.37158304      -0.47795474      -0.24446091       0.00302517       0.00052648      -0.00075195
C        3.21451332      -0.71555624       0.47255660      -0.13209380      -0.00103858      -0.00163121       0.00173898
N       -0.52363189      -0.55743872       0.25767677      -0.36124733       0.00090127       0.00360903       0.00175561
C       -1.70609088       0.12976577       0.39261757       0.21345799      -0.00641784       0.00133915      -0.00306762
C       -1.79660351       1.43988175       0.89364112      -0.13724606      -0.00019038      -0.00007700       0.00296797
C       -3.03458570       2.05056191       1.00666550      -0.16599788      -0.00029358      -0.00242421      -0.00066267
C       -4.21071630       1.40982534       0.63319814      -0.21254629      -0.00088593       0.00217418       0.00210489
C       -4.12462041       0.11818807       0.13201717      -0.18125251      -0.00345353       0.00056582       0.00431056
C       -2.89958505      -0.51112825       0.01125296      -0.18259959      -0.00677654      -0.00006550       0.00478703
H        0.99696107      -2.24794456      -1.43415644       0.06057005      -0.00149998       0.00537848       0.00359209
H        2.47520048      -2.85055175      -0.72663003       0.06450275       0.00390603       0.00389068      -0.00368648
H        0.95263455      -3.10152672       0.11030964       0.05730146      -0.00065848       0.00188477      -0.00201496
H        3.81324890      -1.54278760       0.86356415       0.07014203      -0.00254569       0.00272719      -0.00367874
H        3.28725688       0.12839003       1.15767177       0.08115041      -0.00320289      -0.00668953      -0.00359909
H       -0.58889972      -1.46640641      -0.15932394       0.23100959       0.00113911       0.00385516       0.00622628
H       -0.88102271       1.92781989       1.17658767       0.12522492      -0.00117570      -0.00035178       0.00406586
H       -3.07911470       3.05856991       1.40076638       0.11115697       0.00109131      -0.00488981      -0.00813787
H       -5.16790320       1.90232502       0.73058924       0.11815361       0.00604123       0.00053953      -0.00274159
H       -5.02232588      -0.40878171      -0.16740978       0.11249575       0.00861786      -0.00057924      -0.00496622
H       -2.85056225      -1.52017556      -0.38256683       0.10794544      -0.00025178      -0.00000475       0.00321302
S        4.17188059      -0.20962493      -1.05570994      -0.29828057      -0.00171248      -0.00041654       0.00146271
C        3.11643937       1.17807806      -1.50583668      -0.19284038      -0.00686507      -0.00189338       0.00296795
H        2.11784828       0.81705581      -1.73455814       0.09059771       0.00838316      -0.00128500      -0.00118960
H        3.04171150       1.88379342      -0.68259098       0.08221322      -0.00108592       0.00033636      -0.00485528
H        3.54608932       1.67144797      -2.37687676       0.09515893       0.00111766       0.00024169       0.00220621
