29
Properties=species:S:1:pos:R:3:charge:R:1:forces:R:3 energy=-26036.981320018633 pbc="F F F"
C        4.62571343      -0.82820551      -0.20863892      -0.16229469      -0.00181092      -0.00008082      -0.00467992
C        3.72454287      -1.85807102       0.02039750      -0.14175710      -0.00154160       0.00093968       0.00062912
C        2.37900238      -1.58041757       0.17792046      -0.15061186       0.00060947      -0.00049841      -0.00417145
C        1.91164220      -0.26886077       0.10893597       0.14579108      -0.00066242      -0.00350297       0.00146353
N        0.52773062      -0.08228861       0.27930263      -0.35486889       0.00154081      -0.00509792       0.00635841
C       -0.21312743       1.06986507       0.21323267       0.42182502       0.00133907      -0.00450739      -0.00584579
O        0.26175344       2.16786023       0.02214400      -0.42587954       0.00286569       0.00512896       0.00402920
C       -1.71407150       0.83819547       0.33861344      -0.07671529      -0.00115813       0.00500269       0.00288067
C       -2.38237918       2.03943752       0.98824937      -0.21920122      -0.00399984       0.00368105       0.00034618
C       -2.25219297       0.56774987      -1.07514557      -0.10465292      -0.00304911      -0.00274020      -0.00311485
S       -3.97883637       0.05695417      -1.15264591      -0.19318037      -0.00608866       0.00113342      -0.00244704
C       -3.81742036      -1.60879318      -0.48480136      -0.18396826      -0.00286289      -0.00054497       0.00163480
C        2.80975245       0.76938057      -0.12149802      -0.11558545      -0.00392863       0.00174888      -0.00277300
C        4.15663413       0.47412181      -0.27738123      -0.13383739      -0.00145463       0.00235344       0.00142470
H        5.67748215      -1.03936166      -0.33280488       0.13637637       0.00086441       0.00025790       0.00117266
H        4.07125117      -2.88001359       0.07593235       0.13460624      -0.00032283       0.00050182       0.00145521
H        1.67713391      -2.38546741       0.35524372       0.12688540       0.00371512       0.00582151      -0.00083973
H        0.00705168      -0.92641343       0.43241789       0.23447882       0.00187094      -0.00456724       0.00235453
H       -1.89086342      -0.04669060       0.95281334       0.08058593       0.00379130      -0.00232172      -0.00405261
H       -3.44957799       1.86082266       1.09033625       0.06904927       0.00253732       0.00147772       0.00026898
H       -2.23127882       2.92953500       0.38229276       0.08678624       0.00399270      -0.00306656       0.00356728
H       -1.95954216       2.23163536       1.97316432       0.07971483      -0.00118375      -0.00614815      -0.00552326
H       -1.66184886      -0.20394864      -1.56939438       0.07557614       0.00270060      -0.00414552      -0.00129730
H       -2.16757710       1.46937532      -1.67876328       0.11328254       0.00645371       0.00021546      -0.00207041
H       -3.51437452      -1.59092761       0.55888197       0.08015647      -0.00605774       0.00058278       0.00442203
H       -4.79567726      -2.07655957      -0.55662181       0.11954347      -0.00545611       0.00474973       0.00087167
H       -3.10793816      -2.19268781      -1.06536220       0.08916365       0.00301868      -0.00083417       0.00092356
H        2.45116301       1.78159415      -0.17695504       0.13586174       0.00068980       0.00010104       0.00216211
H        4.84729021       1.28535453      -0.45662697       0.13286969       0.00358816       0.00435952       0.00085091
