31
Properties=species:S:1:pos:R:3:charge:R:1:forces:R:3 energy=-27091.610855477218 pbc="F F F"
O       -0.05175562       0.32065671      -1.33148058      -0.48469526       0.00700116       0.00374598       0.00457278
C       -0.15142673       0.27571188      -0.08667662       0.32997203      -0.00323086       0.00004638       0.00512139
C       -1.21989268       0.61057875       0.72944640      -0.44325617      -0.00236621      -0.00109236      -0.00045142
C       -2.55885014       1.07277121       0.28832391       0.11170541      -0.00036661      -0.00252239      -0.00674737
C       -3.19866838       1.92051347       1.38614334      -0.23969354       0.00005366      -0.00247830      -0.00004503
C       -2.56121511       1.85538467      -1.02035825      -0.22689705       0.00111329       0.00128499      -0.00405213
N        0.99892597      -0.20333708       0.65991576      -0.38274845       0.00006680       0.00190416      -0.00584654
C        2.24496324      -0.59421414       0.24315421       0.19704132       0.00177003       0.00790190      -0.00413315
C        2.65904289      -0.58434264      -1.10090717      -0.14184146      -0.00029560       0.00228587      -0.00108148
C        3.93956174      -0.99323414      -1.43211312      -0.16010724      -0.00088866      -0.00635412       0.00172044
C        4.84801788      -1.42072334      -0.47031745      -0.21630070       0.00231626      -0.00061562      -0.00376326
C        4.44492357      -1.43079503       0.85847142      -0.17475921       0.00235477      -0.00106634      -0.00375882
C        3.17221824      -1.02663412       1.21134504      -0.18594371      -0.00210425      -0.00233012      -0.00018170
H       -1.16126321       0.36389785       1.78269485       0.08897444      -0.00148189       0.00419684      -0.00097294
H       -2.60388359       2.82273787       1.52687431       0.05932510       0.00197561       0.00228586       0.00528075
H       -4.21725951       2.20998755       1.12954390       0.05832075      -0.00112591       0.00269455      -0.00455392
H       -3.22145794       1.37435533       2.32832228       0.05558271      -0.00477272      -0.00107528       0.00831857
H       -3.55112572       2.26411150      -1.23207255       0.05871330      -0.00193539      -0.00509070      -0.00275495
H       -2.22813571       1.23813952      -1.84574787       0.06139769       0.00051369       0.00016190      -0.00037900
H       -1.85284439       2.67927367      -0.92828496       0.06765682      -0.00002688      -0.00052789       0.00666222
H        0.83910657      -0.24949141       1.64711790       0.23567921       0.00537251       0.00726894       0.00176936
H        1.95052318      -0.25062816      -1.83816879       0.12296349       0.00134944      -0.00381370      -0.00368054
H        4.23483437      -0.97763947      -2.47412829       0.11132799      -0.00435171       0.00143405       0.00733569
H        5.84263014      -1.73786986      -0.74896979       0.11849134       0.00553943       0.00037499       0.00253530
H        5.12993541      -1.75742074       1.63127272       0.11242427       0.00038494      -0.00102059      -0.00296246
H        2.87231934      -1.03878625       2.25339592       0.10718142       0.00421524      -0.00555332       0.00575338
S       -3.78551950      -0.36201669       0.09956492      -0.29925978      -0.00209708      -0.00181314      -0.00040592
C       -2.84397521      -1.43204943      -0.99595124      -0.20481226      -0.00560633      -0.00238542       0.00043359
H       -1.87340979      -1.63812512      -0.55220377       0.08797602       0.00013076       0.00558527      -0.00130146
H       -3.40841243      -2.35650847      -1.11199092       0.09536450      -0.00528509      -0.00084748       0.00095588
H       -2.69221903      -0.97674107      -1.97049226       0.08021704       0.00177647      -0.00258488      -0.00338609
