25
Properties=species:S:1:pos:R:3:charge:R:1:forces:R:3 energy=-24950.520559798762 pbc="F F F"
C       -2.69595444       1.02451995      -1.69838285      -0.18728434       0.00138567      -0.00303599       0.00011209
C       -1.64833916       0.18926449      -1.35590894      -0.16885144       0.00117234       0.00160903       0.00221244
C       -1.18688500       0.10368440      -0.03260058       0.19829135       0.00201136       0.00045454       0.00160596
N       -0.16148571      -0.77376388       0.24937860      -0.32155031       0.00489336       0.00263910       0.00312541
C        0.68511780      -0.81473519       1.41406591       0.31815031      -0.00369216      -0.00098778       0.00492780
C        1.87865523      -1.51684043       1.23805949      -0.50509340      -0.00204740      -0.00608961       0.00530694
C        2.26055522      -2.19249333      -0.01001798      -0.10351460       0.00336100       0.00001688      -0.00106372
O        0.31022404      -0.22476185       2.44684438      -0.58004653       0.00245322       0.00141091       0.00260771
C       -1.81632550       0.89888274       0.93762541      -0.13955899       0.00360225      -0.00410250      -0.00036216
C       -2.86469427       1.72886499       0.57535913      -0.17179593      -0.00170700      -0.00367964       0.00099130
C       -3.32070225       1.80579999      -0.73485853      -0.20995674      -0.00070902      -0.00239681      -0.00056881
H       -1.15865911      -0.40825777      -2.11598685       0.12051307      -0.00176195       0.00628488      -0.00432849
H        0.26959149      -1.16849538      -0.57236692       0.21671143      -0.00239171       0.00638768       0.00483326
H        2.58392634      -1.46241734       2.05382341       0.10654730      -0.00168883       0.00606145      -0.00087904
H        1.46527589      -2.85138535      -0.38013267       0.07400008       0.00012562       0.00178112      -0.00345317
H        3.14549337      -2.81347127       0.12130674       0.07707431       0.00091410      -0.00123854      -0.00302914
H       -1.44313228       0.83766687       1.94617207       0.13004188      -0.00433682      -0.00150652       0.00030588
H       -3.33827276       2.33476905       1.33784535       0.11376067       0.00107351      -0.00033799       0.00037377
H       -4.14000680       2.45886752      -0.99951872       0.11878441      -0.00031469       0.00343871      -0.00210529
H       -3.02577356       1.06713260      -2.72891903       0.11465859       0.00131645      -0.00091564      -0.00335564
S        2.69437637      -1.14694557      -1.53541739      -0.28011227       0.00109986       0.00382781       0.00224708
C        2.85070597       0.48125600      -0.78294111      -0.18471090      -0.00421173      -0.00458928      -0.00571019
H        3.07235276       1.20134611      -1.56803336       0.09550207       0.00198928      -0.00380001      -0.00299090
H        1.92116480       0.74433543      -0.29097661       0.08905867      -0.00737501       0.00395493      -0.00043833
H        3.64961018       0.47959215      -0.04819245       0.07938139       0.00483837      -0.00518684      -0.00036445
