26
Properties=species:S:1:pos:R:3:charge:R:1:forces:R:3 energy=-24966.462344814583 pbc="F F F"
C       -4.01560780      -1.48523722       0.36940308      -0.14086096       0.00155295       0.00137580      -0.00060527
C       -4.64810455      -0.26185151       0.53755071      -0.16139702       0.00019063      -0.00242429      -0.00281729
C       -3.90140486       0.90238446       0.44426152      -0.13405046      -0.00455336      -0.00188099       0.00293741
H       -4.38216764       1.86166240       0.57362101       0.13308504       0.00153673      -0.00227697      -0.00296162
C       -2.53846914       0.86945710       0.18559342      -0.11631721      -0.00669184       0.00316384       0.00130668
C       -1.90883495      -0.36097928       0.01821382       0.14380036      -0.00655863       0.00199169       0.00255019
N       -0.53237104      -0.50462955      -0.24005163      -0.36191908      -0.00244395       0.00162661       0.00313609
C        0.41134183       0.46307012      -0.46167939       0.41706601       0.00092713      -0.00059746      -0.00935920
O        0.17344838       1.65060247      -0.45864209      -0.42430428       0.00409955       0.00761885      -0.00004211
C        1.80445685      -0.08656553      -0.72980108      -0.13436764       0.00461907       0.00023380      -0.00062218
C        2.79590753       1.03534091      -0.97857812      -0.10187363       0.00271914       0.00027217      -0.00070683
S        4.46908077       0.45291883      -1.32640145      -0.21049817      -0.00420781       0.00086714      -0.00442670
C        5.00201086       0.03761070       0.34851237      -0.20196246      -0.00353144      -0.00057058      -0.00380133
C       -2.65682041      -1.53402330       0.11269897      -0.15632756      -0.00174386      -0.00139010      -0.00361689
H       -4.58275999      -2.40290429       0.43767724       0.13450955       0.00837197       0.00346889      -0.00035425
H       -5.70892901      -0.21824797       0.73675827       0.13601205       0.00622414      -0.00103060       0.00262327
H       -1.96515692       1.77525997       0.11093997       0.13547252       0.00237455      -0.00177775       0.00013959
H       -0.21344953      -1.45523416      -0.29098588       0.26199263       0.00555597       0.00153368       0.00009336
H        1.76035606      -0.75190170      -1.59345865       0.07676785      -0.00502953      -0.00078898       0.00210482
H        2.10660721      -0.70377146       0.11850810       0.06873631       0.00172916      -0.00163249       0.00128945
H        2.80952725       1.71720981      -0.13250142       0.09904818       0.00224486      -0.00429789       0.00145591
H        2.48161987       1.61486737      -1.84075019       0.11214242      -0.00291401      -0.00121282       0.00162810
H        6.05530802      -0.22379951       0.28872940       0.11595568       0.00083727      -0.00069092       0.00492255
H        4.45515181      -0.81081997       0.75187609       0.08830402      -0.00781506      -0.00320748      -0.00102441
H        4.88770488       0.89118335       1.01227457       0.09381569      -0.00134353       0.00107617       0.00337428
H       -2.16341139      -2.48831170      -0.02129151       0.12717018       0.00384900       0.00055004       0.00277638
