38
Properties=species:S:1:pos:R:3:charge:R:1:forces:R:3 energy=-30722.42316291844 pbc="F F F"
C        4.75756182       1.30007148      -0.35500558      -0.14110419      -0.00302589      -0.00249485       0.00230078
C        3.37741033       1.19151046      -0.27398150      -0.11252849      -0.00213060      -0.00254611      -0.00000272
C        2.77830266      -0.04483088      -0.49916368       0.16663238      -0.00367394       0.00041925      -0.00231029
N        1.38757176      -0.26256390      -0.41583744      -0.34923676      -0.00171509       0.00209821      -0.00020002
C        0.38446928       0.66113664      -0.47474269       0.41447148      -0.00231133      -0.00422450      -0.00587254
O        0.57540379       1.85669132      -0.54958590      -0.42465475       0.00801630       0.00048264      -0.00390358
C       -1.02233028       0.08517811      -0.50568487      -0.08388619      -0.00003068      -0.00183535      -0.00218456
C       -1.18449421      -1.30184345       0.12913505      -0.02998563       0.00107255      -0.00227977      -0.00417620
N       -2.56231604      -1.54844759       0.51294219      -0.24112000       0.00264330       0.00382874       0.00444504
C       -2.79900319      -2.95365461       0.73986727      -0.14630981      -0.00483938       0.00089835       0.00063769
C       -3.50773156      -0.93696900      -0.39279351      -0.05517388       0.00132976      -0.00018548       0.00208571
C       -3.44870551       0.58722345      -0.24538291      -0.14452039       0.00575310       0.00295346       0.00120849
C       -2.02581943       1.07871394       0.06603849      -0.05327311       0.00690953       0.00037714       0.00551844
S       -1.73938220       1.37550078       1.84635813      -0.17462972      -0.00409844       0.00053658       0.00174848
C       -1.22441923       3.10236175       1.83222371      -0.20782839       0.00327659      -0.00026258      -0.00157215
C        3.57325882      -1.14932446      -0.79759269      -0.14557642      -0.00121947      -0.00035212       0.00213946
C        4.94829780      -1.02561760      -0.87917821      -0.14846227       0.00120683       0.00117035       0.00136420
H        5.54901167      -1.89136795      -1.11850003       0.13215789       0.00612585       0.00324266       0.00631117
C        5.55046848       0.20332449      -0.65566913      -0.16323084       0.00191506       0.00334405      -0.00453700
H        6.62409107       0.30345726      -0.71606965       0.13325426       0.00349099       0.00465005      -0.00163802
H        5.21566288       2.26321341      -0.18037932       0.13064751      -0.00512200      -0.00250452       0.00287218
H        2.76666620       2.04466652      -0.03927912       0.12857880       0.00059303      -0.00103949      -0.00083872
H        1.11492717      -1.22545272      -0.37175424       0.24021009       0.00203342       0.00307670      -0.00365105
H       -1.24829065       0.00182592      -1.57418732       0.09257448       0.00051153       0.00100821      -0.00243074
H       -0.57207171      -1.37121705       1.03235591       0.08233945      -0.00596154       0.00147272      -0.00140870
H       -0.83414535      -2.07329156      -0.57649364       0.05763251       0.00168161      -0.00252638      -0.00401596
H       -2.07442931      -3.34160944       1.45450923       0.07732088      -0.00362839       0.00238724      -0.00072972
H       -2.72526066      -3.54926372      -0.18196230       0.06362397       0.00105912       0.00012289      -0.00377266
H       -3.79328113      -3.08662448       1.15728792       0.08195734      -0.00722981       0.00281077       0.00302567
H       -4.50789132      -1.29530579      -0.15324674       0.08374365      -0.00290834      -0.00380492       0.00431187
H       -3.31012318      -1.23598093      -1.43759595       0.05805141       0.00155033      -0.00493210      -0.00124188
H       -4.11925203       0.90973156       0.54736618       0.08465789      -0.00036397      -0.00398442       0.00198164
H       -3.79341653       1.04522315      -1.17389691       0.07241509      -0.00579028       0.00178919       0.00124358
H       -1.85368094       2.03570639      -0.41287616       0.10226089       0.00015850      -0.00290404      -0.00280203
H       -1.03966162       3.36233121       2.87098059       0.11623553      -0.00055552       0.00120331       0.00144419
H       -2.01273000       3.74279419       1.44302152       0.09022018      -0.00449264      -0.00013091       0.00173035
H       -0.31713294       3.22731204       1.25085278       0.09068877       0.00926355      -0.00003880       0.00271271
H        3.10841973      -2.11181122      -0.97384261       0.12184636       0.00050659      -0.00182651       0.00020769
