32
Properties=species:S:1:pos:R:3:charge:R:1:forces:R:3 energy=-18781.841612758573 pbc="F F F"
C        1.36944231      -0.51799110      -0.54027672      -0.16243765      -0.00272675      -0.00419202       0.00476506
C        0.90829215       0.05216054       0.56805887      -0.00462449      -0.00065681       0.00549036      -0.00030718
C       -0.54982886       0.06200541       0.91518206       0.41886529       0.00210932       0.00316474       0.00174328
O       -0.92108678       0.16655831       2.06707807      -0.45834759       0.00645582       0.00162912      -0.00713686
N       -1.40399204      -0.03668882      -0.15778520      -0.33693573       0.00233289      -0.00072873       0.00344348
C       -2.80994573      -0.05269172      -0.15981860       0.14852092       0.00048404      -0.00483990      -0.00005370
C       -3.56837092      -0.30602077       0.98022466      -0.11699096      -0.00394899       0.00265580      -0.00394987
C       -4.95116802      -0.32951349       0.87965934      -0.14071652      -0.00471669      -0.00248409      -0.00269014
C       -5.59110257      -0.10703565      -0.32966623      -0.16025798      -0.00076076      -0.00491274      -0.00382141
H       -6.66944026      -0.12770656      -0.39108608       0.13465659       0.00156391       0.00266056       0.00337081
C       -4.82925947       0.14098027      -1.46234370      -0.14563246       0.00105343      -0.00780048      -0.00082619
H       -5.31017028       0.31549449      -2.41455136       0.13323306       0.00108671      -0.00013282       0.00612102
C       -3.44877429       0.16443165      -1.37922316      -0.15749675      -0.00123505       0.00512783       0.00555271
C        1.83696106       0.67820855       1.56701760      -0.12723215      -0.00296306       0.00011860      -0.00145319
C        3.27268868       0.25003976       1.30688974      -0.05933965      -0.00332226      -0.00001959       0.00338269
N        3.59883297       0.39824693      -0.10048052      -0.25328618       0.00100549       0.00468070       0.00123356
C        5.01545456       0.24515406      -0.34795377      -0.15055700       0.00318543       0.00288572       0.00033452
C        2.82145618      -0.52302504      -0.90834254      -0.01287984      -0.00091838       0.00047583       0.00268318
H        0.70638143      -1.05641490      -1.20734811       0.11212360      -0.00211580       0.00032108       0.00137710
H       -0.98367793       0.11436714      -1.05412773       0.23941322       0.00132429       0.00691291      -0.00199805
H       -3.07475855      -0.47343014       1.92110875       0.13584872      -0.00040003       0.00363606      -0.00347365
H       -5.53570717      -0.52366079       1.76765792       0.13184261       0.00278899       0.00051217      -0.00259458
H       -2.85616074       0.35486281      -2.26565749       0.12554221      -0.00173405       0.00153587       0.00179612
H        1.76032681       1.76521017       1.49423837       0.09460930      -0.00417566      -0.00081938      -0.00074619
H        1.52828395       0.40437878       2.57184625       0.08293401       0.00143246      -0.00089898       0.00075063
H        3.41185505      -0.79288725       1.63564716       0.07323124       0.00428193      -0.00260194      -0.00204431
H        3.95096030       0.86722872       1.89191436       0.08153240      -0.00317314       0.00035169      -0.00164020
H        5.40469124      -0.73729038      -0.04123953       0.06399963       0.00296056      -0.00388449      -0.00387620
H        5.21823523       0.37464187      -1.40884842       0.08233801      -0.00567044      -0.00265504      -0.00465721
H        5.56030612       1.00973662       0.19874686       0.08184680       0.00163685      -0.00048210       0.00735508
H        3.19991965      -1.55472062      -0.81523701       0.06628730       0.00129384      -0.00335763      -0.00514604
H        2.93177298      -0.25098687      -1.95941606       0.07991010       0.00352276      -0.00234922       0.00250670
