61
Properties=species:S:1:pos:R:3:charge:R:1:forces:R:3 energy=-64000.0550884212 pbc="F F F"
F        2.96412642      -2.81093743      -3.89737376      -0.15042007       0.00152897      -0.00111144      -0.00455879
C        3.17901638      -2.38329595      -2.63929336       0.12720495       0.00635678      -0.00101329      -0.00255649
C        3.28910617      -1.03287654      -2.37845065      -0.01306576      -0.00728348      -0.00247096      -0.00001418
Cl       3.12949078       0.13177910      -3.65394002      -0.09536657      -0.00367323      -0.00312826       0.00214856
C        3.50796082      -0.60739149      -1.08163720      -0.09774145       0.00050187       0.00074543      -0.00090194
C        3.63801602      -1.53863237      -0.06341568       0.13411999       0.00148113       0.00213699       0.00080222
N        3.92429880      -1.14567667       1.27149008      -0.36425221      -0.00307855      -0.00147960       0.00434991
C        3.46169220      -0.02132041       1.89662753       0.14812888       0.00543435       0.00758806      -0.00288765
C        4.24380864       0.65501815       2.83736660      -0.02607288       0.00313609       0.00061352       0.00182016
C        5.50502744       0.13368531       3.24572270       0.23702818       0.00426918      -0.00198397      -0.00859799
N        6.51606962      -0.32909059       3.54907359      -0.47189546       0.00195216      -0.00396207       0.00356393
C        3.77299353       1.87446566       3.36991777       0.03177074      -0.00142692      -0.00067363       0.00063607
N        2.64018744       2.43519419       3.06173034      -0.44244555       0.00058319       0.00301308      -0.00038955
C        1.82978584       1.75972406       2.19232638       0.21184546       0.00038013       0.00019907       0.00092179
C        2.15123248       0.49980434       1.64835855       0.01696692      -0.00113955      -0.00249475       0.00497790
C        1.17003624      -0.21642056       0.92204690      -0.11740613       0.00037069      -0.00225458      -0.00319706
C        0.00483933       0.37966254       0.49618087       0.04839216      -0.00159846      -0.00360812      -0.00290784
N       -0.88725045      -0.20601122      -0.33941439      -0.29923373      -0.00328768      -0.00398260      -0.00081161
C       -0.67613999      -1.45849434      -0.99708046       0.28020325      -0.00109546       0.00277226      -0.00640830
C       -1.81090478      -2.12830510      -1.44485126      -0.50878209       0.00050110      -0.00036506       0.00106100
C       -3.20691573      -2.08478426      -0.93183233      -0.02984813       0.00101449       0.00147863      -0.00266984
C       -3.81460832      -0.76934840      -0.43002235      -0.03073911      -0.00182384      -0.00268444       0.00229583
N       -3.54788687       0.39190587      -1.28675228      -0.24815817      -0.00323144      -0.00251808       0.00640247
C       -3.84234407       0.12622745      -2.68495245      -0.12735657       0.00097045       0.00023004       0.00715027
C       -4.30255664       1.53571221      -0.81076506      -0.13120377       0.00090563       0.00194215      -0.00093108
O        0.50841795      -1.84636113      -1.14010178      -0.37432182      -0.00139094       0.00054376       0.00325118
C       -0.26308073       1.70858924       0.96520345       0.11879750       0.00003663      -0.00104690      -0.00361811
O       -1.44311824       2.23788235       0.52065304      -0.22657742      -0.00221733      -0.00027156       0.00039297
C       -1.59895580       3.64995447       0.55795739       0.00085491       0.00069481       0.00077048      -0.00111045
C       -0.72154596       4.36654044      -0.45548437      -0.21397708      -0.00283433       0.00247286      -0.00051840
C        0.60348702       2.34575628       1.80688771      -0.20935355      -0.00185724      -0.00157226       0.00179753
C        3.52302553      -2.89188578      -0.33528690      -0.16565560      -0.00443799       0.00263107       0.00349300
C        3.29277806      -3.31432160      -1.62887836      -0.17058280       0.00578849       0.00082059      -0.00075773
H        3.54210907       0.45343584      -0.87945467       0.12470929       0.00326907       0.00127087       0.00060868
H        4.71059073      -1.59748169       1.69901579       0.27098605      -0.00218348       0.00136106       0.00322263
H        4.40680765       2.39248579       4.07907316       0.08176314      -0.00145803      -0.00218484      -0.00286544
H        1.31474972      -1.24116619       0.62224474       0.13854750      -0.00171092      -0.00529543       0.00243086
H       -1.73325764       0.28814736      -0.60196862       0.24702325      -0.00041552       0.00052146       0.00191397
H       -1.58814937      -3.02288809      -2.00992757       0.10450878       0.00074719       0.00198299       0.00166126
H       -3.86181795      -2.45331010      -1.72235596       0.09509750       0.00105761      -0.00140671      -0.00118679
H       -3.43116229      -0.53678440       0.56636943       0.07327812       0.00397184       0.00218093      -0.00326423
H       -4.90111403      -0.90742756      -0.32981489       0.05933996      -0.00137866       0.00319111      -0.00346250
H       -4.89313414      -0.16925722      -2.83743483       0.05515808       0.00339797      -0.00125532      -0.00338101
H       -3.19466280      -0.66486887      -3.04405621       0.06753343      -0.00349426       0.00119578      -0.00226472
H       -3.65427300       1.02713257      -3.26631518       0.07576534      -0.00028085      -0.00166067       0.00316434
H       -5.38707531       1.37067633      -0.88020955       0.06542191       0.00176273      -0.00087496       0.00004425
H       -4.05569287       2.41490515      -1.40731327       0.07068779       0.00149505       0.00354302      -0.00129167
H       -4.04889963       1.73531581       0.23039977       0.06297485       0.00420811       0.00260560      -0.00300506
H       -1.43335244       4.02631823       1.57030501       0.06778339      -0.00290513      -0.00444604      -0.00009342
H       -2.64836168       3.82183376       0.32391080       0.06521590       0.00237600      -0.00181612      -0.00072741
H       -0.91693372       5.43776678      -0.42902365       0.07552008      -0.00029961       0.00249389       0.00000868
H        0.33211110       4.19177728      -0.24999597       0.06455878      -0.00592387      -0.00071274      -0.00185248
H       -0.93943273       3.99572999      -1.45524505       0.07289091       0.00166647      -0.00302932       0.00184934
H        0.38633082       3.32563702       2.19983212       0.11754349       0.00192032       0.00006401       0.00522589
H        3.58215987      -3.60751179       0.47063111       0.12652357      -0.00201445       0.00168062       0.00511220
H        3.17045797      -4.36059762      -1.86406558       0.14560011      -0.00058924       0.00314992      -0.00405755
S       -3.56804741      -3.36453362       0.38344091      -0.25630176      -0.00158805      -0.00372900       0.00280852
C       -2.18059778      -3.05924941       1.49216109      -0.18587479      -0.00000429       0.00121097       0.00007015
H       -2.07773174      -1.99713272       1.69879536       0.06915908      -0.00007625       0.00542612      -0.00182943
H       -2.37897640      -3.58962644       2.42268151       0.11328512       0.00290418       0.00211666       0.00026436
H       -1.25724702      -3.42152829       1.05338916       0.09044410       0.00001556       0.00107967      -0.00133160
