75
Properties=species:S:1:pos:R:3:charge:R:1:forces:R:3 energy=-71160.48268500846 pbc="F F F"
C       -8.45973599       3.60864187       0.57254065       0.06327403       0.00469470      -0.00165112       0.00269353
N       -8.48110002       2.33049980       0.94187145      -0.38128105      -0.00079877       0.00186477       0.00068511
C       -8.18122861       1.41537648       0.02374131       0.20252720      -0.00383759       0.00328786      -0.00143771
C       -8.22313121      -0.01653962       0.50287119      -0.01909938       0.00110802       0.00230430      -0.00146019
O       -7.47992808      -0.88718663      -0.33631473      -0.20986299       0.00056743      -0.00166655       0.00282459
C       -6.13181488      -0.89721899      -0.22359659       0.14319135       0.00079492       0.00559722      -0.00393447
C       -5.40746397      -0.01370924       0.56613515      -0.13902827      -0.00321026       0.00323003      -0.00191602
C       -4.03045043      -0.12750215       0.64856617      -0.12664349      -0.00196327      -0.00201522      -0.00048302
C       -3.36039706      -1.11074133      -0.05687164       0.11900856      -0.00003401      -0.00192472       0.00229793
N       -1.95748320      -1.23869977       0.05711089      -0.37910077       0.00046017      -0.00170725       0.00068748
C       -1.30665275      -1.70623566       1.16846962       0.12416589       0.00029305      -0.00076454       0.00308811
C       -1.90079106      -2.39638892       2.22040694      -0.00810126       0.00115131      -0.00056011       0.00424315
C       -3.29207855      -2.74081763       2.26364288       0.25548223       0.00273118       0.00373507       0.00239259
N       -4.39893241      -3.04149057       2.34184213      -0.37842631      -0.00124807       0.00101981       0.00063895
C       -1.08436742      -2.87302892       3.27411007       0.06427927       0.00235243      -0.00120858      -0.00023264
N        0.20312525      -2.72850858       3.34945354      -0.39993706       0.00151271       0.00284486      -0.00403432
C        0.80847371      -2.04499305       2.33203733       0.21481781       0.00146507      -0.00128992      -0.00291229
C        2.20963659      -1.89479723       2.37758630      -0.19365814      -0.00002764       0.00020154       0.00360111
C        2.88235639      -1.18730715       1.41829803       0.15411423      -0.00060095      -0.00027563       0.00124520
O        4.20919340      -0.94414041       1.44289340      -0.20360750      -0.00066296       0.00037160       0.00441391
C        5.07643944      -1.85773432       2.10955524      -0.00042644       0.00105143      -0.00399230       0.00035844
C        5.10569168      -3.22008941       1.44417680      -0.20737016       0.00296303      -0.00280883       0.00230267
C        2.17388704      -0.59987617       0.33256501       0.06132128      -0.00259303      -0.00046294       0.00111722
N        2.90046167       0.08145500      -0.67399959      -0.33508459       0.00374318      -0.00441111      -0.00108328
C        3.66246322      -0.57679765      -1.58219989       0.41024241      -0.00175944      -0.00061646      -0.00051193
O        3.74083890      -1.79034554      -1.63377228      -0.42640531       0.00120554       0.00751480       0.00235108
C        4.37044750       0.32879773      -2.58679227      -0.13542889       0.00163999       0.00079889      -0.00062287
C        5.59872785       1.10342945      -2.07190135      -0.07336393       0.00222724      -0.00220185       0.00080535
S        6.59866695       0.17779096      -0.86547187      -0.15936728       0.00014091      -0.00174638      -0.00109083
C        7.01993703      -1.25444293      -1.88080797      -0.18613267      -0.00151053       0.00349495      -0.00245907
C        5.26646475       2.52689510      -1.60127885      -0.03999827       0.00195334      -0.00190463      -0.00189730
N        4.14889956       2.63039489      -0.65804093      -0.23233952      -0.00106357      -0.00065168      -0.00290979
C        4.56643256       2.34680036       0.71496881      -0.12465461      -0.00105680       0.00086380      -0.00133520
C        3.53465935       3.95199232      -0.73381016      -0.12917270       0.00104733      -0.00083731      -0.00097975
C        0.81968294      -0.73495577       0.28786710      -0.16934149      -0.00282946       0.00414492       0.00226354
C        0.10449555      -1.49080035       1.25233502       0.02071543      -0.00053968      -0.00231611       0.00069845
C       -4.07068840      -1.96796103      -0.88376422      -0.13372250       0.00135271       0.00151370      -0.00112681
C       -5.44287655      -1.85924101      -0.96798332      -0.04665970       0.00157571       0.00278958       0.00495169
Cl      -6.32745312      -2.93412248      -1.99315074      -0.05324024      -0.00075053       0.00331635       0.00177057
C       -7.85481186       1.73221067      -1.28728232      -0.12893194      -0.00174933       0.00216284      -0.00056806
C       -7.84075757       3.06500093      -1.65935898      -0.10908493      -0.00065984       0.00162079       0.00383938
C       -8.14528281       4.02742472      -0.70933536      -0.14175023      -0.00212808      -0.00174143       0.00437586
H       -8.70758608       4.32931437       1.34109222       0.09923930       0.00225150      -0.00210312      -0.00161150
H       -7.86986968      -0.07276540       1.53107535       0.08071776       0.00266511      -0.00116188      -0.00271392
H       -9.24666265      -0.38303255       0.48223663       0.09652858       0.00017878       0.00492840      -0.00295428
H       -5.91356941       0.76937372       1.10586851       0.12416361      -0.00019349       0.00342158      -0.00130450
H       -3.47828841       0.55826946       1.27227102       0.12605222       0.00013304      -0.00351927      -0.00296678
H       -1.43898576      -1.31945918      -0.79914293       0.27103260       0.00015374      -0.00317816      -0.00215966
H       -1.56486090      -3.41010668       4.08270200       0.09776864      -0.00347026       0.00015018      -0.00324318
H        2.72886392      -2.36244572       3.19549724       0.12828772       0.00154930       0.00001214      -0.00160613
H        4.80975816      -1.92912895       3.16566988       0.07622562      -0.00555461       0.00482127       0.00073422
H        6.05597077      -1.38914640       2.05195340       0.07942279      -0.00223187       0.00140238      -0.00125006
H        5.37387583      -3.11134691       0.39618264       0.07652371      -0.00046568       0.00076523       0.00391586
H        5.84449760      -3.85120114       1.93516057       0.08324218      -0.00009650       0.00087113      -0.00115306
H        4.13801767      -3.71487958       1.50120593       0.06826042       0.00247974       0.00003650      -0.00162875
H        3.07883932       1.08591119      -0.63053955       0.23881288       0.00471994       0.00482276       0.00222131
H        3.66157960       1.06227190      -2.97897242       0.07585827       0.00254824      -0.00196742      -0.00348645
H        4.67860607      -0.31613390      -3.40347567       0.08018324      -0.00274114       0.00131685       0.00077709
H        6.26288508       1.23171547      -2.92690233       0.09344450      -0.00176080       0.00242090      -0.00147556
H        7.79223502      -1.79683727      -1.34217077       0.11920033      -0.00696628      -0.00142361      -0.00302298
H        7.41849620      -0.94554960      -2.84494177       0.08961841       0.00024533       0.00003190      -0.00142828
H        6.15298986      -1.89529535      -2.01084093       0.08647005      -0.00001500      -0.00296965      -0.00127268
H        6.15812647       2.99418823      -1.17541789       0.07282881      -0.00129522      -0.00030205       0.00210658
H        5.00614416       3.08966751      -2.50073601       0.08162694      -0.00338240       0.00456867       0.00529033
H        5.24264986       3.12444778       1.09305433       0.07985879      -0.00259987      -0.00020819       0.00080487
H        5.07070672       1.38546344       0.75451296       0.06152501      -0.00429658       0.00028074       0.00044093
H        3.68977011       2.30361763       1.36209972       0.07330037       0.00351420      -0.00243322       0.00208542
H        4.24745481       4.74726192      -0.48458684       0.07132189       0.00078680      -0.00594438       0.00154736
H        3.16460261       4.12480846      -1.74097137       0.07889500      -0.00145707      -0.00355270      -0.00129229
H        2.70028474       4.00976794      -0.03758088       0.08249060       0.00082262       0.00074169       0.00032825
H        0.27640028      -0.21907745      -0.49307873       0.11451204      -0.00280717       0.00346303      -0.00255047
H       -3.57274199      -2.74783289      -1.44050847       0.13450603       0.00490342      -0.00272978      -0.00397023
H       -7.60362524       0.94611332      -1.98205967       0.12639311       0.00481344      -0.00321089      -0.00135506
H       -7.59164070       3.34664765      -2.67281934       0.13452521       0.00241045      -0.00668080       0.00093983
H       -8.14288584       5.07815717      -0.95375445       0.13524540      -0.00185031      -0.00859451      -0.00139419
