39
Properties=species:S:1:pos:R:3:charge:R:1:forces:R:3 energy=-26952.834078461558 pbc="F F F"
O        2.92242030       0.21975333      -2.19687305      -0.43323454       0.00076757      -0.00086951       0.00059291
C        3.93471938       0.65852440      -1.68603043       0.45494777      -0.00313286      -0.00003862      -0.00237304
C        5.22398772       0.76304973      -2.43178128      -0.14651926       0.00077716      -0.00221900      -0.00259244
C        5.30700304       0.36835816      -3.69329751      -0.27737132      -0.00391051       0.00097534      -0.00523913
N        4.00259851       1.09810487      -0.39251401      -0.35460797       0.00169414      -0.00487497       0.00338596
C        2.98629362       1.12568786       0.58838084       0.09600529      -0.00675566       0.00173705       0.00066265
C        1.71162114       0.66098685       0.38812336      -0.14741029      -0.00459850      -0.00402654       0.00324251
C        0.75932423       0.73397842       1.43150315       0.04609411      -0.00223646      -0.00574623      -0.00014719
C        1.12162187       1.26600687       2.67848681       0.21961583      -0.00249146      -0.00099633      -0.00345553
C        2.44427659       1.73390896       2.85707925      -0.15871443      -0.00380893       0.00448830       0.00153822
C        3.34928147       1.66762206       1.84054796      -0.16251597      -0.00450094      -0.00216682       0.00304961
N        0.24158366       1.34543430       3.72512413      -0.42716125       0.00275854       0.00087493      -0.00436765
C       -0.95111475       0.89183652       3.48966392       0.23447257       0.00331274      -0.00067948      -0.00034368
N       -1.42793887       0.35615108       2.34386820      -0.38271180       0.00442567       0.00131043       0.00268602
C       -0.61083905       0.28169955       1.32180429       0.31907588       0.00068455       0.00082378       0.00111384
N       -1.02917754      -0.22022776       0.12069750      -0.32766187      -0.00123023       0.00478706       0.00387035
C       -2.26343779      -0.77598903      -0.27522495       0.08445594       0.00239423       0.00277478       0.00108267
C       -2.39380542      -1.10959160      -1.62220635      -0.17538743       0.00110899       0.00162060       0.00116037
C       -3.57554526      -1.66608945      -2.07297906      -0.15586600       0.00213184       0.00104407      -0.00058894
C       -4.62639593      -1.89347637      -1.19790618      -0.16589579       0.00214307       0.00145915       0.00078014
C       -4.50200892      -1.56563098       0.14443743       0.04818010      -0.00088867       0.00034348       0.00085431
C       -5.64891254      -1.77784808       1.09826512      -0.21854718      -0.00136195      -0.00043741       0.00029105
C       -3.31135538      -1.00762878       0.60098237      -0.13948332       0.00142946      -0.00288787       0.00023424
H        6.08780659       1.16680055      -1.91676650       0.12186237      -0.00156973       0.00061431       0.00031002
H        6.23421534       0.43749595      -4.24502896       0.14661488      -0.00186122      -0.00142173      -0.00174384
H        4.44067409      -0.03394669      -4.20003981       0.15973721      -0.00502635      -0.00174623      -0.00100899
H        4.88803450       1.45430666      -0.08262852       0.27167773       0.00132707      -0.00133241       0.00193453
H        1.47688300       0.23588756      -0.57005548       0.13050845       0.00912228       0.00183002      -0.00042326
H        2.70548864       2.14063843       3.82084002       0.12714767       0.00067339       0.00422771       0.00270664
H        4.35759634       2.03132244       1.99130048       0.13414964      -0.00407629       0.00025951       0.00013712
H       -1.66507502       0.94145842       4.30253833       0.06025996      -0.00003502      -0.00291421      -0.00293064
H       -0.37625286      -0.14638535      -0.63252101       0.25267577       0.00227350      -0.00212669       0.00649969
H       -1.57387303      -0.93282363      -2.30713431       0.13549495       0.00241581       0.00081016      -0.00038846
H       -3.67877270      -1.92543957      -3.11606493       0.13796844       0.00411523       0.00165797      -0.00626614
H       -5.54562678      -2.33066701      -1.56134913       0.13290948       0.00442851       0.00170318      -0.00510083
H       -6.29476391      -2.58513065       0.76034537       0.08069058       0.00061984      -0.00522342       0.00506110
H       -6.25520328      -0.87493157       1.16881122       0.08170298       0.00006834       0.00011860       0.00136825
H       -5.29462216      -2.01250995       2.10009370       0.07571342       0.00294751       0.00423851      -0.00131626
H       -3.17667269      -0.74488510       1.63473850       0.12112751      -0.00413439       0.00200813      -0.00427405
