29
Properties=species:S:1:pos:R:3:forces:R:3 charge=-1 spin=1 energy=-172.27854919433594 free_energy=-172.27854919433594 stress="0.0 0.0 0.0 0.0 0.0 0.0 0.0 0.0 0.0" pbc="F F F"
O       -1.02730611       2.36524796       0.05556731      -0.00148463       0.00102335       0.00265498
C       -1.57952630       1.36303456       0.55573273       0.00284278       0.00053537       0.00066784
C       -2.86253040       1.34840395       1.14889947      -0.00268489       0.00029770      -0.00150958
C       -3.47436911       0.21513414       1.86392736      -0.00009173       0.00073698       0.00401229
N       -0.92647926       0.09140005       0.54019090      -0.00391123      -0.00019131      -0.00011352
C        0.36758862      -0.15713117       0.15076918      -0.00400217       0.00349615      -0.00223894
C        1.34222182       0.86219427       0.04745893       0.00372298      -0.00126946       0.00218992
C        2.64679994       0.55447482      -0.31138890       0.00744125       0.00274229       0.00137521
C        3.03600003      -0.77444705      -0.57339149      -0.00118865      -0.00107944       0.00064933
S        4.64355147      -1.27106672      -1.02856603      -0.00235566       0.00049030       0.00463900
C        5.59567133       0.25593422      -0.98524779      -0.00000656      -0.00187086       0.00115990
C        2.06297705      -1.79013675      -0.46747164      -0.00116506       0.00263703       0.00034598
C        0.76078711      -1.49448028      -0.11759779       0.00335072      -0.00122485      -0.00352031
H       -3.40152962       2.29266141       1.08515947       0.00167988       0.00071940      -0.00166138
H       -4.42568098       0.50540218       2.32766536       0.00113836      -0.00361325      -0.00106290
H       -2.82152314      -0.21802873       2.63956062       0.00039193       0.00056028      -0.00127968
H       -1.56774328      -0.71155119       0.63816212      -0.00125655       0.00209299       0.00300487
H        1.02398524       1.89054532       0.23490489      -0.00323457      -0.00011468       0.00176397
H        3.36742055       1.36802494      -0.39179025      -0.00052658       0.00275248      -0.00183360
H        5.23885675       0.98860450      -1.72162271      -0.00245605      -0.00433215      -0.00172634
H        6.62205244      -0.02996733      -1.24601366       0.00217071      -0.00215188      -0.00208540
H        5.60237090       0.70748946       0.01616247      -0.00065486      -0.00034379      -0.00179119
H        2.36126256      -2.82189247      -0.67213011      -0.00043195       0.00191772      -0.00220533
H        0.01090314      -2.28496803      -0.04737534      -0.00225100       0.00270066       0.00056581
S       -3.81281675      -1.33554457       0.84872079       0.00216122      -0.00156619      -0.00231663
C       -4.57654458      -0.58975269      -0.59996537       0.00399115      -0.00002725      -0.00250858
H       -3.88223591       0.09753564      -1.09938343      -0.00315920      -0.00494613       0.00159030
H       -4.84365367      -1.40813549      -1.27968609       0.00268418       0.00213952       0.00490664
H       -5.48907294      -0.04580932      -0.32598082      -0.00071391      -0.00211111      -0.00367286
