34
Properties=species:S:1:pos:R:3:forces:R:3 charge=0 spin=1 energy=-201.43780517578125 free_energy=-201.43780517578125 stress="0.0 0.0 0.0 0.0 0.0 0.0 0.0 0.0 0.0" pbc="F F F"
C       -1.94285246       2.02861126       1.43193525      -0.00126738      -0.00252703      -0.00334457
C       -0.69591012       1.43122717       1.24016059      -0.00193721       0.00334033       0.00196907
C       -0.59726928       0.35977291       0.34335684      -0.00086506       0.00162575      -0.00186431
N        0.61546305      -0.31717350       0.08762701       0.00215381       0.00018914       0.00296810
C        1.86928924      -0.05622825       0.60296453       0.00565949       0.00164840      -0.00241357
O        2.11570509       0.84545814       1.40432841      -0.00343746      -0.00085698      -0.00086412
C        2.94552707      -1.00515902       0.07768458       0.00058770      -0.00071245      -0.00370300
C        4.30454061      -0.67260472       0.65746776      -0.00437216      -0.00190181       0.00591132
S        5.53569214      -1.82282827      -0.00042199       0.00589841      -0.00052854       0.00003513
C        7.02894732      -1.21662838       0.80451791      -0.00094688       0.00017007      -0.00137297
C       -1.73187748      -0.09363567      -0.34447466      -0.00156613       0.00345769       0.00486356
C       -2.98332840       0.51747303      -0.15601980       0.00202446      -0.00031752      -0.00138868
N       -4.10969219       0.02366697      -0.82969474      -0.00373651      -0.00029361      -0.00007431
C       -5.43098956       0.45337547      -0.41345765       0.00360438      -0.00841828      -0.00081991
C       -4.01674294      -0.36556984      -2.23007867      -0.00270781       0.00031453      -0.00279318
C       -3.07711205       1.58998685       0.74986737       0.00134926      -0.00048870      -0.00060511
H       -2.03027913       2.86634699       2.12590947      -0.00109516       0.00585726       0.00242952
H        0.19456398       1.77217772       1.76927148       0.00080451       0.00262351      -0.00100060
H        0.55554509      -1.08394345      -0.57549641      -0.00115927      -0.00084489      -0.00238533
H        2.95871796      -0.94347471      -1.02356697      -0.00050389      -0.00080742       0.00204641
H        2.65087263      -2.03906059       0.32519540       0.00149515      -0.00311846      -0.00076857
H        4.26752323      -0.73631676       1.75474452       0.00416867      -0.00196731       0.00192490
H        4.57655991       0.36229690       0.40417557       0.00026704       0.00241587      -0.00371419
H        7.85176275      -1.85908922       0.46733995      -0.00413764       0.00389987       0.00145738
H        7.25168546      -0.17922381       0.51837660       0.00038713      -0.00398993       0.00026243
H        6.95612491      -1.28270985       1.89907307      -0.00220303      -0.00287259      -0.00110832
H       -1.66959634      -0.98017686      -0.97696448      -0.00039144       0.00309364       0.00573034
H       -6.18121654      -0.21290863      -0.85856295      -0.00007012      -0.00068498      -0.00126096
H       -5.67399805       1.48562148      -0.72444862       0.00160152       0.00010599      -0.00103292
H       -5.52474134       0.39384929       0.67783767       0.00182804      -0.00291409       0.00000151
H       -2.97195205      -0.44843506      -2.54607899       0.00136253      -0.00189587       0.00089732
H       -4.50341224       0.37907429      -2.88265300       0.00091731       0.00345715       0.00097242
H       -4.51264925      -1.33201141      -2.40280216      -0.00384155       0.00002152      -0.00049666
H       -4.03186601       2.10033886       0.88803497       0.00012895       0.00291952      -0.00045827
