26
Properties=species:S:1:pos:R:3:forces:R:3 charge=0 spin=1 energy=-156.973388671875 free_energy=-156.973388671875 stress="0.0 0.0 0.0 0.0 0.0 0.0 0.0 0.0 0.0" pbc="F F F"
C       -4.34862795       0.56523125      -1.22601620      -0.00607547       0.00273103      -0.00133842
C       -4.84622224       0.32932257       0.05853986       0.00528780      -0.00398690       0.00468701
C       -3.95781137       0.04377707       1.09993510       0.00117803       0.00207642      -0.00212103
H       -4.33836408      -0.14172459       2.10700271      -0.00370210      -0.00246349       0.00357211
C       -2.57994364      -0.01004954       0.87678309      -0.00451513       0.00042590      -0.00551128
C       -2.08554529       0.22811780      -0.41465594      -0.00378475      -0.00022898      -0.00032504
N       -0.71244250       0.19716829      -0.73666173       0.00156330       0.00020709      -0.00153272
C        0.36099845      -0.04605111       0.09811530      -0.00025130       0.00189478      -0.00079244
O        0.25998532      -0.28562776       1.30160175       0.00024590       0.00016846       0.00409749
C        1.70910211       0.01050650      -0.61883996       0.00162571      -0.00017815       0.00136635
C        2.84975122      -0.27130086       0.33725232       0.00227938       0.00566073       0.00347288
S        4.42183713      -0.19284230      -0.55372526      -0.00618453       0.00105939       0.00547666
C        5.57557264      -0.55683804       0.78048610      -0.00324701      -0.00358415      -0.00135715
C       -2.97850276       0.51591832      -1.46265891       0.00491348      -0.00023609      -0.00110494
H       -5.03058286       0.78878569      -2.05007383       0.00246441       0.00053023      -0.00258011
H       -5.92377731       0.36793216       0.24705892      -0.00051931       0.00064823      -0.00278500
H       -1.87854793      -0.23202175       1.68169041       0.00010356       0.00121133       0.00303552
H       -0.48941219       0.38171654      -1.71151136       0.00425271      -0.00238844       0.00320661
H        1.69755361      -0.71740551      -1.44736010      -0.00390375       0.00065112      -0.00041132
H        1.81826182       1.00493752      -1.08328351      -0.00231018      -0.00108543      -0.00177285
H        2.71948186      -1.26420380       0.79193010       0.00148391       0.00235692      -0.00030248
H        2.83860216       0.46219804       1.15704188      -0.00017744      -0.00595092      -0.00416917
H        5.39470766      -1.55105186       1.21243317       0.00136881      -0.00273507      -0.00133216
H        6.58114765      -0.54096182       0.34329570       0.00862244       0.00131122      -0.00200900
H        5.52568908       0.19814267       1.57746176      -0.00006081       0.00334133      -0.00201043
H       -2.58787673       0.69961394      -2.46706993      -0.00065808      -0.00143672       0.00254101
