25
Properties=species:S:1:pos:R:3:forces:R:3 charge=-1 spin=1 energy=-152.03443908691406 free_energy=-152.03443908691406 stress="0.0 0.0 0.0 0.0 0.0 0.0 0.0 0.0 0.0" pbc="F F F"
O        0.23012907      -1.47335800       0.67590878       0.00261455       0.00125922      -0.00470605
C        0.63620320      -0.94484177      -0.38119949      -0.00164646       0.00305335       0.00502360
C        1.87661367      -1.28309181      -1.01172676       0.00096405      -0.00260043      -0.00070325
C        2.76229855      -2.27202880      -0.38298807      -0.00304499       0.00648040       0.00329943
N       -0.07022826       0.08586909      -1.02148931       0.00018889       0.00138634       0.00249715
C       -1.28699852       0.66621036      -0.64864146       0.00270092       0.00267207       0.00776953
C       -2.15748971       0.07950068       0.28814973      -0.00133747      -0.00307387       0.00085223
C       -3.36208930       0.71052049       0.59698360       0.00038239      -0.00004280      -0.00680906
C       -3.72104114       1.91728131      -0.01421842      -0.00622572      -0.00023605       0.00132535
C       -2.85882344       2.49757787      -0.94928312      -0.00070725      -0.00007877       0.00105610
C       -1.65212950       1.88121606      -1.26333875      -0.00234419       0.00016913      -0.00184976
H        2.17771678      -0.77537688      -1.93118943      -0.00043707      -0.00558458       0.00073110
H        2.25856742      -2.90226993       0.36180354       0.00013256       0.00306213      -0.00494602
H        3.33385444      -2.87472872      -1.09848375      -0.00203339      -0.00381362       0.00196137
H        0.38790022       0.50281059      -1.82785415      -0.00200615      -0.00054992       0.00076728
H       -1.85722849      -0.86036971       0.75638194       0.00170697      -0.00145322      -0.00589482
H       -4.03406072       0.24991138       1.32507765       0.00250560      -0.00065537       0.00076288
H       -4.66985292       2.40293069       0.23514820       0.00430307      -0.00402330      -0.00356282
H       -3.12704362       3.43802455      -1.43640906       0.00221527      -0.00039202       0.00059697
H       -0.97297272       2.33931513      -1.98658770      -0.00341542       0.00429129       0.00210504
S        4.00198641      -1.18497373       0.41743908       0.00001451      -0.00292273      -0.00082752
C        3.13774384      -0.64503910       1.89697978      -0.00456692      -0.00008681      -0.00144798
H        2.27410808      -0.00986533       1.66568066       0.00274646       0.00259949      -0.00172947
H        2.80637745      -1.49829096       2.50143305       0.00174015       0.00354109       0.00299720
H        3.87327356      -0.06451117       2.46807749       0.00554973      -0.00300124       0.00073159
