26
Properties=species:S:1:pos:R:3:forces:R:3 charge=0 spin=1 energy=-157.04312133789062 free_energy=-157.04312133789062 stress="0.0 0.0 0.0 0.0 0.0 0.0 0.0 0.0 0.0" pbc="F F F"
C       -3.65087163      -1.36172183      -0.01045803       0.00151658       0.00319831      -0.00620639
C       -3.85124240      -1.11739403      -1.37288766       0.00145909       0.00013965       0.00380477
C       -2.82253038      -0.54866265      -2.12930236      -0.00042637      -0.00144006      -0.00184888
H       -2.96508062      -0.35253687      -3.19474669      -0.00142278      -0.00394731       0.00021315
C       -1.60693880      -0.23174556      -1.53112345      -0.00150452      -0.00226959       0.00006202
C       -1.40552861      -0.47823336      -0.15942395      -0.00493975       0.00265905      -0.00677133
N       -0.16547298      -0.10512510       0.38879476      -0.00013116       0.00028438       0.00092253
C        0.35757312      -0.47239093       1.60970178       0.00175866       0.00254041      -0.00409749
O       -0.20981733      -1.19658695       2.42665417      -0.00028835      -0.00665290       0.00315580
C        1.74927929       0.11217482       1.86358155      -0.00176232      -0.00335898       0.00078791
C        2.78999188      -0.22739131       0.79263714      -0.00276393      -0.00163381      -0.00014517
S        2.71598249       0.74001139      -0.74955689      -0.00208671      -0.00189302       0.00048391
C        3.21031587       2.37110339      -0.15918254       0.00145837       0.00302477       0.00451973
C       -2.43881530      -1.04525536       0.60511675      -0.00388962      -0.00474811       0.00712439
H       -4.44805475      -1.80731883       0.58885109      -0.00210151       0.00025724       0.00029504
H       -4.80650889      -1.36849480      -1.84436539       0.00110376      -0.00148387      -0.00177352
H       -0.79568275       0.20419645      -2.11841325      -0.00269112       0.00283234       0.00123350
H        0.47720882       0.43368200      -0.21571120       0.00114200       0.00262006      -0.00175410
H        1.64559745       1.20351000       1.98124142       0.00077643      -0.00144920      -0.00019574
H        2.06148501      -0.29554330       2.83348914       0.00181457       0.00079871       0.00056806
H        2.68160620      -1.27521745       0.47545356       0.00398320       0.00602520       0.00084557
H        3.80080774      -0.12834309       1.21272625       0.00334579       0.00128207       0.00170106
H        3.19997266       3.03957744      -1.02793944       0.00457874      -0.00033559      -0.00184804
H        4.22695599       2.35535804       0.25407286      -0.00246856       0.00037664       0.00112321
H        2.51297494       2.76815300       0.58940102       0.00463591       0.00108976      -0.00326417
H       -2.26816958      -1.23251391       1.66629445      -0.00109626       0.00208406       0.00106445
