20
Properties=species:S:1:pos:R:3:forces:R:3 charge=0 spin=1 energy=-128.5680389404297 free_energy=-128.5680389404297 stress="0.0 0.0 0.0 0.0 0.0 0.0 0.0 0.0 0.0" pbc="F F F"
C        4.24075739      -0.25119434      -0.39610262      -0.00722650      -0.00130460      -0.00077994
C        3.00417472      -0.68002044      -0.65397298       0.00389162      -0.00154144       0.00254388
C        1.82571119       0.05820605      -0.10958248       0.00832088       0.00013036      -0.00063714
O        1.91201218       1.07582404       0.57787996      -0.00789382      -0.00121635       0.00239626
N        0.60969437      -0.52609912      -0.46340879       0.00481554      -0.00387998      -0.00439443
C       -0.69171128      -0.10795283      -0.14100429      -0.00665244      -0.00201712      -0.00432554
C       -0.96478577       1.02425830       0.64494844       0.00472557      -0.00281703      -0.00470835
C       -2.29252013       1.36580636       0.91176439      -0.00212990      -0.00028950       0.00111845
C       -3.34982711       0.60083471       0.40930034       0.00361048       0.00462994       0.00173588
C       -3.07464207      -0.52580346      -0.37077855      -0.00727123       0.00013092      -0.00195080
H       -3.88931951      -1.13363362      -0.77162969       0.00126082       0.00428057       0.00098796
C       -1.75716729      -0.87863424      -0.64419045      -0.00478473       0.00289480       0.00082100
H        4.39844380       0.63952563       0.21323839       0.00150177       0.00226131      -0.00068413
H        5.12028619      -0.77170986      -0.78027197      -0.00410923       0.00414658       0.00175473
H        2.80421507      -1.56677260      -1.26085470       0.00083713       0.00142995       0.00254634
H        0.67099936      -1.36126174      -1.04049747       0.00001430       0.00099250       0.00460178
H       -0.12963672       1.61238246       1.02877650       0.00314093      -0.00268801       0.00146364
H       -2.50115042       2.24808606       1.52107045       0.00455915      -0.00212115      -0.00209963
H       -4.38558632       0.88274530       0.62378296       0.00334477      -0.00186703      -0.00172400
H       -1.53884924      -1.75773211      -1.25581815       0.00004516      -0.00115462       0.00133400
