28
Properties=species:S:1:pos:R:3:forces:R:3 charge=0 spin=1 energy=-172.42153930664062 free_energy=-172.42153930664062 stress="0.0 0.0 0.0 0.0 0.0 0.0 0.0 0.0 0.0" pbc="F F F"
C       -3.72705857       0.28808928      -1.39294708       0.00646725      -0.00461140      -0.00266191
C       -4.46558746       0.92614428      -0.38420779       0.00403669       0.00703879       0.00094559
C       -3.82400316       1.36784734       0.76025607      -0.00343889      -0.00503574      -0.00009091
C       -2.44485193       1.17744770       0.91815318      -0.00020441       0.00308999      -0.00562701
N       -1.86045337       1.67419885       2.15895703      -0.00474812       0.00183113       0.00509140
O       -2.61666222       2.25275173       2.95054347       0.00128237      -0.00403725       0.00905118
O       -0.62762733       1.49997545       2.38669543       0.00289924      -0.00190381      -0.00194525
C       -1.67677070       0.52808415      -0.10075223      -0.00657454      -0.00400062      -0.00438243
N       -0.31331701       0.35184260       0.09715723       0.00499921      -0.00068763      -0.00393905
C        0.61803477      -0.17380359      -0.77693771      -0.00786471      -0.00483800      -0.00117451
O        0.35652462      -0.56304423      -1.91815796       0.00183837      -0.00232007      -0.00155090
C        2.02093133      -0.23009016      -0.18850152      -0.00027670       0.00304699      -0.00332588
C        3.03057483      -0.76920628      -1.18841565      -0.00135253       0.00012640       0.00599165
S        4.74227199      -0.73582431      -0.60526524      -0.00059227      -0.00374527      -0.00229275
C        4.72946520      -2.02832105       0.65143204      -0.00316067       0.00135961      -0.00537531
C       -2.35782077       0.09357087      -1.25200391       0.00142600       0.00006816      -0.00143802
H       -4.22375578      -0.06090646      -2.30088036      -0.00373790       0.00176059       0.00539127
H       -5.54315573       1.07828002      -0.49568072      -0.00382721       0.00591069      -0.00429463
H       -4.34194075       1.87196886       1.57706204      -0.00274885       0.00265022      -0.00203303
H       -0.02820175       0.70724244       1.03640046       0.00076071      -0.00026951       0.00159034
H        2.30019466       0.78238863       0.14333636       0.00670380       0.00470054      -0.00251456
H        1.97679325      -0.84685921       0.72443988       0.00022785      -0.00707542       0.00225854
H        2.75021304      -1.78091860      -1.51365908      -0.00225545       0.00161563       0.00222857
H        3.01945445      -0.14146156      -2.09027202       0.00217146      -0.00305077       0.00488564
H        4.43058985      -3.00171996       0.23857678       0.00121411       0.00554533      -0.00237495
H        4.08026382      -1.78056036       1.50261751       0.00136222       0.00260560      -0.00051087
H        5.75949311      -2.11082881       1.02026927      -0.00043529       0.00167870       0.00306605
H       -1.76407452      -0.39809461      -2.02403166       0.00582826      -0.00145280       0.00503162
