25
Properties=species:S:1:pos:R:3:forces:R:3 charge=-1 spin=1 energy=-152.18955993652344 free_energy=-152.18955993652344 stress="0.0 0.0 0.0 0.0 0.0 0.0 0.0 0.0 0.0" pbc="F F F"
O        0.70693660      -1.06764160       0.94645755       0.00207585      -0.00658404       0.00690389
C        0.80039008      -0.76884084      -0.26233859      -0.00487325       0.00352067       0.00106782
C        1.96049264      -1.03299932      -1.05801608      -0.00520009      -0.00524214      -0.00347948
C        3.12899202      -1.67686197      -0.44373695       0.00563201       0.00182492      -0.00288589
N       -0.22483444      -0.09852576      -0.95060861       0.00285177      -0.00374681      -0.00566004
C       -1.49681970       0.25308173      -0.49448226       0.00503165       0.00020614      -0.00620397
C       -2.30741182       1.01983862      -1.35669098      -0.00439599       0.00136445      -0.00025369
C       -3.59503788       1.38262995      -0.97343773       0.00075018       0.00027066       0.00073692
C       -4.10832052       1.00160771       0.26801604       0.00309218       0.00487867       0.00081134
C       -3.28397325       0.24852638       1.10392571       0.00193880       0.00410287       0.00018880
F       -3.77757478      -0.12467085       2.31803264      -0.00123745      -0.00309959       0.00584009
C       -1.99339992      -0.14031040       0.76242597      -0.00557320      -0.00141607      -0.00074062
H        1.98466721      -0.73027921      -2.10781032       0.00209209       0.00176292       0.00244223
H        2.90389326      -2.17391522       0.50915358       0.00061740       0.00037116      -0.00080422
H        3.67438077      -2.34259811      -1.12313441       0.00090075      -0.00255722       0.00133228
H       -0.01853490       0.15361171      -1.91330860       0.00144583      -0.00003652       0.00175727
H       -1.91638042       1.32809756      -2.32912191      -0.00203207      -0.00081774      -0.00217929
H       -4.21029764       1.97442980      -1.65580425      -0.00155839      -0.00062090       0.00198880
H       -5.11445708       1.27213408       0.59374234       0.00100744       0.00312681       0.00038898
H       -1.36889200      -0.72765407       1.43554925       0.00099978      -0.00143415      -0.00274411
S        4.24978894      -0.25032222      -0.18256970      -0.00465773      -0.00084516       0.00261483
C        3.58300090       0.49338209       1.30986943      -0.00360413       0.00538179       0.00146991
H        3.56955400      -0.21938010       2.14375050       0.00175108      -0.00023780      -0.00009806
H        2.57262488       0.89371320       1.16051350       0.00349775       0.00019488      -0.00493184
H        4.26802774       1.31536584       1.55398345      -0.00055222      -0.00036776       0.00243774
