25
Properties=species:S:1:pos:R:3:forces:R:3 charge=-1 spin=1 energy=-152.14862060546875 free_energy=-152.14862060546875 stress="0.0 0.0 0.0 0.0 0.0 0.0 0.0 0.0 0.0" pbc="F F F"
O        0.76448486       1.17048109      -0.93240646      -0.00100376      -0.00080500       0.00119313
C        0.83712757      -0.07579023      -0.85690362       0.00475574       0.00035518      -0.00123746
C        2.01223388      -0.82315377      -1.18787390      -0.00329548       0.00223315       0.00089342
C        3.22150700      -0.10629723      -1.60847530      -0.00316536      -0.00230286      -0.00048448
N       -0.23340074      -0.85373962      -0.39497719       0.00062838      -0.00062801       0.00221639
C       -1.49178498      -0.40753830       0.00748725      -0.00214262      -0.00175682      -0.00239502
C       -1.95222273       0.91633401      -0.02772013       0.00079870      -0.00263828      -0.00114886
C       -3.24756924       1.21709753       0.40971330      -0.00035135       0.00295365       0.00205091
C       -4.09607457       0.21337227       0.88247313       0.00016901      -0.00605169       0.00230039
C       -3.66259549      -1.11721049       0.92571110      -0.00060421       0.00618242      -0.00454274
C       -2.38064468      -1.39155050       0.49020832      -0.00041574      -0.00134414       0.00595571
F       -1.90069165      -2.68161748       0.51037136      -0.00027436       0.00112168      -0.00196693
H        2.01630168      -1.91059038      -1.08410397       0.00137256       0.00124538       0.00043899
H        3.81969745      -0.64132647      -2.35590276       0.00044738       0.00033300       0.00024956
H        3.02793463       0.92954506      -1.91752513       0.00090943       0.00152305       0.00059579
H       -0.09690259      -1.86133047      -0.32486817      -0.00171903      -0.00000867       0.00106333
H       -1.26861068       1.68007238      -0.40434899       0.00114310      -0.00143954      -0.00243387
H       -3.59684798       2.25123798       0.37571426       0.00295730       0.00276095       0.00075248
H       -5.10728335       0.46048444       1.22089809      -0.00128934      -0.00132032      -0.00509731
H       -4.29860570      -1.92660308       1.28315496       0.00099945      -0.00080523       0.00184067
S        4.23462211      -0.15917851      -0.08184206      -0.00077020      -0.00065787      -0.00043640
C        3.44951465       1.08335847       0.95188173       0.00084457       0.00205714       0.00086085
H        3.34036886       2.03689663       0.42134041      -0.00118680       0.00039645       0.00018367
H        4.12762947       1.22043452       1.80397790      -0.00010333       0.00014395      -0.00135590
H        2.46862869       0.75903088       1.32082608       0.00129637      -0.00154771       0.00050388
