26
Properties=species:S:1:pos:R:3:forces:R:3 charge=0 spin=1 energy=-157.0406951904297 free_energy=-157.0406951904297 stress="0.0 0.0 0.0 0.0 0.0 0.0 0.0 0.0 0.0" pbc="F F F"
C       -3.84334359       0.11349394      -1.97753935       0.00464758       0.00639573      -0.00295880
C       -3.59402140       1.17115665      -1.09779637      -0.00053579       0.00014916       0.00615804
C       -2.38933243       1.25522908      -0.39738466       0.00010800       0.00019458       0.00106293
C       -1.41420739       0.26077008      -0.58445850       0.00980945      -0.00141599       0.00023006
N       -0.18317009       0.25201524       0.09626958      -0.00511858      -0.00253000       0.00165513
C        0.35073894       1.23896204       0.89772368       0.00213492      -0.00261867       0.00106435
O       -0.18971062       2.31680067       1.14259652      -0.00786635       0.00087681       0.00024489
C        1.72135323       0.86430965       1.46519039       0.00320129      -0.00028831       0.00061559
C        2.77968275       0.56029624       0.40078657       0.00394596       0.00279197      -0.00329766
S        2.71097230      -1.09278066      -0.36332301      -0.00251620       0.00142055       0.00025649
C        3.24302531      -2.13295865       1.01086041       0.00162355      -0.00350105       0.00169557
C       -1.66486062      -0.80346881      -1.47181308       0.00265437      -0.00032365      -0.00225863
H       -0.89905848      -1.56987810      -1.61128356      -0.00090428       0.00081263      -0.00356525
C       -2.87124267      -0.87425224      -2.16055814      -0.00597237      -0.00298944       0.00140104
H       -4.79148114       0.06093226      -2.52174617      -0.00075549      -0.00195049       0.00061080
H       -4.34630853       1.94959111      -0.95138972      -0.00450087      -0.00112399      -0.00012227
H       -2.18268002       2.07717581       0.28945252       0.00202619      -0.00183558       0.00068693
H        0.44733792      -0.54715804      -0.07960553       0.00094861       0.00021075       0.00118325
H        1.59056902       0.00857577       2.14774677       0.00354031       0.00367754      -0.00054674
H        2.03156124       1.72709891       2.06833440       0.00165925       0.00114636      -0.00292450
H        3.78445464       0.70179319       0.82416837      -0.00622997      -0.00030952      -0.00294416
H        2.68858274       1.26565249      -0.43818704       0.00260873      -0.00012660       0.00203644
H        2.53979098      -2.09934398       1.85265543       0.00084520       0.00146427       0.00013195
H        4.24658155      -1.85390162       1.35647636      -0.00051999      -0.00008635      -0.00008590
H        3.28189704      -3.16130544       0.63263134      -0.00412680       0.00080156       0.00394277
H       -3.05209629      -1.70551784      -2.84599678      -0.00070681      -0.00084236      -0.00427225
