20
Properties=species:S:1:pos:R:3:forces:R:3 charge=0 spin=1 energy=-128.6104736328125 free_energy=-128.6104736328125 stress="0.0 0.0 0.0 0.0 0.0 0.0 0.0 0.0 0.0" pbc="F F F"
O        1.14884746      -2.23470858       0.09961020      -0.00335194      -0.00446065       0.00127979
C        1.63698768      -1.11486853       0.25283031       0.00480393       0.00062448       0.00011072
C        3.11296047      -0.90477340       0.36931884      -0.00457922      -0.00182445       0.00032945
C        3.74553762       0.18460496      -0.07899461       0.00336163       0.00349468       0.00122607
N        0.87115954       0.04246984       0.29279223      -0.00558092       0.00537559       0.00526952
C       -0.51729039       0.13508170       0.10140830       0.00041293      -0.00144722      -0.00246982
C       -1.17835625       1.27801732       0.58873703       0.00683243       0.00334230       0.00193618
C       -2.54583588       1.44969470       0.39999875       0.00178589       0.00062364      -0.00730227
C       -3.24463563       0.45487819      -0.28376632      -0.00069636      -0.00274096      -0.00057862
F       -4.58491528       0.60914598      -0.47333111       0.00298816      -0.00098663       0.00026324
C       -2.62136667      -0.69028163      -0.78072770       0.00714782       0.00100622      -0.00076778
C       -1.24945739      -0.84702620      -0.58895256      -0.00358514      -0.00119334       0.00364983
H        3.65186123      -1.78554069       0.72047915      -0.00095982       0.00022176      -0.00501074
H        4.83346388       0.25146346      -0.04132748      -0.00593144       0.00235157       0.00466156
H        3.22090267       1.02986278      -0.52535949       0.00454979      -0.00361043      -0.00309755
H        1.34515641       0.89097578       0.59403729       0.00038617      -0.00124300      -0.00072616
H       -0.60950607       2.03794489       1.13122168      -0.00089389      -0.00160649       0.00292675
H       -3.07020199       2.33079140       0.77068804      -0.00154313      -0.00208366      -0.00009984
H       -3.20822989      -1.43946022      -1.31173424      -0.00494748       0.00004181       0.00340059
H       -0.72598447      -1.73141656      -0.95636385      -0.00019950       0.00411472      -0.00500089
