25
Properties=species:S:1:pos:R:3:forces:R:3 charge=-1 spin=1 energy=-150.5853729248047 free_energy=-150.5853729248047 stress="0.0 0.0 0.0 0.0 0.0 0.0 0.0 0.0 0.0" pbc="F F F"
O        0.84532214      -1.16058385      -0.67072624      -0.00269368      -0.00641920       0.00383872
C        0.78881560       0.07248179      -0.86269724       0.00133340       0.00062776      -0.00174797
C        1.85651186       0.83473134      -1.43446701      -0.00499260      -0.00185695      -0.00000292
C        3.10316003       0.15713253      -1.81492806      -0.00388178       0.00018122       0.00307064
N       -0.32832179       0.83929370      -0.48910376       0.00638172      -0.00192103      -0.00539985
C       -1.53615900       0.41328736       0.07108791       0.00822990      -0.00450953       0.00131927
C       -1.87644318      -0.94321304       0.22184548      -0.00151135       0.00353497      -0.00035124
C       -3.10778257      -1.27984933       0.78497908       0.00028697       0.00163502       0.00324610
C       -4.01754588      -0.30317653       1.19915325      -0.00469726       0.00122556      -0.00141612
C       -3.66887477       1.04020882       1.03594907       0.00364452      -0.00494630       0.00773375
Cl      -4.77575345       2.27788546       1.53725343       0.00011975      -0.00106646      -0.00111772
C       -2.44732637       1.40919836       0.48308272       0.00099360      -0.00400607      -0.00626485
H        1.75634435       1.91659811      -1.55239542       0.00267364      -0.00163329      -0.00191689
H        3.58300406       0.58031110      -2.70549554       0.00041331      -0.00194997       0.00219208
H        2.99650073      -0.93257866      -1.89621117       0.00441071       0.00207636      -0.00266516
H       -0.24554643       1.84003244      -0.64510299      -0.00450548       0.00322653       0.00261803
H       -1.16122078      -1.69989800      -0.10613564       0.00253284       0.00507152      -0.00009226
H       -3.36655736      -2.33533767       0.89980110      -0.00077970       0.00145423       0.00009950
H       -4.98256313      -0.56201156       1.63977854       0.00064814       0.00026169      -0.00626388
H       -2.20612718       2.46725256       0.37341842       0.00721963       0.00058946       0.00466897
S        4.21866756       0.60156643      -0.42873685      -0.00163706       0.00153720       0.00087190
C        3.70104043      -0.53177219       0.86510380      -0.00622267       0.00411427      -0.00034097
H        4.41829222      -0.38447290       1.68272756      -0.00257840       0.00368176       0.00007883
H        2.68829868      -0.31491644       1.22631128      -0.00287944       0.00075658       0.00054772
H        3.75107731      -1.57490798       0.53005951      -0.00250889      -0.00166553      -0.00270544
