25
Properties=species:S:1:pos:R:3:forces:R:3 charge=-1 spin=1 energy=-150.5799560546875 free_energy=-150.5799560546875 stress="0.0 0.0 0.0 0.0 0.0 0.0 0.0 0.0 0.0" pbc="F F F"
O        0.63112011      -1.38202784       0.57089995       0.00272398      -0.00163393      -0.00092556
C        0.79260861      -0.15752013       0.76473518      -0.00670034       0.00148118       0.00148040
C        1.99898566       0.40577176       1.29314047       0.00629091      -0.00516903      -0.00256431
C        3.12133463      -0.48137221       1.62509331       0.00363979      -0.00042635       0.00515413
N       -0.19252681       0.78927011       0.44238688       0.00067875       0.00218898      -0.00395856
C       -1.47282685       0.56281910      -0.05747596      -0.00087643       0.00037384       0.00532295
C       -2.04078482      -0.71327731      -0.22623074      -0.00117663       0.00301212       0.00577362
C       -3.33893951      -0.85228062      -0.71846233      -0.00284663      -0.00319266      -0.00055860
C       -4.10253937       0.27085563      -1.05213839       0.00115454      -0.00068036      -0.00534424
C       -3.56133683       1.54733689      -0.89343992       0.00225458      -0.00751582       0.00486940
C       -2.26566401       1.68932348      -0.40359913      -0.00434482       0.00511510      -0.00136742
Cl      -1.60107881       3.28457303      -0.20778419       0.00215889      -0.00061610       0.00153390
H        2.09331318       1.48742467       1.41575630      -0.00329257      -0.00250098       0.00103014
H        2.83444405      -1.53825479       1.70499986       0.00200196       0.00211719       0.00150028
H        3.70096544      -0.15592262       2.49723965       0.00056306      -0.00120272       0.00079966
H        0.04385430       1.77391483       0.57195581       0.00632821      -0.00301730      -0.00349972
H       -1.42502027      -1.57515597       0.04112513       0.00505544      -0.00107080      -0.00025528
H       -3.75671383      -1.85406913      -0.84305082      -0.00041564       0.00753641      -0.00198725
H       -5.12071152       0.15717481      -1.43827641       0.00334474      -0.00078768      -0.00403956
H       -4.12750770       2.44517713      -1.14586423      -0.00037530      -0.00295472       0.00009023
S        4.23700924      -0.21192025       0.19598555      -0.00676714      -0.00020108      -0.00286162
C        3.48222378      -1.22298940      -1.08256920      -0.00187849       0.00221057       0.00024807
H        2.51825716      -0.82083004      -1.41731739      -0.00353751       0.00339713      -0.00158849
H        4.19178431      -1.20678738      -1.91941848      -0.00177293       0.00370472      -0.00173444
H        3.34656448      -2.25881506      -0.74806304      -0.00221037      -0.00016749       0.00288228
