20
Properties=species:S:1:pos:R:3:forces:R:3 charge=0 spin=1 energy=-128.5665740966797 free_energy=-128.5665740966797 stress="0.0 0.0 0.0 0.0 0.0 0.0 0.0 0.0 0.0" pbc="F F F"
C        4.23723286       0.43012033      -0.01962381      -0.00508651       0.00076707       0.00296387
C        3.02898519       0.63281746       0.50808032       0.00181183      -0.00005749      -0.00206878
C        1.81449929       0.07232176      -0.15560695      -0.00483171      -0.00048688       0.00348836
O        1.84230359      -0.58524447      -1.19592063      -0.00432315      -0.00051730       0.00097956
N        0.63646683       0.37154258       0.52915368       0.00908399      -0.00224073      -0.00138882
C       -0.68299571       0.01639970       0.20477164      -0.00169340       0.00197166      -0.00158727
C       -1.69833851       0.45435850       1.07677531       0.00347152       0.00104251       0.00191759
C       -3.03002103       0.14531206       0.82059202       0.00124890      -0.00017693      -0.00185877
C       -3.36923685      -0.60585104      -0.30841283      -0.00429514      -0.00062079      -0.00120120
C       -2.36208177      -1.04240569      -1.17427696       0.00681576      -0.00068915      -0.00219384
C       -1.02056605      -0.73950859      -0.93052648       0.00448787       0.00264835       0.00229755
H       -0.22348585      -1.07232682      -1.59712693      -0.00160652       0.00129487       0.00434569
H        5.13966172       0.82846217       0.44769226      -0.00216287      -0.00189625      -0.00155843
H        4.34689144      -0.14581513      -0.93920518       0.00125462      -0.00071612      -0.00350904
H        2.88009043       1.20438686       1.42797681      -0.00147528      -0.00173084      -0.00078925
H        0.74419484       0.92528655       1.37579969       0.00115012       0.00030532       0.00076984
H       -1.42866216       1.04162915       1.95870211      -0.00359760       0.00122602      -0.00201286
H       -3.80558173       0.49435939       1.50623466      -0.00259754      -0.00164963       0.00417435
H       -4.41670523      -0.84941453      -0.51253196      -0.00191915       0.00001778      -0.00175308
H       -2.62155291      -1.62957572      -2.05807492       0.00426461       0.00150853      -0.00101531
