25
Properties=species:S:1:pos:R:3:forces:R:3 charge=-1 spin=1 energy=-152.0480499267578 free_energy=-152.0480499267578 stress="0.0 0.0 0.0 0.0 0.0 0.0 0.0 0.0 0.0" pbc="F F F"
O       -0.79343259      -0.97989685       1.19009991      -0.00082535       0.00162284       0.00031206
C       -0.79854513      -0.78673436      -0.04419746       0.00250535      -0.00251048      -0.00289977
C       -1.91487281      -1.08538918      -0.88958453      -0.00230438       0.00216606       0.00137478
C       -3.13895873      -1.64090520      -0.29953116       0.00762290       0.00081143       0.00050312
N        0.29227037      -0.21247913      -0.71851664      -0.00493443      -0.00191045       0.00002937
C        1.53775368       0.16364497      -0.20550884       0.00706151       0.00336858       0.00314087
C        2.41427878       0.86487156      -1.05906195       0.00249070      -0.00072636       0.00281814
C        3.67355746       1.25305806      -0.61545480      -0.00390175       0.00182587      -0.00049931
C        4.08182737       0.95427676       0.68803530      -0.00282422      -0.00020439      -0.00171060
C        3.21524805       0.25783834       1.53731580       0.00564989       0.00138873       0.00306988
C        1.95210631      -0.14300144       1.10385804      -0.00521491      -0.00144228       0.00064760
H       -1.86227963      -0.87226364      -1.96004850      -0.00319908      -0.00614033      -0.00175662
H       -2.99003898      -2.05274922       0.70722514      -0.00000636       0.00002509      -0.00184503
H       -3.66225480      -2.35293509      -0.94900396      -0.00294228      -0.00408378      -0.00217460
H        0.15242594      -0.03895421      -1.71047793       0.00033175      -0.00106937       0.00292292
H        2.09186369       1.10268838      -2.07598805      -0.00286929       0.00205899      -0.00074616
H        4.34068429       1.79436727      -1.29043407      -0.00436586      -0.00296390      -0.00293282
H        5.07182872       1.25965049       1.03978718       0.00557497       0.00442304      -0.00074182
H        3.52949361       0.01918414       2.55607492      -0.00066060      -0.00243846       0.00276965
H        1.26198485      -0.68838903       1.75101987      -0.00373782      -0.00065543       0.00452347
S       -4.22320789      -0.16432190      -0.24292157      -0.00495470      -0.00051485      -0.00384469
C       -3.63401416       0.68849400       1.22452165       0.00568004       0.00071055       0.00087497
H       -4.31879019       1.53493900       1.36144585       0.00260427       0.00531481      -0.00143212
H       -3.68155801       0.04407225       2.11089530      -0.00050833      -0.00242576      -0.00033181
H       -2.61055503       1.06335223       1.10383003       0.00372798       0.00336983      -0.00207152
