29
Properties=species:S:1:pos:R:3:forces:R:3 charge=0 spin=1 energy=-173.69216918945312 free_energy=-173.69216918945312 stress="0.0 0.0 0.0 0.0 0.0 0.0 0.0 0.0 0.0" pbc="F F F"
C       -1.42752419      -0.65850828      -0.78463577      -0.00357480      -0.00012735      -0.00270209
C       -2.80634577      -0.83099107      -0.80306838       0.00031766       0.00122467      -0.00181693
C       -3.63190038      -0.16234784       0.11277281       0.00082745       0.00552840      -0.00321331
C       -5.12550761      -0.37042070       0.07038497       0.00469881      -0.00530900      -0.00000567
C       -3.02691153       0.68465078       1.04914103       0.00275967      -0.00355121       0.00011897
C       -1.64287423       0.87240458       1.08605800      -0.00194778      -0.00062397      -0.00151971
C       -0.82864101       0.19624963       0.16209398       0.00084193      -0.00133430       0.00356436
N        0.56854391       0.32283569       0.12038446       0.00078964       0.00532503       0.00427216
C        1.37337755       1.10408010       0.92339282       0.00075179      -0.00277343       0.00067961
O        0.96542295       1.85346511       1.80977002       0.00554460      -0.00302888      -0.00313402
C        2.86136827       0.96360687       0.59386862      -0.00173602       0.00453062       0.00283498
C        3.39354325      -0.47140195       0.59040619      -0.00064631       0.00331714      -0.00428563
S        3.02747867      -1.46842198      -0.89102745       0.00592757       0.00242589       0.00725560
C        4.03777981      -0.63086888      -2.12955237       0.00475331      -0.00321555      -0.00085897
H       -0.79586479      -1.18224998      -1.50549217      -0.00396948      -0.00252043       0.00509293
H       -3.25683994      -1.49547419      -1.54366685      -0.00118041       0.00095987       0.00030693
H       -5.38018870      -1.42286198       0.26369460      -0.00005093       0.00138320      -0.00337703
H       -5.52220600      -0.13225658      -0.92673977      -0.00379261      -0.00205107      -0.00115849
H       -5.64211366       0.25126886       0.80988199       0.00365108       0.00413257       0.00138932
H       -3.65003908       1.21440025       1.77172080      -0.00493729       0.00145772      -0.00212604
H       -1.17813458       1.53472885       1.81707487      -0.00012802      -0.00054207       0.00307974
H        1.07835274      -0.27695409      -0.55092887       0.00134257       0.00329279      -0.00061811
H        3.03962448       1.45128277      -0.37932198      -0.00385500       0.00015670       0.00226225
H        3.38266135       1.55838548       1.35499119      -0.00229333      -0.00352022       0.00206040
H        4.48258899      -0.46265730       0.73826517       0.00544971      -0.00080332      -0.00233802
H        2.96635255      -1.03940752       1.43002986      -0.00140654      -0.00233275      -0.00151587
H        3.71189163       0.40287079      -2.29966538      -0.00316471       0.00055001      -0.00125060
H        5.09983852      -0.64271251      -1.85259965      -0.00743347      -0.00267851      -0.00092164
H        3.91770443      -1.18951884      -3.06516023       0.00246110       0.00012736      -0.00207546
