23
Properties=species:S:1:pos:R:3:forces:R:3 charge=0 spin=1 energy=-145.15016174316406 free_energy=-145.15016174316406 stress="0.0 0.0 0.0 0.0 0.0 0.0 0.0 0.0 0.0" pbc="F F F"
O       -2.08950888      -1.34125023      -1.37794369       0.00129967       0.00047830       0.00550210
C       -2.44917133      -0.77406631      -0.34685867      -0.00218755      -0.00124067      -0.00606328
C       -3.89294735      -0.60995742       0.00538091       0.00503880      -0.00427549       0.00181398
C       -4.38160745       0.45260278       0.65309170      -0.00493920       0.00129618      -0.00150046
N       -1.55645077      -0.20840346       0.55615443      -0.00192340      -0.00305638      -0.00364396
C       -0.16341808      -0.11359668       0.41470032      -0.00234619      -0.00183817      -0.00268873
C        0.60150094       0.13492748       1.56861822       0.00471768       0.00275992       0.00018218
C        1.98347208       0.28052271       1.47986474      -0.00328819      -0.00098321       0.00562873
C        2.64267167       0.17402770       0.24809951      -0.00475471      -0.00384580      -0.00248050
C        4.13515671       0.36341324       0.13819268       0.00199005       0.00245209      -0.00196272
C        1.86937384      -0.07581862      -0.89434229       0.00830895       0.00116018       0.00126702
C        0.48276909      -0.21663844      -0.82839483      -0.00366761      -0.00217821       0.00365233
H       -4.53997707      -1.36459704      -0.44304238      -0.00375415      -0.00084335       0.00012094
H       -3.74776056       1.26346693       1.01189470      -0.00311836      -0.00179777      -0.00007862
H       -5.45435560       0.55785347       0.81906440       0.00745651       0.00451404       0.00332972
H       -1.93968200       0.07697806       1.45446328       0.00141311       0.00284943      -0.00140700
H        0.10586961       0.20398235       2.53949691       0.00253995       0.00334821      -0.00406763
H        2.56161470       0.47373316       2.38558648       0.00173882       0.00136703       0.00054684
H        4.37829136       1.39145045      -0.17104943      -0.00053312       0.00108057      -0.00087650
H        4.56178698      -0.30471314      -0.62073306      -0.00006908      -0.00232626       0.00364947
H        4.63535255       0.18233575       1.09712746      -0.00448808      -0.00288471      -0.00281645
H        2.36540599      -0.16449706      -1.86263152       0.00029460       0.00555193       0.00270441
H       -0.11476277      -0.41859730      -1.71828502       0.00027187      -0.00158769      -0.00081182
