35
Properties=species:S:1:pos:R:3:forces:R:3 charge=-1 spin=1 energy=-220.64508056640625 free_energy=-220.64508056640625 stress="0.0 0.0 0.0 0.0 0.0 0.0 0.0 0.0 0.0" pbc="F F F"
O        2.74032296       1.27223922      -2.04978598      -0.00147708       0.00079581      -0.00275096
C        3.08597145       0.23646918      -1.44557529       0.00344406      -0.00635302       0.00354826
C        4.38541262      -0.32382014      -1.47245333      -0.00342419       0.00244671      -0.00242716
C        4.79563614      -1.60757378      -0.87872765      -0.00087124      -0.00128916       0.00387308
N        2.15828729      -0.47422142      -0.62697349      -0.00408383       0.00830278      -0.00249987
C        0.81237366      -0.21821516      -0.50224568       0.00456249       0.00166684       0.00480932
C        0.10782937      -0.77739367       0.59348003       0.00302348       0.00184153       0.00078344
C       -1.25341895      -0.57071096       0.73713799      -0.00241226      -0.00842158       0.00136572
C       -1.98537306       0.20418966      -0.18767149      -0.00237270       0.00211898      -0.00282257
C       -3.43625060       0.43688260      -0.02311797       0.00306213      -0.00139510       0.00213674
C       -4.04239976       1.61588814      -0.50107696      -0.00215239       0.00129476      -0.00104710
C       -5.41107102       1.84153532      -0.34630006       0.00806464      -0.00376451      -0.00273709
C       -6.21146032       0.88695397       0.28829635      -0.00092891      -0.00264549      -0.00293985
C       -5.63128911      -0.29106603       0.76901707       0.00452921      -0.00610566       0.00646542
C       -4.26116341      -0.50918346       0.61742034      -0.00388561      -0.00369653      -0.00109701
C       -1.27072520       0.75254485      -1.27450481       0.00204918       0.00250977       0.00279009
C        0.09051077       0.54904451      -1.44620257      -0.00080840       0.00223798       0.00238681
H        5.11727929       0.26271802      -2.02538377       0.00511365       0.00296516      -0.00382780
H        4.16298204      -2.45648588      -1.18771352      -0.00250152      -0.00544733       0.00093850
H        5.83849422      -1.84043547      -1.12878949       0.00152874      -0.00382012      -0.00093407
H        2.59986667      -1.08674313       0.07668606      -0.00183831      -0.00299225      -0.00425489
H        0.66182856      -1.36670275       1.32547040      -0.00045425      -0.00134566      -0.00311382
H       -1.76762807      -0.99354721       1.60323346      -0.00040039       0.00590910      -0.00136229
H       -3.42192508       2.38025029      -0.97440897      -0.00042015      -0.00013685      -0.00027195
H       -5.85165182       2.76653280      -0.72419077      -0.00552849       0.00309953       0.00131601
H       -7.28518038       1.06001984       0.40478463      -0.00307426      -0.00011083       0.00185308
H       -6.24783196      -1.04713887       1.26026046       0.00256529       0.00452706      -0.00236136
H       -3.82288695      -1.44658455       0.96814186      -0.00093073       0.00045750       0.00121617
H       -1.81268690       1.33683267      -2.02048018      -0.00237641      -0.00075382      -0.00488463
H        0.64684284       0.98197628      -2.28034128      -0.00025609       0.00690201      -0.00160861
S        4.63037882      -1.76607448       0.98872807      -0.00000991       0.00052483       0.00240679
C        5.35548103      -0.20008423       1.49659251       0.00374692      -0.00373420       0.00382175
H        4.79230058       0.64482276       1.08114763       0.00162191       0.00404301       0.00342530
H        6.40282865      -0.12896737       1.17843170      -0.00279187       0.00019320      -0.00084388
H        5.31792117      -0.16987095       2.59243151      -0.00031288       0.00017525      -0.00135149
