26
Properties=species:S:1:pos:R:3:forces:R:3 charge=0 spin=1 energy=-167.3138427734375 free_energy=-167.3138427734375 stress="0.0 0.0 0.0 0.0 0.0 0.0 0.0 0.0 0.0" pbc="F F F"
O        3.56755288      -0.83892928       0.01716821       0.00247023       0.00036883      -0.00210650
C        3.05158485       0.26287986       0.20929229      -0.00596505      -0.00118732       0.00014068
C        3.83157373       1.50367353       0.49505735       0.00391077       0.00374829       0.00161210
C        5.16337496       1.45899240       0.54710041       0.00408185       0.00403289       0.00176414
N        1.67617492       0.47855563       0.18162630       0.00639094       0.00258639      -0.00087581
C        0.65048201      -0.45554508      -0.05414903      -0.00106996      -0.00281528      -0.00214472
C        0.89651144      -1.81656602      -0.30451945      -0.00076298      -0.00068748       0.00007272
C       -0.17968290      -2.67959418      -0.52619928      -0.00425331       0.00145721      -0.00611406
C       -1.49433302      -2.20995506      -0.50330966      -0.00214037      -0.00404420      -0.00558090
C       -1.72831870      -0.85552217      -0.25446780       0.00571027       0.00066222      -0.00084677
C       -3.14877842      -0.37693807      -0.23976758       0.00207564      -0.00921905       0.00118922
O       -3.20829599       0.95989311       0.01150663       0.00187228      -0.00159168       0.00103740
C       -4.53178396       1.53034256       0.05236691      -0.00330880      -0.00163569       0.00368426
O       -4.12274398      -1.08756814      -0.42918109       0.00526681       0.00420333       0.00036870
C       -0.67050498       0.02641077      -0.03024245       0.00343294      -0.00268495      -0.00153584
H        3.26736490       2.42601592       0.65525370      -0.00258791       0.00037208       0.00129380
H        5.75970671       2.34915000       0.75601666      -0.00312176      -0.00070170      -0.00072568
H        5.68869564       0.51775908       0.38050688      -0.00027105       0.00367808      -0.00318164
H        1.36920176       1.43354190       0.34660910      -0.00342125      -0.00026777       0.00295595
H        1.93007297      -2.16478685      -0.32022599      -0.00371495      -0.00256142       0.00359631
H        0.01557166      -3.73570343      -0.72368248      -0.00384580      -0.00201494       0.00153169
H       -2.35317059      -2.86334454      -0.67729112      -0.00240037       0.00024065       0.00360267
H       -5.04101824       1.38051100      -0.91039606      -0.00151441       0.00328407       0.00278294
H       -5.12588870       1.05827333       0.84799003       0.00100074       0.00028837      -0.00472751
H       -4.39281171       2.59831482       0.25600825       0.00087823       0.00346592      -0.00277312
H       -0.87550346       1.08342821       0.15849188       0.00128701       0.00102326       0.00498003
