26
Properties=species:S:1:pos:R:3:forces:R:3 charge=0 spin=1 energy=-156.9878387451172 free_energy=-156.9878387451172 stress="0.0 0.0 0.0 0.0 0.0 0.0 0.0 0.0 0.0" pbc="F F F"
C       -3.83415684       1.12217070      -1.64356363       0.00769457       0.00364269       0.00308335
C       -4.62105310       0.28555188      -0.84784469      -0.00589120       0.00426625      -0.00068095
C       -4.01268725      -0.52390457       0.11657076      -0.00297457      -0.00027129      -0.00070766
H       -4.62194192      -1.18215815       0.74015571       0.00681338      -0.00380343       0.00404340
C       -2.62826052      -0.50821777       0.29571642      -0.00639004       0.00351006       0.00249544
C       -1.84400362       0.33902548      -0.50030702       0.00331931      -0.00344064      -0.00190995
N       -0.43910241       0.39244684      -0.39499942       0.00083388       0.00213961      -0.00594440
C        0.33789120      -0.00200572       0.67624062      -0.00106356      -0.00782666       0.00152266
O       -0.12523228      -0.46189184       1.72099862      -0.00232936       0.00260263      -0.00404624
C        1.83206329       0.20386405       0.44953634      -0.00027162       0.00313796      -0.00240028
C        2.65356994      -0.36162703       1.59327625       0.00425328       0.00092398      -0.00017145
S        4.40329223       0.09076079       1.53699854      -0.00702155       0.00137415       0.00670379
C        4.97447126      -0.79351829       0.07194043       0.00129891       0.00129670       0.00235803
C       -2.45297494       1.15214922      -1.47198631       0.00451727       0.00360097       0.00805409
H       -4.29613776       1.75862890      -2.40187231      -0.00118682       0.00062767      -0.00347295
H       -5.70733349       0.26481192      -0.97985946      -0.00106555      -0.00260001      -0.00401390
H       -2.13995396      -1.13202943       1.04522388       0.00607808       0.00248455      -0.00346681
H        0.04978912       0.80731506      -1.18443792      -0.00597009      -0.00680010       0.00399749
H        2.01990978       1.28569141       0.34413381      -0.00229141       0.00300327      -0.00356012
H        2.10108295      -0.25140844      -0.51802437       0.00158984      -0.00302433       0.00319143
H        2.53020365      -1.45258369       1.65500824       0.00123080       0.00257061      -0.00350370
H        2.27765508       0.04697675       2.54145008       0.00363553      -0.00136880       0.00077191
H        6.05820821      -0.63257297       0.01988175       0.00381078      -0.00045279       0.00009242
H        4.78730858      -1.87357691       0.14382711       0.00118048      -0.00521697      -0.00008446
H        4.52811172      -0.40659240      -0.85468744      -0.00216188      -0.00219781      -0.00318069
H       -1.83568580       1.81598845      -2.08211666      -0.00763899       0.00182177       0.00082952
