26
Properties=species:S:1:pos:R:3:forces:R:3 charge=0 spin=1 energy=-167.60772705078125 free_energy=-167.60772705078125 stress="0.0 0.0 0.0 0.0 0.0 0.0 0.0 0.0 0.0" pbc="F F F"
O        3.03527595      -1.24453892       0.46834555      -0.00107514       0.00104085      -0.00002890
C        2.54556844      -0.15206034       0.17551674       0.00681582       0.00513178      -0.00356537
C        3.34484413       1.09270209      -0.02737643       0.00150231      -0.00339387       0.00003731
C        4.67210562       1.06511325       0.10391246      -0.00723290       0.00229389      -0.00289731
N        1.17783800       0.05763154      -0.00504355       0.00576288       0.00395073       0.00280765
C        0.14398246      -0.86034680       0.10410956      -0.00491259      -0.00503656      -0.00275342
C        0.34484067      -2.21424298       0.43418285       0.00551948       0.00375009       0.00323078
C       -0.73499659      -3.08309041       0.53406290       0.00216960      -0.00799826      -0.00276668
C       -2.04500340      -2.63391238       0.30431499      -0.00587220      -0.00368109       0.00287500
C       -2.26350272      -1.30552020      -0.02588130      -0.00384912       0.00188831       0.00110806
C       -1.19279103      -0.39761210      -0.13118122       0.00310321      -0.00197805       0.00215373
C       -1.45339875       1.00950199      -0.47945997      -0.00243863      -0.00156537       0.00070748
O       -2.78150985       1.23867423      -0.65449508      -0.00595608      -0.00069505      -0.00496176
C       -3.15615024       2.58323610      -1.00196693      -0.00012399      -0.00241977      -0.00238665
O       -0.60903782       1.90921875      -0.60900622       0.00044649       0.00227758      -0.00043707
H        2.79339022       1.99999815      -0.28506633       0.00008684       0.00028363       0.00122906
H        5.27913185       1.96084408      -0.04007852       0.00789243      -0.00186525       0.00190575
H        5.18321026       0.13615229       0.35945854       0.00035286      -0.00276540      -0.00017413
H        0.83675674       1.00669249      -0.25727502      -0.00340552      -0.00086509       0.00003567
H        1.37228109      -2.54047741       0.60534303       0.00136420       0.00321308      -0.00060972
H       -0.55375976      -4.12906337       0.79095319      -0.00268573       0.00172538       0.00039496
H       -2.89089997      -3.32327170       0.38171123       0.00309655       0.00118551      -0.00215239
H       -3.27177624      -0.93111928      -0.21300348       0.00231829      -0.00081685       0.00274720
H       -4.24809595       2.57318632      -1.09804646      -0.00460207       0.00262819       0.00020998
H       -2.68842020       2.88049553      -1.95094308       0.00031633       0.00248969       0.00587604
H       -2.84484854       3.28509833      -0.21552044       0.00140677       0.00122200      -0.00258526
