29
 
C           -4.55522239249537       -0.38867786775548       -0.69132699781531
C           -3.55427525815796       -1.22739370378840       -0.22902069138743
C           -2.46069757530257       -0.70138834261181        0.43399199535097
C           -2.35714130389689        0.66896385503731        0.64227995360372
C           -1.14042100859941        1.22553760423074        1.33551878764449
N            0.02567802329560        1.16713782712341        0.47266738830356
C            1.00488521323605        0.25240700529105        0.63972976095209
O            1.02729635031780       -0.53006155431937        1.56627302107635
C            2.10328291767140        0.29858552834924       -0.41357601941887
C            3.45642820001862        0.42050274372868        0.27557374204520
S            4.85319393026490        0.30816686701616       -0.88778603016541
C            4.90707001118563       -1.48836379969547       -1.13610606444866
C           -3.36011246118674        1.50399197995893        0.17031648699290
C           -4.45678615263081        0.97723243369977       -0.49059848115965
H           -5.41125498459880       -0.79952188286249       -1.20586311971356
H           -3.62892646822293       -2.29393020084199       -0.38261190689239
H           -1.67824763530940       -1.35013574168272        0.79944226183446
H           -0.89533054753054        0.62557773523640        2.21585320483010
H           -1.30844817054609        2.26383072284353        1.63711527905876
H            0.00955361549337        1.74055937241422       -0.35537815946815
H            2.06173992758983       -0.64020534783268       -0.97147767201371
H            1.95946637338682        1.12421784086674       -1.11112383812126
H            3.57305621352672       -0.36051304735242        1.02659558903358
H            3.55578519871691        1.39401594375579        0.75495944050519
H            3.99737458375618       -1.82624939505641       -1.62410005684496
H            5.76167765048523       -1.68987679827496       -1.77298740439442
H            5.03270253783286       -1.97986302986587       -0.17558186570170
H           -3.28746024004257        2.57151942691132        0.32693189856721
H           -5.23486654825891        1.63489923939324       -0.84971050225507