28
 
C            3.08701765916051        0.21507652971047        2.23871993636627
C            1.98952713007326       -0.62526083781456        1.91597823935024
C            0.66149022361150       -0.20680473723145        2.01444977601802
O            0.22958897691857        0.87068894798345        2.45900495440048
N           -0.29443608812446       -1.21317929242228        1.65410207402174
C           -1.65148150247318       -0.78650671303934        1.40188167062671
C           -1.86839316319418       -0.41510525740474       -0.04020659216833
C           -1.27062745728019        0.73631570046248       -0.54556789451333
C           -1.38334294054850        1.05658231394790       -1.88477351392187
C           -2.10198940019286        0.23560869128513       -2.73994856889123
C           -2.70287563392625       -0.90959879570174       -2.24653017324543
C           -2.58206187154585       -1.23434920266453       -0.90639657736209
H            3.97686119964387       -0.26589676255112        2.63250430453108
H            2.80700238827349        1.10371764878064        2.79321700193824
H            2.19234874493823       -1.60753494038180        1.50368497728728
H            0.05763204786992       -1.89189783945248        0.99222378607879
H           -2.34741396857958       -1.58112678675441        1.70436787703949
H           -1.79078925836034        0.09125210337640        2.04385208380676
H           -0.71292897641531        1.36815197436491        0.12949592482440
H           -0.90958810756854        1.95037907300058       -2.26660606583317
H           -2.19246068727420        0.48676582097237       -3.78851435115074
H           -3.26517939844857       -1.55461457933180       -2.90983663363839
H           -3.04905854036568       -2.13419363894240       -0.52601288196140
S            3.98079489114744        1.06768096730403        0.60507403220453
C            2.50503276123642        1.28894718856166       -0.39448429702373
H            1.75166382185598        0.60809172447247        0.01599237823824
H            2.15733314572689        2.31798430878483       -0.33059498866437
H            2.72633400384574        1.02882639068700       -1.42720104895632