29
 
C           -4.17227202178158        1.38696508145023        0.07015208222987
C           -4.11136122958452        0.71028792156719       -1.13551435284868
C           -3.17576982687196       -0.29572608544305       -1.31505364340843
H           -3.12711220798582       -0.82739431971154       -2.25393332183850
C           -2.30599119600446       -0.62345891240745       -0.29145461004174
C           -2.36258118178040        0.05117336023222        0.92275093292515
C           -1.37777985780736       -0.29570858534694        2.00928058863955
N           -0.04230074191581        0.15838826316308        1.66619082161331
C            0.92251595908158       -0.68340781096761        1.23042793580429
O            0.78062595786328       -1.88573367624269        1.18226765191227
C            2.20654797555253        0.03086595001815        0.82379460681608
C            3.33758784689715       -0.96541987892796        0.62660456066611
S            4.90543984376213       -0.16279102139125        0.16750447198680
C            4.58467409896856        0.18606172367738       -1.58573786451607
C           -3.29843761452289        1.06126522001793        1.09381288985156
H           -4.90054188826952        2.17157565573873        0.21440190784048
H           -4.79292608791079        0.96449390048195       -1.93375971190173
H           -1.57620818539925       -1.40891817891555       -0.42314042410546
H           -1.30685691410338       -1.38025641174108        2.12705478279262
H           -1.67472747293506        0.15531374564303        2.96067399845190
H            0.09883870231008        1.15380851983579        1.59736064662888
H            2.01107516446994        0.57281851426930       -0.10598088054365
H            2.48187574035183        0.75832801096658        1.59036983240120
H            3.08718449101535       -1.69612816497503       -0.14156109718044
H            3.54042879513808       -1.49459871239632        1.55657724889151
H            4.27797860476837       -0.72942101735878       -2.08376158587333
H            3.82119627316803        0.95278411520613       -1.68468534123766
H            5.51845619809908        0.54317422817655       -2.00670117534456
H           -3.34955922457190        1.59165856537902        2.03455173153020