23
 
C            3.94377435310609        1.20755773565808       -1.45393700511588
C            3.02129347355421        0.28188482789779       -1.24187897342982
C            2.22575474712096        0.26883532469994        0.01244064737869
O            2.38098200165712        1.06859140025395        0.91499278888244
N            1.32121758414115       -0.74137366533919        0.07599459655526
C            0.38736842876026       -0.87844825514056        1.17629022387230
C           -0.99781404619098       -0.45856133491868        0.75681006010610
C           -1.30000171638593        0.89303961136642        0.63962732998857
C           -2.55204734435144        1.29477084427346        0.21122315954270
C           -3.51353125063480        0.34957181091012       -0.10712360033724
C           -3.21809375351055       -0.99809595111955        0.00333827258531
H           -3.96477360360515       -1.73838183365977       -0.24486535212225
C           -1.96406786511436       -1.40019893709059        0.43062037632896
H            4.53650759475035        1.24518990951231       -2.35195655841642
H            4.12379482035435        1.96237787035177       -0.70561575374254
H            2.81137712837568       -0.49353882479419       -1.96612142674651
H            1.16141775245293       -1.31836038738643       -0.73446022801728
H            0.38992384928049       -1.91721440686479        1.52122903051258
H            0.76061587759770       -0.22849389372207        1.97186193034659
H           -0.54496760335793        1.62465964423622        0.88732925099374
H           -2.78015066210967        2.34716779442999        0.12705581156364
H           -4.49197362434262        0.66313156607134       -0.44021326336187
H           -1.73660614154791       -2.45384322881218        0.51735868263273