20
 
C            3.21468192539606       -0.55361571361754        0.28256482506940
S            2.26521919531628        0.38428402306163       -0.94789912676929
C            0.71526678234067        0.62610018391334       -0.00937034827558
C           -0.20542501931237        1.63033593845089       -0.69397308608522
C           -1.60873194935865        1.11506331461859       -0.40285591699216
O           -2.64762066010630        1.71661678975322       -0.54208697079794
N           -1.48971272377706       -0.15623433271702        0.03890929333416
C           -2.60854707211609       -1.00645346962621        0.33380171120012
C           -0.13515772545011       -0.64775817647898        0.08368581289649
H            4.20106160590335       -0.70969936076737       -0.14165596605166
H            3.29292965933594        0.02613021897256        1.19816663111446
H            2.73573073194075       -1.51018610959035        0.46961451269167
H            0.99910591562601        0.97566812969314        0.98576892833358
H           -0.05779795135608        1.62317448978519       -1.77661179248822
H           -0.07453478513433        2.65139610171701       -0.34206189423371
H           -2.54764183955243       -1.37885208120503        1.35948917544290
H           -2.64174837735989       -1.85708276220466       -0.35266416935005
H           -3.51192317527671       -0.41052406344969        0.21477127354878
H            0.06559895328808       -1.31366117304032       -0.76750534791030
H            0.03924650965284       -1.20470194726839        1.00991245532259