21
 
C           -1.73074464424624       -2.35596192888566        0.84263535248967
C           -1.09209631447084       -0.98922395160787        0.84737247931793
C            0.03774740881471       -0.78341239705515        0.03486668229232
C            1.06480910191102        0.12501489624593        0.34489219932344
O            1.20818964396687        0.78045336069681        1.38610337170225
N            2.09937009630737        0.18184400392481       -0.63442573636957
C            3.02322283850042        1.28077872749038       -0.59154688353877
H           -1.08411025800225       -3.06777451228551        1.36183180101751
H           -2.70007804232422       -2.33157028488136        1.33751938862897
H           -1.87513571990530       -2.69877218264565       -0.18072687665331
H           -1.00766526290998       -0.54430311160635        1.83425603734919
H            0.08286787549529       -1.29413606218754       -0.92180748974830
H            1.81554626026247       -0.10712452011469       -1.55944932586564
H            4.02976003374778        0.95105837647340       -0.87284127030072
H            3.02964853746264        1.63106731366010        0.44192752436587
H            2.73441592158628        2.11911164974537       -1.24448921247890
S           -2.76903258344222        0.17351999113720        0.18391058481817
C           -1.86050240100542        1.53838225652510       -0.54501858381021
H           -2.22912674426140        1.72752380485419       -1.55270977975744
H           -1.96764190415897        2.43261232793376        0.06671124071843
H           -0.80944384332610        1.23091224258121       -0.57901150350352