22
 
C            3.18317894852262        1.42969092031474        0.04620341608545
N            1.92510477167815        0.84613436578314       -0.33362909353101
C            1.79065472665782       -0.55614863615574       -0.27838572636079
O            2.79619368839280       -1.28059514071372       -0.24054167210575
C            0.45284380997698       -0.98076439539308       -0.35487520840732
C           -0.76841335389619       -0.29720508348280       -0.48546256420015
C           -1.55472073182050       -1.58512441171918       -0.34497577669991
C           -0.21525106115779       -2.31256621368092       -0.10413614063061
H            3.94893810964722        0.67448884989936       -0.13881246224596
H            3.22149476145790        1.71554962038984        1.10653180641768
H            3.38980615085470        2.31690632430135       -0.56190730523025
H            1.10487432997511        1.33092802162493        0.00574319919180
H           -0.99456614704367        0.47675912180524       -1.20943639981193
H           -2.24604794140950       -1.61307372125987        0.49752402206761
H           -2.08322609458246       -1.89553769683280       -1.25053244107096
H            0.01217021530729       -3.09393889058291       -0.83465081803683
H           -0.09293863541201       -2.72866428215896        0.90022005989499
S           -1.37124883657708        1.02264699195298        1.16608451982331
C           -2.89638130663530        1.55151665888154        0.34268118307946
H           -3.49432492940889        0.67885354977458        0.08277597259560
H           -2.65683424340618        2.11433187650199       -0.56006397951441
H           -3.45130623112180        2.18581217075053        1.03016843382263