23
 
N            2.07079740985727        0.66350692019462        0.47172626611797
C            1.54278825133201        0.32782668079750       -0.72585211915508
O            1.86396965578336        0.84771283444932       -1.77267432633325
C            0.47535457851705       -0.74447292578755       -0.60992733846613
C           -0.30586795501873       -1.09175096049327       -1.88632240952155
C           -1.62354108429733       -0.92554344658862       -1.11440576474119
C           -0.84124936987335       -0.27099627105179        0.03150520242095
S           -1.13388018533991       -0.88570823007529        1.72008588384900
C           -2.77728899138146       -0.16904508205343        1.99039707645908
C            3.07057102097769        1.69140446250503        0.62363824795678
H            1.72889726635057        0.20837239897625        1.30421683278072
H            0.88052159976865       -1.62123113030167       -0.10192076168815
H           -0.15423639100717       -0.33388256375719       -2.65187112296092
H           -0.11706869258525       -2.07510949544114       -2.30761916077182
H           -2.05898563384057       -1.87902426266778       -0.82094959159494
H           -2.38732022947340       -0.30730274470945       -1.58171742077897
H           -0.93529377605889        0.81593659848017        0.05784434108443
H           -3.45928051313807       -0.54301780464928        1.23276520259030
H           -3.10308786649874       -0.48410702697976        2.97576942569490
H           -2.71115551817701        0.91459943970900        1.94652827656760
H            2.68993929190781        2.52118707857399        1.22303128029035
H            3.96711356596305        1.28921977594913        1.09800715609441
H            3.31830356623397        2.05142575492293       -0.37346697351837