22
 
C            2.87873147270192        1.11503640888171        0.67337668091434
N            1.86906553601154        0.11625685824342        0.45706571177845
C            1.18401196530561        0.11439817261751       -0.78635226358743
O            1.69396309981023        0.67958154166423       -1.76984737494245
C           -0.00955986523426       -0.60938923238183       -0.76709213722972
C           -0.70111045528313       -1.34766836846047        0.24409634281991
C           -1.79154368804861       -1.72624278166067       -0.74810395296237
C           -1.07101083741341       -0.87210574072050       -1.81100955854554
H            3.69528182991211        0.70840984960244        1.28006207139074
H            2.49604255477644        2.02223021560625        1.16616759241874
H            3.25969894847171        1.38937056000093       -0.31243714121361
H            1.26394496290686       -0.06166848349512        1.24685361399600
H           -0.24464772116021       -2.09154805137422        0.89073351152819
H           -2.79095768146543       -1.38309885262889       -0.47825148035957
H           -1.83619481166366       -2.79296308245903       -0.97937166320881
H           -0.72762813745254       -1.43925498059788       -2.68186026261687
H           -1.63647127230597       -0.00558877380011       -2.17278338757458
S           -1.50534903636695       -0.21179078619069        1.77355320204090
C           -1.51417676541301        1.37191069305279        0.92195668958592
H           -1.10937005442672        2.13711661509647        1.58125119776379
H           -2.52915785232286        1.63503670626377        0.62523311637450
H           -0.87356219133902        1.25197151273731        0.03874671796752