25
 
C            3.13622878681065        1.66719163822781       -0.00713025765866
N            2.20723634081037        0.58691094051280        0.18448735111556
C            0.88789882052077        0.90852752452728        0.61826534377866
O            0.69137559349271        2.02198571026309        1.12881482959982
C           -0.04231393193420       -0.13736356948383        0.49807222341094
C           -1.38584730244015       -0.08587353111901        0.93984661101075
C           -1.83757776827992       -1.51023289187722        1.16435583494265
C           -1.06677449598950       -2.26683020106677        0.08291943104049
C            0.26988179175167       -1.52208071976190       -0.03172755980040
H            4.14575968835290        1.36244590766690        0.28988449181067
H            3.17193542018164        2.03194325705609       -1.04499951126194
H            2.79547937733809        2.48066665651597        0.63521195116735
H            2.25274305138202       -0.14012429960317       -0.51346152909912
H           -1.66104788717010        0.66357519826976        1.66943637898047
H           -1.52586781260799       -1.83761255590574        2.16296773972600
H           -2.91711066042758       -1.63506901584441        1.07356676531726
H           -0.94089723356801       -3.32815811452238        0.31260963065231
H           -1.61575934015812       -2.17781811647717       -0.85566040188886
H            1.03949513839178       -2.00653701855755        0.58593339191516
H            0.63296496684517       -1.53113419533631       -1.06922641963785
S           -2.73501212007195        0.54605679743820       -0.57977754436915
C           -1.55798016846098        1.36199602016274       -1.65926918524562
H           -1.73184544349392        2.43623182046016       -1.66000316480148
H           -1.65005054268751        0.96644290860952       -2.67010021323023
H           -0.56291426858604        1.14485984984148       -1.25501618747543