20
 
C           -4.21253555798266        0.37856465011841        0.01302172760805
C           -3.08448328995222       -0.31585625766821        0.02757703953686
C           -1.76827341865189        0.37411922544118       -0.00107100371507
O           -1.65997910437413        1.58217935021978       -0.03843690271920
N           -0.71483786203226       -0.49897899545660        0.01934043660757
C            0.65628106645126       -0.23060041457235        0.00319037948661
C            1.17545600260096        1.06027187461029       -0.03908250198166
C            2.54556818621671        1.24773212211352       -0.05276590076053
C            3.41023863883324        0.16686811579124       -0.02494212056189
C            2.89528573875497       -1.11825331346461        0.01713125059433
H            3.55982593629909       -1.96951611148505        0.03914057656721
C            1.52884377219290       -1.31811129458610        0.03117032139431
H           -5.18294736890285       -0.08688521484331        0.03283018778643
H           -4.17592265219303        1.45538704038358       -0.01994249362104
H           -3.08383850378443       -1.39712607109356        0.06046219870415
H           -0.94127439776327       -1.48396126860958        0.05060911840413
H            0.50481884926751        1.90229698885329       -0.06077551452644
H            2.93947769608490        2.25267372912201       -0.08561538742006
H            4.47844076830014        0.32253452248137       -0.03589958901588
H            1.12985550063504       -2.32333867735533        0.06405817763211