27
 
O           -3.36747934028664       -0.89215716539207       -1.81122288514918
C           -2.59782964135668        0.12491772911425       -1.24016817822436
C           -1.19217707068076       -0.33829445099168       -0.78884505728533
N           -0.89918768149003        0.44318897453410        0.39142104903298
C            0.15388220937036        0.31244781637322        1.22621990630342
O            0.24754082657667        0.97531057967835        2.23993234987001
C            1.18705937903535       -0.73915841197585        0.83484315148169
C            2.53899670963423       -0.41029658597485        1.45242825025997
S            3.45780055244611        0.82500727852657        0.47762529254543
C            4.16510970025809       -0.26452984984831       -0.79621809542245
C           -1.97544292798183        1.37274116192421        0.69822093844796
C           -3.19114902288415        0.74726146138801        0.03267474319961
H           -3.55482316185330       -1.56299018475326       -1.14314279351285
H           -2.50775603645282        0.88272188632535       -2.02348686024627
H           -0.45304850733658       -0.17434813911488       -1.57880191888213
H           -1.21385359901929       -1.41087122231712       -0.55481911142789
H            1.26875491142183       -0.81196899360722       -0.24942762489275
H            0.83420023419394       -1.70256252340732        1.21635765660759
H            2.38946251866407        0.04334001864271        2.43212417001264
H            3.17261614289693       -1.29158914706688        1.54438700643898
H            4.80403858122825       -1.00709135727198       -0.32540220615940
H            3.37366033420195       -0.74698561497640       -1.36360680669121
H            4.75363002094080        0.36729185907687       -1.45246988084550
H           -1.75128687271169        2.35629110345114        0.27004767182747
H           -2.06219066140700        1.47771854838683        1.78027767311705
H           -3.97494802071505        1.46827685366723       -0.18386936005497
H           -3.60557957669235       -0.04367162439113        0.66257147940573