21
 
C            3.79155498269809        0.04747498797247       -0.13337938286147
C            2.49482536997296        0.25363067525190       -0.30778345649800
C            1.52545421125698       -0.17764306674696        0.73183539992129
O            1.87687119854140       -0.58900351306282        1.82514163440831
N            0.21193753914315       -0.09189533521628        0.41136155617279
C           -0.38046541124378        0.37135696521583       -0.82913192466941
C           -1.86579610096748        0.05223758012260       -0.67826890587724
C           -2.09845402153049        0.12919251392317        0.83991389874384
C           -0.79309880885545       -0.43865664650758        1.39784031527709
O           -3.18057364336980       -0.64213798173610        1.29111616642338
H            4.53173013427396        0.35288959962819       -0.85303916862187
H            4.13793640574110       -0.44254338475511        0.76181585961029
H            2.11445550531273        0.74742015960615       -1.18852378584543
H           -0.22865203901749        1.45290429320814       -0.94531546932824
H            0.05457624791724       -0.13917748293002       -1.69221289430911
H           -2.49631751748866        0.73807171367887       -1.24221553488253
H           -2.07175508806677       -0.96894104169609       -1.00237725833870
H           -2.21851969306944        1.17920432360159        1.14872787486403
H           -0.51921142946859       -0.03061558809749        2.37198980869638
H           -0.88723537486516       -1.52552433699017        1.49853564097288
H           -3.99926246691446       -0.27824443447029        0.93849434248966