22
Properties=species:S:1:pos:R:3:charge:R:1:forces:R:3 energy=-14516.01248062964 pbc="F F F"
O        2.10469731       1.29027497       0.99110943      -0.30316821       0.00355162      -0.00175638      -0.00226760
C        2.26113599       0.34746313       0.22466011       0.17328833       0.00157792       0.00137887      -0.00524585
C        3.60345619      -0.12148949      -0.21383884      -0.04614817       0.00072221       0.00096053       0.00135673
C        4.71353202       0.47425463       0.20306113      -0.05876298       0.00022413       0.00164853      -0.00320209
N        1.22810449      -0.37662923      -0.31442044      -0.09768116       0.00179700      -0.00068288      -0.00012646
C       -0.15606210      -0.22890873      -0.13018267       0.03716400       0.00197917      -0.00427937       0.00831662
C       -0.73057356       0.72345857       0.71277061      -0.04634377      -0.00335655       0.00205300      -0.00156803
C       -2.10479465       0.79368136       0.84550541      -0.05821674      -0.00413914       0.00033537       0.00364069
C       -2.95590100      -0.06435596       0.14880210       0.03806099       0.00215494      -0.00056679      -0.00498564
N       -4.33561802      -0.02296254       0.33769177      -0.19515739       0.00099635       0.00204277      -0.00171943
C       -2.37327002      -1.01780206      -0.68757430      -0.05775418       0.00224054      -0.00547682      -0.00256033
C       -1.00188713      -1.09434943      -0.82444445      -0.05277657       0.00232172      -0.00058648       0.00692763
H        3.66427199      -0.96895344      -0.88880801       0.04036326      -0.00070999       0.00435768       0.00180895
H        5.69394803       0.14179244      -0.11152163       0.04039345      -0.00232074      -0.00126145       0.00268312
H        4.65270931       1.31885783       0.87629193       0.03932875       0.00448544      -0.00393012      -0.00158076
H        1.49038546      -1.12537006      -0.93233573       0.13581717       0.00723784       0.00054307      -0.00626078
H       -0.09704925       1.40165429       1.25841480       0.03820289       0.00064381      -0.00558674       0.00047870
H       -2.52670405       1.53287230       1.51507694       0.03961444      -0.00543563       0.00631117       0.00169565
H       -4.68242917       0.87557480       0.63083848       0.12532844      -0.00670320      -0.00129096      -0.00024302
H       -4.86705787      -0.36895294      -0.44417304       0.12542939      -0.00202879       0.00148400       0.00225326
H       -3.00291458      -1.71123642      -1.23037232       0.04080855      -0.00462195      -0.00043507      -0.00452413
H       -0.58363536      -1.84575065      -1.48361359       0.04220947      -0.00061669       0.00473766       0.00512271
