26
Properties=species:S:1:pos:R:3:charge:R:1:forces:R:3 energy=-24946.78208306476 pbc="F F F"
C        3.92424897       0.81157224       0.65181595      -0.03941433      -0.00310230       0.00124473      -0.00174813
C        2.58248480       0.79535740       0.30329024      -0.04438322      -0.00294562      -0.00058169      -0.00049755
C        1.89121949      -0.41559213       0.30743869       0.04695708      -0.00315072      -0.00105354      -0.00071848
N        0.53552481      -0.53389601      -0.02944253      -0.09270046       0.00197985       0.00012132      -0.00057902
C       -0.36177649       0.43244493      -0.40679194       0.17699055      -0.00701057      -0.00452314       0.00296330
O       -0.08616326       1.61667033      -0.51497316      -0.28057244       0.00396283       0.00240107      -0.00540374
C       -1.75469440      -0.11765220      -0.68287045      -0.04185410      -0.00705609       0.00310415      -0.00529144
C       -2.67992261       0.95160299      -1.22472695      -0.02870842      -0.00774959       0.00471027       0.00135430
S       -4.38518956       0.37830656      -1.55342077      -0.09944638       0.00403488      -0.00175659       0.00405070
C       -5.04144585       0.33214370       0.14197367      -0.06842375       0.00053648      -0.00047910      -0.00165214
C        2.56274304      -1.58763926       0.66135654      -0.05195446      -0.00183121       0.00008103       0.00016349
C        3.90126171      -1.55481439       1.00524981      -0.03795680       0.00108213      -0.00561892       0.00166378
C        4.59226968      -0.35199107       1.00308254      -0.04956730      -0.00027549       0.00659497      -0.00415756
H        5.63897264      -0.32364656       1.27112095       0.04067871      -0.00071532       0.00000657       0.00161145
H        4.45299916       1.75553042       0.64653855       0.03952355      -0.00113758       0.00055791      -0.00121061
H        2.06785129       1.70054585       0.02991024       0.03629130       0.00158662      -0.00682139       0.00347383
H        0.17654632      -1.47400188       0.01829393       0.14157921      -0.00017025       0.00457876      -0.00143358
H       -2.15601870      -0.53775700       0.24353944       0.03907387       0.00455445       0.00368162       0.00118353
H       -1.68848226      -0.95755734      -1.37952497       0.04120685       0.00464741      -0.00062336       0.00097118
H       -2.31211272       1.31683215      -2.18007349       0.04077119       0.00461253      -0.00274626      -0.00289122
H       -2.70298332       1.80319283      -0.54958566       0.03447111       0.00469246       0.00085283       0.00565298
H       -4.51371910      -0.38806970       0.76268698       0.03779788      -0.00528321      -0.00375285       0.00260396
H       -5.00420305       1.31399651       0.60918755       0.03733229       0.00295096      -0.00235722       0.00120070
H       -6.07958952       0.02167307       0.06674164       0.04117604      -0.00204839       0.00294457      -0.00381826
H        2.02933084      -2.53123593       0.66649775       0.04015289       0.00511640       0.00334690      -0.00067326
H        4.40588194      -2.47272621       1.27553392       0.04097915       0.00271894      -0.00391178       0.00318131
