26
Properties=species:S:1:pos:R:3:charge:R:1:forces:R:3 energy=-24946.90433093254 pbc="F F F"
C        3.86931075      -0.73850345      -1.75047735      -0.04965276       0.00053612       0.00141206       0.00576169
C        2.80877311      -1.63335549      -1.71983868      -0.04025695       0.00014539       0.00234513      -0.00132523
C        1.60733797      -1.26887101      -1.14149299      -0.05414730       0.00250459      -0.00038761       0.00301298
C        1.44507980       0.00182921      -0.58136151       0.04202214       0.00017653      -0.00280355      -0.00193585
N        0.19892216       0.28875379      -0.00839090      -0.10254037      -0.00041637      -0.00082017      -0.00057742
C       -0.25591510       1.45660771       0.53154254       0.17566988      -0.00293557       0.00182305      -0.00454815
O        0.38190661       2.49943615       0.55952111      -0.28923088      -0.00000524       0.00030141      -0.00415709
C       -1.66726055       1.37162055       1.10606962      -0.04132995      -0.00303935      -0.00231090       0.00371586
C       -2.75788423       0.99612803       0.10662195      -0.02399153      -0.00051804       0.00042388       0.00060041
S       -2.85159098      -0.76497196      -0.38455699      -0.05693415       0.00314480       0.00080183      -0.00167824
C       -3.41622478      -1.50612218       1.17514884      -0.06222013       0.00049903       0.00118372      -0.00124639
C        2.50875209       0.90401815      -0.61250153      -0.04592635       0.00028418      -0.00278048      -0.00055736
C        3.70697683       0.52243212      -1.19535792      -0.04137620       0.00191072      -0.00204914       0.00034798
H        4.81036440      -1.02203661      -2.20099416       0.04096144      -0.00120471       0.00172819      -0.00131604
H        2.91662945      -2.62096374      -2.14912159       0.04129725       0.00042828       0.00147977       0.00186636
H        0.78420504      -1.97411657      -1.12458698       0.04175939       0.00034720       0.00245828      -0.00174500
H       -0.48458834      -0.45822771      -0.06828831       0.11160310      -0.00698673       0.00292461      -0.00213603
H       -1.88179748       2.35777030       1.50810855       0.04217214      -0.00066644      -0.00099674       0.00440894
H       -1.68140666       0.67393795       1.94397233       0.03845527      -0.00023621      -0.00688593       0.00254075
H       -3.73217058       1.26905166       0.50643332       0.03986794      -0.00013194       0.00548839      -0.00250328
H       -2.62423153       1.54699919      -0.82098869       0.04014653       0.00505139      -0.00032946       0.00140196
H       -3.58446186      -2.55886027       0.97141053       0.04288622       0.00173859       0.00018107       0.00120564
H       -4.35052070      -1.05810379       1.50283475       0.03751940       0.00007323      -0.00382657       0.00235155
H       -2.66914043      -1.41637012       1.95880767       0.03690512      -0.00138219       0.00438351       0.00140695
H        2.38743447       1.88615234      -0.18840663       0.03639594       0.00049943      -0.00437848      -0.00473785
H        4.52653058       1.22904776      -1.21341006       0.03994485       0.00018376       0.00063379      -0.00015733
