26
Properties=species:S:1:pos:R:3:charge:R:1:forces:R:3 energy=-27440.22029781979 pbc="F F F"
O       -1.00373172      -0.35446121      -1.42312963      -0.34525585      -0.00331034      -0.00728825       0.00002641
C       -0.94166533       0.61051636      -0.62538247       0.10278580      -0.00374463      -0.00169465      -0.00724075
C       -1.94100905       1.52850738      -0.33220408      -0.19938362      -0.00280414      -0.00076068       0.00221825
C       -3.27179913       1.39634362      -0.90197655      -0.04637666       0.00012509       0.00349882       0.00050282
N        0.29289576       0.83193412       0.10495976      -0.10915715      -0.00036045      -0.00237403       0.00704522
C        1.46562116       0.17021503       0.03295025       0.05890571       0.00253702       0.00037213      -0.00227092
C        2.54276369       0.56780333       0.89819336      -0.03877706       0.00320130      -0.00141441      -0.00044262
C        2.38055342       1.63539015       1.80430260       0.04821963       0.00056808       0.00090648      -0.00145432
N        2.24438474       2.52065388       2.55121054      -0.32215011       0.00620749      -0.00114049       0.00245735
C        3.77395998      -0.09860581       0.85272961      -0.05417965       0.00211474       0.00142531      -0.00421205
C        3.98476398      -1.14217428      -0.02003678      -0.07933870      -0.00013695       0.00000657       0.00112409
C        2.94177383      -1.53183427      -0.86791693      -0.07278565       0.00220185       0.00393986       0.00204366
C        1.71745215      -0.90188148      -0.84928097      -0.06107550      -0.00012258      -0.00474866       0.00050224
H       -1.79538401       2.28244341       0.43368651       0.01981177       0.00207252      -0.00038185       0.00148647
H       -3.76734261       2.34110779      -1.11359433       0.02134733      -0.00190208       0.00011991      -0.00318542
H       -3.26340784       0.77622250      -1.79393041       0.02537635       0.00227390       0.00724953       0.00045587
H        0.27062229       1.59126892       0.76908929       0.11894288       0.00391213       0.00579582       0.00421831
H        4.55897343       0.22800271       1.52190793       0.02692112      -0.00316955       0.00044751      -0.00351230
H        4.94065166      -1.64625718      -0.04469106       0.02183924      -0.00469934      -0.00148321      -0.00210530
H        3.09091890      -2.35099737      -1.56207669       0.02123145       0.00182423       0.00585729       0.00771072
H        0.91174843      -1.20027122      -1.49663132       0.02240341      -0.00168796      -0.00265478      -0.00094360
S       -4.57238790       0.56409634       0.24455683      -0.16112116      -0.00261764      -0.00512102      -0.00160504
C       -3.76215089      -1.05260243       0.41011459      -0.07745573      -0.00107211      -0.00184936      -0.00087235
H       -2.74674004      -0.92868335       0.77885258       0.02989754      -0.00403474       0.00406160      -0.00115610
H       -3.71657226      -1.56951893      -0.54625147       0.02526539       0.00216296      -0.00185393       0.00166684
H       -4.33985782      -1.64879961       1.11611237       0.02410926       0.00046119      -0.00091527      -0.00245748
