26
Properties=species:S:1:pos:R:3:charge:R:1:forces:R:3 energy=-24946.782124779496 pbc="F F F"
C       -4.66926281       0.22540547       0.65771058      -0.04954150       0.00198896       0.00462403      -0.00509112
C       -4.10741614       1.28061961      -0.04637542      -0.03796748       0.00244617       0.00073137      -0.00578224
C       -2.75494766       1.28227611      -0.33310606      -0.05197590      -0.00026455      -0.00055518      -0.00232454
C       -1.93908302       0.22714502       0.08062444       0.04693719      -0.00373773       0.00249774      -0.00177144
N       -0.57894535       0.30367369      -0.25085765      -0.09275384      -0.00674347       0.00345891       0.00332479
C        0.44319766      -0.56658327       0.03136518       0.17702109      -0.00699764       0.00115148      -0.00031758
O        0.30103216      -1.61135345       0.64659462      -0.28066555       0.00224204       0.00039101      -0.00612328
C        1.79119315      -0.10113212      -0.50256918      -0.04186139      -0.00397505      -0.00054993       0.00343462
C        2.86557048      -1.14777249      -0.29559886      -0.02871740      -0.00203484      -0.00063599      -0.00023615
S        4.52294955      -0.65233169      -0.88778456      -0.09929419      -0.00145424       0.00017910       0.00090038
C        5.01557227       0.48082905       0.44616178      -0.06840339       0.00379095       0.00037261       0.00185394
C       -2.50039734      -0.83486368       0.78846450      -0.04440229       0.00296232      -0.00171384      -0.00170056
H       -1.87441442      -1.64992129       1.10823587       0.03629134       0.00132817      -0.00173146       0.00197483
C       -3.85832935      -0.82234428       1.06769163      -0.03940267       0.00061097       0.00233255      -0.00147831
H       -5.72663233       0.22124929       0.88202050       0.04067212       0.00288342      -0.00156285       0.00203166
H       -4.72383683       2.10647830      -0.37621625       0.04098737      -0.00115544      -0.00388716       0.00535994
H       -2.32397293       2.10940478      -0.88519280       0.04012895      -0.00107863       0.00125361       0.00267707
H       -0.32443605       1.12968778      -0.76838228       0.14153090       0.00342981      -0.00431239       0.00097223
H        1.70086385       0.15392288      -1.56178612       0.04119242      -0.00202024      -0.00454239       0.00122665
H        2.06282763       0.83144170      -0.00032036       0.03907235       0.00165869      -0.00264981       0.00381163
H        2.91771905      -1.42829879       0.75344313       0.03450709      -0.00092884       0.00819646       0.00085318
H        2.62123042      -2.04962936      -0.85083972       0.04076928      -0.00114182      -0.00236244      -0.00438081
H        4.36352035       1.34935748       0.50474243       0.03781088       0.00849466      -0.00174184      -0.00273927
H        6.01926598       0.82245166       0.21000370       0.04118840       0.00029655      -0.00093301       0.00031932
H        5.03768246      -0.02546710       1.40890107       0.03734371      -0.00472654       0.00352723       0.00115640
H       -4.28591675      -1.65095556       1.61649005       0.03953256       0.00412715      -0.00153754       0.00204855
