20
Properties=species:S:1:pos:R:3:charge:R:1:forces:R:3 energy=-13010.320218879395 pbc="F F F"
C        4.22633775       0.34752496       0.07073108      -0.05219922       0.00403500      -0.00119160       0.00086922
C        3.09774347      -0.33203063      -0.08820353      -0.04173357       0.00245236       0.00032945       0.00090874
C        1.77643698       0.34643371      -0.02942128       0.17920879      -0.00036937      -0.00069270      -0.00266411
O        1.65821051       1.54924733       0.15893482      -0.29276380       0.00279688       0.00058993       0.00225985
N        0.71057806      -0.50580895      -0.20636330      -0.09739301      -0.00360060       0.00014758       0.00125257
C       -0.66129127      -0.22194584      -0.21470409       0.04472779      -0.00597614       0.00277695      -0.00348674
C       -1.53465418      -1.29176767      -0.42364545      -0.05104660      -0.00160258      -0.00241902      -0.00005252
C       -2.90160651      -1.08913039      -0.44925045      -0.03595705      -0.00129056      -0.00033428      -0.00310004
C       -3.42185736       0.18412985      -0.26678029      -0.04584887      -0.00161390      -0.00332889       0.00270668
C       -2.55528204       1.24629856      -0.05732250      -0.03843087      -0.00270534      -0.00059112       0.00197648
H       -2.94953601       2.24333364       0.08755055       0.04227230      -0.00047172      -0.00108684      -0.00124193
C       -1.18288436       1.05900269      -0.02846912      -0.04499631      -0.00307035       0.00107023      -0.00282669
H        4.19412329       1.41438256       0.24518587       0.04196897      -0.00025472      -0.00043575       0.00056112
H        5.19397721      -0.13431826       0.03201222       0.04379100       0.00266388      -0.00368626      -0.00277738
H        3.12821427      -1.40195822      -0.26478502       0.04329305      -0.00535563       0.00003916       0.00220698
H        0.93679849      -1.47508712      -0.35359616       0.13787723       0.00669620       0.00438128       0.00146588
H       -1.13893779      -2.29017694      -0.56754385       0.04273040       0.00096884       0.00131103      -0.00004535
H       -3.56318814      -1.92949362      -0.61323910       0.04355090       0.00413489       0.00156415       0.00094357
H       -4.49077287       0.34447748      -0.28733626       0.04310898       0.00041999      -0.00136144       0.00056164
H       -0.51131091       1.88374144       0.13390613       0.03783992       0.00214276       0.00291792       0.00048189
