20
Properties=species:S:1:pos:R:3:charge:R:1:forces:R:3 energy=-13010.24181351671 pbc="F F F"
C        3.66615408       0.20531758       0.96949084      -0.05847563      -0.00128732      -0.00351888       0.00138683
C        3.21034216      -0.22456376      -0.20136795      -0.02951386      -0.00361668      -0.00234024      -0.00079774
C        1.79596765      -0.53699836      -0.54227331       0.17553554      -0.00270134       0.00611424      -0.00736544
O        1.54013784      -1.35934336      -1.41171180      -0.29867557       0.00509031      -0.00428163      -0.00443646
N        0.84667009       0.16075537       0.16079268      -0.09922464       0.00015784       0.00007597       0.00645218
C       -0.54978207       0.07500382       0.08148239       0.04394044       0.00184623       0.00408889      -0.00293785
C       -1.22388191      -0.89792761      -0.65706787      -0.04341355       0.00654080      -0.00244490       0.00130065
C       -2.60969743      -0.91352137      -0.65663181      -0.03813623       0.00316056       0.00121007       0.00061528
C       -3.34053140       0.02035156       0.06177640      -0.04461626       0.00075296       0.00397885      -0.00203013
H       -4.42113232      -0.00331034       0.05009803       0.04364338      -0.00325278       0.00246276       0.00700988
C       -2.66763897       0.98785311       0.79410729      -0.03523672       0.00036957       0.00218141      -0.00175340
C       -1.28543020       1.01580240       0.80483345      -0.04983770      -0.00085955      -0.00127636      -0.00114169
H        3.02423887       0.36307102       1.82753967       0.04107402      -0.00281829      -0.00097331       0.00258893
H        4.72130592       0.37652713       1.13283329       0.04576628      -0.00035873       0.00682054      -0.00111698
H        3.89460760      -0.44891715      -1.00947605       0.04300928       0.00066913      -0.00312333       0.00057262
H        1.18507341       0.91905257       0.72793222       0.13517943       0.00119496      -0.00063915       0.00301907
H       -0.66373409      -1.62111306      -1.22375450       0.03886395      -0.00042451      -0.00388775      -0.00127530
H       -3.12254641      -1.67236710      -1.23265147       0.04273541       0.00115901      -0.00039003       0.00033883
H       -3.22029863       1.72590767       1.36005605       0.04404056      -0.00285768       0.00080283       0.00150379
H       -0.76872555       1.77527520       1.37966650       0.04334187      -0.00276373      -0.00485998      -0.00193361
