37
Properties=species:S:1:pos:R:3:charge:R:1:forces:R:3 energy=-29207.6408997997 pbc="F F F"
O        0.70890093       0.98699390       0.86295889      -0.35100371      -0.00015607      -0.00187835      -0.00280722
C        1.10589139       0.26450436      -0.08748779       0.08658097       0.00262913       0.00452467      -0.00237101
C        2.37070950       0.28379091      -0.68818064      -0.16741286       0.00291023       0.00089569       0.00326791
C        2.72522767      -0.58473203      -1.85916989      -0.10282422      -0.00179458       0.00326844       0.00367048
C        3.43798247       0.96886069      -0.00872263      -0.05228319      -0.00001122       0.00316010       0.00007632
N        0.18206178      -0.70490055      -0.63559362      -0.16448300       0.00154567       0.00896549      -0.00410678
C       -1.10927703      -0.90653759       0.00421878       0.06611021       0.00395422       0.00185906      -0.00142035
C       -0.97916896      -1.36857866       1.45730423      -0.09096259      -0.00098052      -0.00088856      -0.00045449
C       -1.82484730      -1.99705996      -0.79978460      -0.08723242      -0.00030668      -0.00048982       0.00167987
C       -1.92593112       0.38210504      -0.13443511       0.00124014       0.00792618       0.00344224       0.00496541
C       -1.76377760       1.17705991      -1.26858818      -0.05192866       0.00297590      -0.00204855       0.00056062
C       -2.52924817       2.31657954      -1.45904191      -0.06924856       0.00298212      -0.00291143      -0.00290237
C       -3.47637630       2.69378623      -0.51503031      -0.07276184       0.00334493       0.00113144      -0.00253883
C       -3.64161806       1.91658086       0.61971334      -0.07286716       0.00490100       0.00572623       0.00115610
C       -2.87049695       0.77558085       0.80634879      -0.05067459      -0.00640788      -0.00454039      -0.00384664
H        1.86050622      -0.78119757      -2.49294870       0.02543827       0.00076532      -0.00371078      -0.00231191
H        3.47405182      -0.09468754      -2.48942353       0.02078212      -0.00029582      -0.00012832      -0.00138316
H        3.16519318      -1.55538792      -1.57679827       0.01788550       0.00320425       0.00360928      -0.00123233
H        4.20358010       1.39448000      -0.65382582       0.01502662      -0.00025422      -0.00085501      -0.00037578
H        3.08986479       1.69834245       0.71264160       0.02139569      -0.00578065      -0.00095122      -0.00308684
H        0.65427543      -1.57950269      -0.80979927       0.09539702      -0.00173523       0.00762623       0.00053129
H       -1.94321879      -1.65064079       1.88297788       0.01820724      -0.00073597      -0.00054904       0.00442310
H       -0.33867271      -2.25074686       1.48665518       0.01445226      -0.00248787      -0.00295719      -0.00193057
H       -0.51496697      -0.58966103       2.05232273       0.01804834      -0.00389674      -0.00202131       0.00438724
H       -1.27861103      -2.93968818      -0.73250900       0.01586008      -0.00406526      -0.00196755       0.00244364
H       -1.89405324      -1.70646862      -1.84575523       0.01886491      -0.00129402      -0.00091813       0.00352261
H       -2.83073560      -2.15929184      -0.41483854       0.01992187      -0.00175652       0.00270486      -0.00104625
H       -1.00110416       0.90618962      -1.98376262       0.02159498      -0.00370571      -0.00341218      -0.00382333
H       -2.38017999       2.92183648      -2.34575691       0.01433763      -0.00308477      -0.00097875      -0.00132809
H       -4.07330283       3.58652165      -0.66119517       0.01650329      -0.00088923      -0.00297675       0.00033272
H       -4.36895598       2.20008074       1.37132004       0.01508520      -0.00277654      -0.00175823       0.00171122
H       -2.99579235       0.20313615       1.71348980       0.01831231      -0.00319477       0.00014855       0.00135037
S        4.60003678      -0.21351221       1.10935503      -0.19255804      -0.00163891      -0.00038131       0.00683701
C        3.24783767      -0.81219987       2.16547909      -0.08115192       0.00463018      -0.00258289      -0.00448655
H        3.64798146      -1.54363020       2.86553689       0.02011891       0.00096607      -0.00283831       0.00235431
H        2.78364181       0.00740943       2.70690332       0.02478634       0.00351899      -0.00322677      -0.00119325
H        2.47882182      -1.27321878       1.54902812       0.02144285       0.00099489      -0.00209270      -0.00062442
