37
Properties=species:S:1:pos:R:3:charge:R:1:forces:R:3 energy=-29659.473347892734 pbc="F F F"
C        4.94999835      -0.00349643       1.51168453      -0.03871566      -0.00286324      -0.00146225       0.00092151
C        3.69604641       0.55298002       1.34190351      -0.04989291       0.00365293       0.00289985       0.00267750
C        2.94029232       0.26580465       0.20341649       0.05135284      -0.00241297       0.00055829       0.00168589
N        1.67445679       0.86468481       0.11247370      -0.09231582      -0.00168777       0.00841140       0.00139713
C        0.74190892       0.79828171      -0.88957294       0.18263096      -0.00284849       0.00047780       0.00328522
O        0.86659647       0.11938021      -1.89829086      -0.28554702      -0.00100735       0.00261346       0.00281735
C       -0.51167601       1.61395275      -0.64038334      -0.04544104      -0.00378546      -0.00264064      -0.00292385
C       -1.73818299       0.70394415      -0.63231624       0.00198832      -0.00115561      -0.00524186      -0.00118492
S       -3.31592675       1.63667224      -0.52594517      -0.08671979       0.00393941       0.00587839      -0.00573566
C       -3.32203877       2.41059276      -2.17252623      -0.06582326       0.00289842      -0.00286704      -0.00059877
C       -1.69534695      -0.26911569       0.54043470      -0.00494226       0.00410414      -0.00263718      -0.00333542
N       -2.79818184      -1.21049777       0.53388537      -0.13570839       0.00061906       0.00306787      -0.00074176
C       -3.64932559      -1.12179968       1.69819073      -0.03099185      -0.00389615       0.00626792       0.00126687
C       -2.39226371      -2.56980657       0.24682534      -0.02965936       0.00301720      -0.00256772      -0.00020429
C        3.46055001      -0.58702189      -0.76807404      -0.04280444       0.00217739       0.00610174       0.00258274
C        4.71957775      -1.13711364      -0.58371183      -0.03970448      -0.00436025      -0.00459605       0.00252305
H        5.11557038      -1.79840936      -1.34287117       0.03703506       0.00257465      -0.00303133       0.00036573
C        5.47055930      -0.85567119       0.54814905      -0.05041727       0.00019628       0.00318629       0.00217380
H        6.44990470      -1.29386838       0.68067776       0.03815958      -0.00176035       0.00339046      -0.00683034
H        5.52230838       0.22973433       2.39981428       0.03853486      -0.00326056      -0.00224332      -0.00102508
H        3.29707082       1.21786270       2.09898338       0.03793895       0.00305389      -0.00674527      -0.00283050
H        1.43401759       1.44965374       0.89500067       0.13523093      -0.00468153       0.00039610      -0.00249308
H       -0.45907146       2.19357842       0.28249636       0.04102960       0.00133660       0.00235532       0.00248369
H       -0.59755476       2.32544900      -1.45726511       0.04108138       0.00646063       0.00402327      -0.00541316
H       -1.74228376       0.13866081      -1.56384138       0.02781347      -0.00021264      -0.00131518      -0.00035720
H       -4.28640677       2.89634558      -2.28965124       0.04004753       0.00245828      -0.00269606       0.00650688
H       -3.21357470       1.66138218      -2.95311598       0.03680207      -0.00270665       0.00264983       0.00318494
H       -2.54223327       3.16125042      -2.27751157       0.03689075      -0.00615078       0.00029637       0.00065368
H       -1.67382490       0.30136553       1.47786224       0.02340263       0.00018776      -0.00387245      -0.00129926
H       -0.74179641      -0.80652101       0.48412187       0.02670174       0.00833158      -0.00345749      -0.00227270
H       -3.13805860      -1.39933233       2.63560060       0.02093391      -0.00090203      -0.00249516       0.00338677
H       -4.50530830      -1.78248919       1.57564754       0.03225638      -0.00611486       0.00156160      -0.00143996
H       -4.02341180      -0.10549108       1.80179974       0.02823664      -0.00316082       0.00119314      -0.00014489
H       -1.81611035      -2.60537709      -0.67700655       0.03335136       0.00293113      -0.00306109      -0.00132723
H       -3.27727232      -3.18851631       0.11011539       0.03234686       0.00167307       0.00229642       0.00222403
H       -1.78441460      -3.02755942       1.04528136       0.02047442       0.00300629      -0.00111976       0.00077763
H        2.88165874      -0.80726750      -1.64864632       0.03444332       0.00034913      -0.00557390      -0.00075701
