36
Properties=species:S:1:pos:R:3:charge:R:1:forces:R:3 energy=-21874.50647682224 pbc="F F F"
C       -0.40691510      -1.58519154       1.48893330      -0.06263614      -0.00156891      -0.00247449      -0.00650554
C       -0.31811056      -0.35649675       0.98423215      -0.01190252      -0.00546821      -0.00039979      -0.00344059
C        0.98297908       0.27202227       0.61170017       0.17534043      -0.00228142       0.00111659      -0.00327627
O        1.14392872       1.48212293       0.71883726      -0.29278141      -0.00492045       0.00438947       0.00039132
N        1.92635040      -0.59470330       0.12262904      -0.09759705      -0.00079931      -0.00188778      -0.00260091
C        3.22808220      -0.33293063      -0.31539640       0.04553695      -0.00063484      -0.00328148      -0.00493610
C        3.85758395       0.90225440      -0.15812390      -0.04351448      -0.00360143       0.00114832      -0.00329367
C        5.15806819       1.06201931      -0.60995450      -0.03885694       0.00002810      -0.00175992       0.00159807
C        5.84558373       0.02086912      -1.21620100      -0.04778492       0.00174067      -0.00000138      -0.00327857
H        6.85840236       0.16383986      -1.56554525       0.04013021       0.00278271      -0.00233859       0.00394572
C        5.21624681      -1.20588959      -1.37157857      -0.03705543       0.00058425       0.00019134      -0.00313236
H        5.73554736      -2.02975982      -1.84342991       0.04054768      -0.00212330       0.00400322       0.00344319
C        3.91970916      -1.38207274      -0.92515929      -0.05056901       0.00373264       0.00364487      -0.00115320
C       -1.50257502       0.55413362       0.83624541      -0.00078458      -0.00856729      -0.00099624      -0.00243754
N       -2.74787764      -0.18500596       0.72606847      -0.12702444      -0.00640733       0.00081096       0.00699265
C       -2.94722299      -0.81277451      -0.57865556      -0.00878500       0.00150767       0.00141242       0.00663980
C       -3.45223202       0.15942404      -1.63599287       0.03087515       0.00075504      -0.00213210       0.00252024
O       -4.64362439       0.81613052      -1.21171134      -0.18868123       0.00214081      -0.00152320       0.00596271
C       -4.43604604       1.50578313       0.01542527       0.03265159       0.00316664      -0.00107034       0.00140507
C       -3.94459362       0.55777897       1.10100893      -0.00386383      -0.00273535       0.00292351      -0.00314431
H        0.46785862      -2.16283522       1.76080230       0.03973157      -0.00365245      -0.00743532      -0.00239648
H       -1.37490666      -2.02258964       1.68946185       0.03507497       0.00165615       0.00026138       0.00450968
H        1.60148394      -1.53104417      -0.05271583       0.13352752      -0.00236542      -0.00629044      -0.00125877
H        3.32380570       1.71556009       0.30258729       0.03664849       0.00063135       0.00432871       0.00527806
H        5.63775296       2.02363064      -0.48393719       0.03904465       0.00455303      -0.00095700      -0.00151188
H        3.43082433      -2.34111309      -1.04972159       0.04041375       0.00522950       0.00420751       0.00469354
H       -1.53470439       1.19859864       1.71983783       0.03575452       0.00436068      -0.00041148      -0.00008205
H       -1.31710011       1.23003467      -0.00840195       0.02066432       0.00626512       0.00141962       0.00059752
H       -2.01684151      -1.27853139      -0.90569675       0.03678980      -0.00134421       0.00528772      -0.00227392
H       -3.68641691      -1.60966845      -0.46239757       0.03130087       0.00294403       0.00390887       0.00290388
H       -3.70236141      -0.37448915      -2.55168081       0.03719806      -0.00312860      -0.00488052       0.00000019
H       -2.68874536       0.90550947      -1.88953648       0.02608773       0.00432472      -0.00257167       0.00422671
H       -3.72674679       2.33121981      -0.13154038       0.02619092      -0.00536132       0.00354776       0.00011650
H       -5.39741998       1.94049442       0.28891907       0.03761955       0.00725214      -0.00305973      -0.00419502
H       -4.73684534      -0.16540155       1.31103009       0.03187735       0.00043797       0.00471293      -0.00243073
H       -3.75927300       1.10201090       2.02805661       0.03883089       0.00086614      -0.00384226      -0.00387655
