32
Properties=species:S:1:pos:R:3:charge:R:1:forces:R:3 energy=-18759.788853038266 pbc="F F F"
C        1.52971959       1.16304936       0.12303754      -0.01405632      -0.00023230       0.00166027       0.00855419
C        1.16267598      -0.07896865       0.45092274      -0.01820075      -0.00205291      -0.00186720      -0.00640841
C       -0.24455300      -0.48353120       0.70834320       0.16822608      -0.00501055       0.00167038       0.00570074
O       -0.50054647      -1.41138093       1.46840617      -0.29895228       0.00183733      -0.00154598       0.00014245
N       -1.20199091       0.22721477       0.02430457      -0.09776364      -0.00422548      -0.00388441      -0.00150042
C       -2.59487468       0.10787940       0.09342176       0.04333423      -0.00101890       0.00332167       0.00096108
C       -3.34413158       0.82211277      -0.84521847      -0.05218327       0.00009427      -0.00086988      -0.00008017
C       -4.72579255       0.77480276      -0.83026054      -0.03807520       0.00154843       0.00011454       0.00347667
C       -5.38550605       0.01539349       0.12555613      -0.04930546       0.00124325       0.00103675       0.00196476
H       -6.46567936      -0.02231205       0.14443387       0.03987341       0.00120222      -0.00459143      -0.00647153
C       -4.64199733      -0.69314655       1.05791652      -0.03991678       0.00321023       0.00318154       0.00053061
H       -5.14543682      -1.29051577       1.80699770       0.03882155      -0.00302290       0.00736179      -0.00155871
C       -3.25632660      -0.65782795       1.05526105      -0.04519933       0.00179708       0.00246527      -0.00161399
C        2.19908453      -1.14902803       0.67514047      -0.00311593       0.00317909      -0.00151779       0.00067894
N        3.47376330      -0.87846925       0.02717660      -0.14398402       0.00815085      -0.00473030       0.00176671
C        3.43996614      -1.14923165      -1.39992000      -0.03554253       0.00069987      -0.00093811      -0.00319450
C        3.92303619       0.46767018       0.34643424       0.00357141      -0.00321319       0.00093000      -0.00037414
C        2.94823217       1.55801349      -0.10373892      -0.03726384      -0.00225137       0.00202136       0.00068837
H        0.78723123       1.95145309       0.04425985       0.03905537       0.00252420       0.00191182       0.00184398
H       -0.86529261       0.81626718      -0.71921608       0.13254394      -0.00300679      -0.00422478      -0.00072687
H       -2.83422720       1.42049793      -1.59128583       0.03968119       0.00087662      -0.00680801      -0.00204678
H       -5.28849927       1.33297112      -1.56710506       0.04035204       0.00410431       0.00021226       0.00607601
H       -2.68568659      -1.21461548       1.77769292       0.03614880      -0.00457136      -0.00539623      -0.00412258
H        1.81579078      -2.10586698       0.32752043       0.03469596      -0.00304360       0.00142865       0.00019274
H        2.36487078      -1.26666260       1.75049840       0.03325456      -0.00118569       0.00162060       0.00321714
H        3.21223998      -2.20181224      -1.55731286       0.03466438       0.00078448      -0.00335268      -0.00150380
H        4.41907033      -0.95447257      -1.83532007       0.03470250       0.00193204       0.00370782      -0.00272349
H        2.69404939      -0.55928927      -1.95014043       0.02396073      -0.00436726       0.00113244      -0.00106345
H        4.04934536       0.51663675       1.42961352       0.03054723       0.00474763       0.00479836      -0.00271866
H        4.90633743       0.63325550      -0.09591664       0.03245080      -0.00585275      -0.00418716       0.00222498
H        3.15536424       2.49519932       0.41774743       0.03644495       0.00623892       0.00199615      -0.00131900
H        3.09218455       1.78835602      -1.16496899       0.03123020      -0.00111572       0.00334272      -0.00059324
