65
Properties=species:S:1:pos:R:3:charge:R:1:forces:R:3 energy=-66041.03011134797 pbc="F F F"
C        0.15943861      -3.59233867       0.18013526       0.08242475       0.00160339       0.00125077      -0.00148059
N        1.45901942      -3.41448047      -0.11343661      -0.20308198       0.00103805       0.00311396      -0.00032973
C        1.89160841      -2.16418325      -0.19354822       0.13649496      -0.00056088       0.00153326      -0.00328473
N        3.20420506      -1.93021784      -0.48614899      -0.07852032       0.00133820      -0.00047124      -0.00110873
C        4.25979371      -2.80069905      -0.76799473       0.05086177       0.00276061      -0.00140541      -0.00301428
C        5.50079156      -2.21107854      -1.02957229      -0.04620694       0.00605687      -0.00130672       0.00077443
C        6.60683526      -2.98329078      -1.32056520      -0.04655836       0.00560664      -0.00375136       0.00253750
C        6.49349153      -4.35978967      -1.35406485       0.08779411      -0.00417985      -0.00361956       0.00116691
F        7.57625534      -5.10745883      -1.63486579      -0.09597284       0.00062609       0.00569906      -0.00393694
C        5.26728075      -4.95607935      -1.09761112       0.02103100      -0.00330692      -0.00635967       0.00278310
Cl       5.13454418      -6.69598708      -1.14340177      -0.07148031       0.00025789       0.00049736      -0.00072991
C        4.14955318      -4.19059895      -0.80556209      -0.04420846      -0.00147684      -0.00231128       0.00060991
C        1.01776150      -1.04693226       0.01909754      -0.02041015       0.00114770      -0.00045952       0.00399469
C        1.38998116       0.30438252      -0.06369511      -0.04817818       0.00087517      -0.00330906      -0.00146666
C        0.46929810       1.30569652       0.13824581       0.03302702      -0.00017318      -0.00485282       0.00246762
N        0.75294277       2.66890403       0.06433677      -0.08857368      -0.00267861      -0.00189697       0.00292195
C        1.94612320       3.29935647      -0.17031515       0.18467574      -0.00077462      -0.00160243      -0.00022618
O        2.99355108       2.70623885      -0.39530947      -0.27758008      -0.00103826       0.00150215      -0.00109834
C        1.83834779       4.81265924      -0.11504377      -0.04078716       0.00033077      -0.00025718      -0.00104986
C        3.08816347       5.48573642      -0.64775404      -0.02914895      -0.00008052      -0.00038497      -0.00028610
S        3.06010840       7.31068520      -0.54965403      -0.09856065       0.00385131      -0.00832395       0.00233234
C        3.39202151       7.54684647       1.22169250      -0.06814374      -0.00044301      -0.00042036      -0.00061940
C       -0.87728501       0.96002150       0.44426831       0.07008328      -0.00112153       0.00028713      -0.00121425
O       -1.71813612       2.02030218       0.59081954      -0.13021669       0.00159588       0.00272817       0.00198426
C       -3.10199449       1.76557703       0.86932046       0.05545916       0.00089024      -0.00203611      -0.00097435
C       -3.88127623       1.32043112      -0.36258591      -0.04850520      -0.00175948      -0.00192022       0.00340392
C       -5.01731161       0.37580243       0.00462744       0.00379828      -0.00218855       0.00083924      -0.00016401
N       -4.52433221      -0.91827114       0.44369852      -0.12192822       0.00336421       0.00135797      -0.00081945
C       -5.33495118      -1.52726004       1.49214187      -0.00287738       0.00237319       0.00199311      -0.00187355
C       -4.99534715      -2.99480981       1.60085660       0.03111548      -0.00058037       0.00026034      -0.00191027
O       -5.37286708      -3.71743450       0.42957452      -0.20046081      -0.00622369       0.00141336      -0.00211349
C       -5.24809888      -2.94728647      -0.76627070       0.03252945       0.00032128       0.00189357      -0.00080361
C       -4.20149494      -1.86309987      -0.63603418      -0.00544548       0.00086012      -0.00132919       0.00121946
C       -1.24892485      -0.35394529       0.56718376      -0.06834945      -0.00118457       0.00125706       0.00097020
C       -0.32429341      -1.38028097       0.33239463       0.05262799      -0.00054603       0.00109065      -0.00369636
N       -0.75020566      -2.67461199       0.39867762      -0.20605226       0.00430629       0.00123173       0.00851965
H       -0.16690629      -4.62441320       0.23979892       0.04089414       0.00008884       0.00107034       0.00091586
H        3.47441713      -0.96388271      -0.50773863       0.13078089      -0.00042430       0.00017731       0.00033343
H        5.60422192      -1.13474948      -1.00502420       0.04322916      -0.00036773       0.00270328      -0.00183928
H        7.56495803      -2.52802784      -1.52287696       0.04776239       0.00700638       0.00535791       0.00036569
H        3.20499400      -4.66512098      -0.60858855       0.03379887       0.00081065      -0.00198600       0.00182684
H        2.39750479       0.60600440      -0.28970254       0.03621657      -0.00113350       0.00434081      -0.00351913
H       -0.05271048       3.25448780       0.23141890       0.12848911      -0.00264039       0.00171709      -0.00167512
H        0.95606056       5.14425088      -0.66745908       0.04235601      -0.00154137      -0.00005667       0.00274439
H        1.66219326       5.10567341       0.92379776       0.04001844       0.00178800      -0.00077215      -0.00091561
H        3.21687106       5.25937734      -1.70352665       0.04104270      -0.00046071       0.00147484       0.00024873
H        3.96560700       5.10374638      -0.13259641       0.03515001      -0.00370390      -0.00153142       0.00045465
H        3.47053765       8.61842925       1.38080995       0.04159915      -0.00133191       0.00024571      -0.00040400
H        4.33118522       7.08215191       1.51491663       0.03762700      -0.00096785       0.00238843       0.00074698
H        2.58582225       7.16617646       1.84430634       0.03827740      -0.00127753      -0.00243585      -0.00440186
H       -3.46745535       2.71289332       1.25838676       0.03507135       0.00159652      -0.00573899       0.00019466
H       -3.18874946       1.03633017       1.67370206       0.02853970      -0.00626325       0.00192721      -0.00070902
H       -3.20745658       0.81995639      -1.05714609       0.02616884      -0.00233640       0.00731137       0.00024227
H       -4.26321899       2.20044715      -0.87989673       0.03798652       0.00338744      -0.00463121       0.00145850
H       -5.71360426       0.27363812      -0.84178184       0.02397597      -0.00321588       0.00023784      -0.00070252
H       -5.59683403       0.81992982       0.81956826       0.03173016      -0.00213161      -0.00229152       0.00235702
H       -5.12934576      -1.02985398       2.44432061       0.03546794       0.00186295       0.00050034       0.00016549
H       -6.41525265      -1.41982454       1.29984096       0.02362836       0.00079786      -0.00330683       0.00009699
H       -3.91990432      -3.10323746       1.78647213       0.02543657       0.00127029       0.00855373       0.00258593
H       -5.53131486      -3.44945373       2.43077362       0.03770885      -0.00201010      -0.00064211      -0.00210354
H       -6.21618773      -2.49958124      -1.02297159       0.02243839       0.00236525       0.00370506       0.00068454
H       -4.98038430      -3.63879588      -1.56501427       0.03842505      -0.00290608       0.00196627      -0.00100560
H       -4.11816327      -1.32745505      -1.58083874       0.03852671      -0.00030905      -0.00201174       0.00341971
H       -3.23298430      -2.33100868      -0.44766441       0.02677242       0.00165051       0.00182171      -0.00095879
H       -2.25646142      -0.62592590       0.82712809       0.03020565      -0.00049163      -0.00202650      -0.00409325
