36
Properties=species:S:1:pos:R:3:charge:R:1:forces:R:3 energy=-22338.04675963931 pbc="F F F"
C        1.82589962      -1.64653020      -0.79973169      -0.03639631       0.00747226      -0.00158259       0.00017769
C        0.35686392      -1.86255380      -0.77889017       0.17393929       0.00673801      -0.00021579      -0.00320069
O       -0.12065633      -2.89936389      -1.21896567      -0.30196711       0.00180172       0.00015404      -0.00106457
N       -0.38826160      -0.82299935      -0.27535420      -0.10016189       0.00366841      -0.00320857       0.00299320
C       -1.77782873      -0.72833317      -0.13268655       0.04193007      -0.00000984      -0.00054008       0.00113291
C       -2.62021100      -1.86653057      -0.17755566      -0.04309516      -0.00258905      -0.00126092      -0.00465604
H       -2.19204666      -2.83847377      -0.35055762       0.04146070      -0.00054827      -0.00373567      -0.00135003
C       -3.96952952      -1.72280913      -0.01086789      -0.03499997      -0.00253068       0.00251449       0.00051805
C       -4.55674042      -0.46029462       0.20216534       0.05217233      -0.00093045       0.00418730       0.00023840
N       -5.90339416      -0.37485385       0.34893591      -0.18547030       0.00021772       0.00146956       0.00295430
C       -6.42415560       0.81669724       0.54587826       0.03113496      -0.00060568       0.00098342       0.00608088
C       -5.67059936       2.00336018       0.61557371      -0.04865400       0.00111621      -0.00177974      -0.00578871
H       -6.17153552       2.94715082       0.78173456       0.04713811      -0.00279767      -0.00804967      -0.00019622
C       -4.31263903       1.93601717       0.46875595      -0.01676039       0.00116414       0.00013944       0.00578479
H       -3.70271371       2.82960846       0.51674146       0.04572541      -0.00488909       0.00132923      -0.00205514
C       -3.70416628       0.68282981       0.25263736      -0.00021062      -0.00042002       0.00309492      -0.00140651
C       -2.32241797       0.51750438       0.08570214      -0.05866524      -0.00068284       0.00121804      -0.00138612
C        2.53540607      -0.87652259       0.02122700      -0.01331833      -0.00224140       0.00896553      -0.00378370
C        4.00871470      -0.68329198      -0.10138438       0.00574289      -0.00225244      -0.00548724       0.00052126
N        4.41430966       0.71918051      -0.15162280      -0.12992102       0.00084158      -0.00835142       0.00112188
C        4.29373777       1.37504406       1.13720678      -0.02814115      -0.00254784      -0.00223670      -0.00220364
C        5.75876545       0.84990521      -0.68055866      -0.02760812       0.00138327      -0.00090899       0.00090831
H        2.31761929      -2.24102047      -1.56034499       0.04075874       0.00397437       0.00159921       0.00168029
H        0.11314017       0.03779427      -0.12445326       0.13584343      -0.00388765       0.00487442      -0.00294016
H       -4.62729037      -2.58075338      -0.04240458       0.04367207       0.00211687      -0.00102324       0.00019820
H       -7.50263591       0.85346694       0.65820293       0.04169044      -0.00181653       0.00310227       0.00169123
H       -1.68805282       1.39668320       0.12567538       0.04679651      -0.00053295      -0.00062199       0.00046078
H        2.04773858      -0.37860575       0.85422434       0.03591019      -0.00008554       0.00607137       0.00177972
H        4.35134342      -1.17827046      -1.00966474       0.03276861       0.00105820       0.00002691       0.00246119
H        4.49594033      -1.20362952       0.74478049       0.02421163       0.00151508      -0.00097705      -0.00242021
H        4.59786274       2.41611715       1.04790604       0.03577662       0.00164985       0.00115617       0.00070586
H        4.91743726       0.90539109       1.91472510       0.02286277       0.00120246       0.00054687      -0.00018898
H        3.26388280       1.36945075       1.48825098       0.03353307      -0.00448143       0.00204935      -0.00086815
H        6.01617639       1.90352254      -0.75967646       0.03561350       0.00276693       0.00204409      -0.00013788
H        5.80765106       0.41930001      -1.67852223       0.03492830      -0.00538607      -0.00276524       0.00046346
H        6.52603441       0.35875327      -0.05838744       0.02176002       0.00054879      -0.00278041       0.00177348
