41
Properties=species:S:1:pos:R:3:charge:R:1:forces:R:3 energy=-34258.979742575095 pbc="F F F"
C        4.63899751       0.70696091      -1.37907730      -0.04542978      -0.00026510      -0.00436022       0.00121947
C        5.95136583       0.67561435      -0.98208229      -0.08252323      -0.00133397       0.00157553       0.00050907
C        6.28684938       0.04608152       0.22761069      -0.00703623       0.00205934      -0.00189857      -0.00255977
N        5.40586266      -0.52687373       1.02570332      -0.21072975      -0.00085894       0.00393990      -0.00047780
C        4.10324809      -0.50034178       0.64955719       0.03927939       0.00006456       0.00118507      -0.00502522
C        3.64825004       0.11008037      -0.56765741      -0.01393308      -0.00220521       0.00320149      -0.00217313
C        2.28835026       0.10303775      -0.90637812      -0.07847880      -0.00088273       0.00345256       0.00040833
C        1.35435093      -0.46505546      -0.05239811       0.02482431       0.00317590      -0.00312762      -0.00582878
N        0.00475415      -0.45167064      -0.27659343      -0.12003031       0.00169796       0.00523745      -0.00036308
C       -0.72525112      -0.07566802      -1.44173397       0.12336880      -0.00071943      -0.00389078       0.00145417
C       -2.12629974      -0.19993723      -1.27963072      -0.15832411      -0.00182531       0.00692757       0.00339673
C       -2.81025295      -0.41871564      -0.05980437       0.00415436      -0.00066551       0.00184609       0.00039608
C       -2.58889079       0.52691430       1.12805357      -0.00956526      -0.00151470      -0.00352176      -0.00214306
N       -3.31022919       1.79598748       1.04815736      -0.13610180       0.00464745      -0.00228457       0.00218973
C       -4.74734189       1.64319727       0.98383207      -0.03638692       0.00506333      -0.00167203      -0.00143293
C       -2.81023718       2.68285645       0.01354688      -0.04140012       0.00077362      -0.00102997      -0.00094124
O       -0.13995979       0.24952219      -2.49175116      -0.36258811       0.00123747      -0.00163800       0.00801162
C        1.81102713      -1.07826196       1.14899905      -0.07540593      -0.00100457       0.00004858       0.00212386
C        3.13204663      -1.09669269       1.48524367      -0.06552356       0.00295512       0.00049510      -0.00288139
H        7.32359626       0.01228830       0.55176130       0.01761735       0.00119879       0.00119470       0.00022045
H        1.94321798       0.53525372      -1.83289969       0.02818387       0.00600040       0.00417647      -0.00258404
H       -0.57371061      -0.95427201       0.39345752       0.09176239       0.00002337       0.00894381       0.00080618
H       -2.68330308      -0.26645934      -2.20471417       0.01633064       0.00305022       0.00333795       0.00247095
H       -3.86475325      -0.60537081      -0.20346130       0.02024528       0.00260227      -0.00359936      -0.00191814
H       -1.53362159       0.76159731       1.23932050       0.02132494      -0.00481459      -0.00260422      -0.00047677
H       -2.90367114       0.02893942       2.04248143       0.01356279      -0.00383146       0.00127557      -0.00339337
H       -5.07875976       0.93898547       1.74748094       0.02397062      -0.00137835       0.00503298      -0.00012341
H       -5.22654288       2.60437153       1.17595034       0.02301076       0.00096342      -0.00505678      -0.00142903
H       -5.11126110       1.27368195       0.01181745       0.01512123      -0.00801414       0.00225889       0.00198865
H       -2.99846997       2.31276483      -1.00004991       0.01803358      -0.00015982      -0.00599994      -0.00267546
H       -3.28010902       3.66194844       0.12610277       0.02293938      -0.00159392       0.00170010       0.00220089
H       -1.73491241       2.81070433       0.12082879       0.02740609       0.00233318      -0.00000862       0.00467038
H        3.46524417      -1.56764307       2.40072304       0.02490241      -0.00553522       0.00093640       0.00311047
H        6.72970894       1.12777839      -1.58392224       0.02623145      -0.00304135      -0.00408710      -0.00301694
H        4.35294035       1.18583416      -2.30809207       0.02629705       0.00273794      -0.00748812       0.00498288
H        1.07402949      -1.54063381       1.79634124       0.03466570      -0.00382252      -0.00202724      -0.00068417
S       -2.38981778      -2.33189494       0.87973828      -0.18961333      -0.00097484      -0.00154170      -0.00073152
C       -1.81557782      -3.29894631      -0.55268099      -0.08991309       0.00393171      -0.00354321      -0.00366550
H       -0.92094265      -3.86394912      -0.28755820       0.02887802       0.00171232       0.00225516       0.00333678
H       -1.56434742      -2.59171305      -1.34507555       0.02568297      -0.00559090       0.00060339       0.00196628
H       -2.58530647      -3.98217850      -0.91411474       0.02519007       0.00380312      -0.00024453      -0.00093846
