23
Properties=species:S:1:pos:R:3:forces:R:3 charge=0 spin=1 energy=-144.86196899414062 free_energy=-144.86196899414062 stress="0.0 0.0 0.0 0.0 0.0 0.0 0.0 0.0 0.0" pbc="F F F"
C        4.12431496      -0.48645929       0.07326528       0.00138322      -0.00243808       0.00408638
C        3.31058273       0.36943174      -0.54906996      -0.00099830       0.00162865      -0.00078622
C        2.03145002       0.85472533       0.06359900      -0.00528507       0.00444227      -0.00121127
O        1.64579825       2.01698270      -0.11502276       0.00160367       0.00034532       0.00024229
N        1.36689631      -0.02843808       0.87103431      -0.00304788       0.00380298       0.00018577
C        0.14077660       0.34382533       1.56655923       0.00233680       0.00238277      -0.00378171
C       -1.12364906       0.06586100       0.76869495       0.00225990       0.00083691      -0.00154182
C       -2.02930030      -0.92066052       1.16775463      -0.00074626       0.00193778      -0.00070754
C       -3.17929243      -1.17701358       0.41118958      -0.00341576      -0.00485852      -0.00083402
C       -3.43295626      -0.44647165      -0.75027147      -0.00100404       0.00248795       0.00637975
C       -2.53133226       0.54505247      -1.15013033       0.00205089      -0.00152709      -0.00221887
C       -1.38101312       0.80115443      -0.39671969       0.00462066       0.00027156       0.00240627
H        5.08672000      -0.76318920      -0.35948795      -0.00169840      -0.00092553       0.00159069
H        3.88218046      -0.92327599       1.04270949      -0.00046125       0.00094877      -0.00146216
H        3.58581581       0.88342784      -1.47068502       0.00098044      -0.00101426       0.00287908
H        1.61532054      -1.01188680       0.83192160      -0.00038350      -0.00389617      -0.00341574
H        0.09752553      -0.19251410       2.52338715       0.00104041       0.00022440      -0.00016809
H        0.21522103       1.42479871       1.76065620       0.00290485       0.00046363      -0.00147022
H       -1.83669258      -1.49185534       2.07892000      -0.00065571      -0.00447296      -0.00228328
H       -3.87445058      -1.95528969       0.73714334      -0.00120467       0.00289083      -0.00041732
H       -4.32963655      -0.64662708      -1.34345959      -0.00346717       0.00069318       0.00231168
H       -2.71837317       1.12621298      -2.05681970       0.00220619      -0.00451696       0.00133756
H       -0.67228177       1.57536490      -0.70165853       0.00098106       0.00029254      -0.00112091
