29
Properties=species:S:1:pos:R:3:forces:R:3 charge=0 spin=1 energy=-173.0311737060547 free_energy=-173.0311737060547 stress="0.0 0.0 0.0 0.0 0.0 0.0 0.0 0.0 0.0" pbc="F F F"
C       -4.62237144      -0.26910902      -0.48467459       0.00059390       0.00175127       0.00088266
C       -4.09887576       0.99142951      -0.77785120       0.00101313       0.00131974       0.00382036
C       -2.73612588       1.24349959      -0.61048753      -0.00202027       0.00293022      -0.00278719
C       -1.88739213       0.23126954      -0.14179844      -0.00235017      -0.00057367       0.00136014
N       -0.49916462       0.51578406       0.05864075      -0.00074142      -0.00655381      -0.00292106
C        0.44184238      -0.36598688      -0.43580742      -0.00045669      -0.00661713      -0.00025675
O        0.12441825      -1.39100157      -1.04779909      -0.00657566      -0.00143090       0.00161358
C        1.90515003      -0.01962560      -0.17228376       0.00044602      -0.00119099      -0.00077006
C        2.83465593      -1.01103671      -0.84889016      -0.00054324      -0.00046945      -0.00445440
S        4.59038276      -0.64158565      -0.62884830       0.00336432       0.00063150      -0.00419644
C        4.84469266      -1.10153472       1.09572399      -0.00204473       0.00258072      -0.00058107
C       -0.13793933       1.76565849       0.72600276      -0.00015838      -0.00206251       0.00276290
C       -2.40941366      -1.03478289       0.14861477      -0.00400671      -0.00461355      -0.00051205
C       -3.77158847      -1.27898000      -0.02376740       0.00187840       0.00054052      -0.00189250
H       -5.68980550      -0.46678155      -0.62100531       0.00136793       0.00185732      -0.00102955
H       -4.74721378       1.78867753      -1.14842737       0.00154617      -0.00064638       0.00031962
H       -2.31817117       2.21659127      -0.87628996       0.00166399      -0.00015345       0.00081976
H        2.06319215      -0.00412692       0.91953631      -0.00379442       0.00801774       0.00046255
H        2.10782922       1.00284795      -0.52759042       0.00052978       0.00317322       0.00050061
H        2.66315764      -0.98633290      -1.93389453       0.00057787      -0.00142482       0.00414318
H        2.60567455      -2.03589976      -0.52597526      -0.00078207      -0.00232570       0.00251959
H        4.27121298      -0.46968122       1.78843732       0.00365948       0.00128546       0.00009023
H        5.91150016      -0.95391996       1.30489989      -0.00044268       0.00181689      -0.00043955
H        4.59878268      -2.15638293       1.27916488       0.00172639       0.00078665       0.00379351
H        0.59413440       1.58724751       1.52407717      -0.00005642      -0.00149875       0.00084482
H        0.28666078       2.50410779       0.02887822       0.00575835      -0.00089502      -0.00278415
H       -1.03651701       2.19306433       1.18254413      -0.00043050       0.00313485       0.00192858
H       -1.73035993      -1.81492654       0.49282874      -0.00008994      -0.00265685      -0.00242989
H       -4.16690914      -2.27276318       0.19937850       0.00036748       0.00328723      -0.00080726
