25
Properties=species:S:1:pos:R:3:forces:R:3 charge=-1 spin=1 energy=-152.17913818359375 free_energy=-152.17913818359375 stress="0.0 0.0 0.0 0.0 0.0 0.0 0.0 0.0 0.0" pbc="F F F"
C        2.70545079      -1.08816812      -2.08222748       0.00229254      -0.00224745      -0.00102985
C        1.52007819      -0.24037683      -1.90065360      -0.00315833      -0.00393170       0.00045826
C        0.59865185      -0.54026379      -0.84732425       0.00000715       0.00077343      -0.00226784
O        0.72104991      -1.51541855      -0.07659042       0.00015456       0.00633738      -0.00083708
N       -0.44080886       0.39629591      -0.71272532      -0.00313842      -0.00367153       0.00666175
C       -1.49035400       0.41086730       0.20778762       0.00123550       0.00447144       0.00170907
C       -1.79372800      -0.68047244       1.04179704      -0.00287312       0.00348639      -0.00487471
C       -2.87116187      -0.58690788       1.92457705      -0.00132202      -0.00282037      -0.00056702
C       -3.66525613       0.56051855       2.00372511      -0.00163857       0.00047946      -0.00319154
C       -3.34259249       1.62326265       1.16332557       0.00363690       0.00053345       0.00400309
C       -2.27994865       1.58014933       0.27368285      -0.00276072      -0.00255665       0.00097930
F       -4.10017755       2.75580234       1.21865899      -0.00051939      -0.00029464      -0.00180302
H        2.62484268      -2.06252866      -1.58217167      -0.00013825      -0.00115231       0.00128172
H        3.01865270      -1.19889647      -3.12733502      -0.00004091      -0.00193185       0.00316873
H        1.36525250       0.63644467      -2.53417254      -0.00033922       0.00345188      -0.00185646
H       -0.40788048       1.18665883      -1.35070886       0.00200513       0.00265322      -0.00187158
H       -1.17152505      -1.57505011       0.97716673      -0.00096169       0.00070411      -0.00050923
H       -3.10172449      -1.43805653       2.56965929       0.00114340      -0.00588843      -0.00027514
H       -4.51127300       0.64294306       2.68858730      -0.00173852      -0.00182542       0.00112967
H       -2.06538659       2.44473347      -0.35444504       0.00314236       0.00274424      -0.00157174
S        4.01108808      -0.05955638      -1.30922554      -0.00213143      -0.00178909       0.00177069
C        3.69497150      -0.28957240       0.44511274       0.00083715      -0.00210869       0.00390601
H        4.56587725       0.13965958       0.95647249       0.00120480       0.00029600      -0.00041065
H        2.78943217       0.23319867       0.77702307       0.00352504      -0.00047141      -0.00385171
H        3.61328137      -1.35284855       0.70164642       0.00157590       0.00475831      -0.00015055
