35
Properties=species:S:1:pos:R:3:forces:R:3 charge=0 spin=1 energy=-223.30133056640625 free_energy=-223.30133056640625 stress="0.0 0.0 0.0 0.0 0.0 0.0 0.0 0.0 0.0" pbc="F F F"
C       -1.73155640      -0.31090975      -0.24182744      -0.00252638      -0.00194165      -0.00028273
C       -0.27758829      -0.64967989      -0.27291664       0.00550860       0.00154454      -0.00047335
O        0.09699675      -1.81991087      -0.17499580      -0.00138745      -0.00205371      -0.00263936
N        0.59482191       0.42383443      -0.37498303      -0.00433619      -0.00112969      -0.00186231
C        1.99375830       0.38419651      -0.34977116       0.00469939      -0.00128518      -0.00051642
C        2.67345272       1.59327913      -0.68026201      -0.00693119       0.00133345      -0.00196876
H        2.07955322       2.47151312      -0.94446238       0.00182141       0.00022084      -0.00214947
C        4.04633703       1.65636954      -0.67599142       0.00036372      -0.00004411      -0.00001523
C        4.81853773       0.50914139      -0.33941923      -0.00066723       0.00216550       0.00236431
N        6.16908663       0.57161726      -0.34300265       0.00179452       0.00280841       0.00284412
C        6.85892346      -0.52319578      -0.02284061      -0.00219029      -0.00236313       0.00162061
N        6.31246519      -1.71978267       0.31781343      -0.00177342      -0.00234014       0.00007103
C        4.99211529      -1.80226607       0.32891969       0.00588934       0.00177765      -0.00317341
H        4.55427091      -2.76750159       0.60275595      -0.00088780      -0.00212887      -0.00166979
C        4.13622472      -0.70348748       0.00112114       0.00152180      -0.00047788       0.00457156
C        2.72281924      -0.75523303      -0.00614636       0.00184725       0.00435433       0.00062083
C       -2.24782623       0.79548339       0.32343267      -0.00342803       0.00246534       0.00174674
C       -3.71900605       1.05675665       0.44513988       0.00199305      -0.00197457      -0.00018072
N       -4.52718616      -0.15861221       0.33948624      -0.00260675       0.00478560       0.00141430
C       -5.89750308       0.10412783      -0.08505064       0.00136872       0.00120110       0.00155593
C       -4.47881359      -0.95423619       1.56441965      -0.00169330      -0.00054853      -0.00127017
H       -2.37399241      -1.12553945      -0.57799243       0.00041424      -0.00279382       0.00419931
H        0.17768345       1.32850252      -0.58109221      -0.00135670      -0.00323873      -0.00241004
H        4.59358105       2.56593898      -0.92926164      -0.00246949       0.00247952      -0.00325494
H        7.94775556      -0.45895657      -0.03407209      -0.00099194      -0.00261126       0.00070663
H        2.19556728      -1.67782414       0.24037983       0.00440863      -0.00185630       0.00234775
H       -1.60285794       1.58145857       0.72876105      -0.00304906       0.00348601      -0.00206718
H       -4.02154197       1.74517340      -0.36584739       0.00129646      -0.00193653       0.00304410
H       -3.90650470       1.61624536       1.38473037      -0.00028242       0.00002936      -0.00392637
H       -6.45860095       0.75078218       0.61792063       0.00328375       0.00016216       0.00277774
H       -5.90212167       0.59476982      -1.06742292      -0.00058070       0.00355275       0.00021493
H       -6.44613934      -0.84285951      -0.17510132      -0.00455865      -0.00128940       0.00018934
H       -3.43780154      -1.09461607       1.88483332       0.00399655      -0.00258117      -0.00080313
H       -5.02611138      -0.48531501       2.40433357       0.00292058       0.00091146      -0.00288862
H       -4.91919218      -1.94518857       1.39002730      -0.00141100      -0.00068316       0.00126267
