59
Properties=species:S:1:pos:R:3:forces:R:3 charge=-1 spin=1 energy=-368.7532958984375 free_energy=-368.7532958984375 stress="0.0 0.0 0.0 0.0 0.0 0.0 0.0 0.0 0.0" pbc="F F F"
F       -2.35206765       2.94752712       1.74920825       0.00059412      -0.00418937       0.00044599
C       -3.67147213       3.25210985       1.52209218      -0.00242347       0.00140749      -0.00110954
C       -4.23268355       4.40933254       2.04575111      -0.00515871      -0.00044672       0.00111346
C       -5.58032710       4.67785296       1.78867144      -0.00111142       0.00648119       0.00136443
C       -6.32903003       3.78325831       1.01690089      -0.00135881      -0.00366974       0.00002322
C       -5.76055469       2.61929326       0.49192285       0.00006312       0.00185485       0.00277305
C       -4.41030100       2.34083377       0.74169573       0.00077662      -0.00015723       0.00237017
N       -3.69416624       1.22210647       0.30813813      -0.00951531      -0.00195082       0.00087002
C       -4.06677312       0.20412269      -0.53446280       0.00325505       0.00220615      -0.00403890
N       -5.28047445       0.23563321      -1.09781630      -0.00686091       0.00212508       0.00123793
C       -5.58892016      -0.75656741      -1.95492659       0.00253886      -0.00526733      -0.00543684
N       -4.81035205      -1.77147419      -2.31904632       0.00328529       0.00142813       0.00261739
C       -3.58066248      -1.82908617      -1.74592750      -0.00656584       0.00245488      -0.00117123
C       -3.12829167      -0.85844297      -0.80021210      -0.00708738       0.00032931       0.00275387
C       -1.83845745      -1.02613510      -0.22159788       0.00400136      -0.00323763      -0.00282183
C       -1.01531288      -2.07829522      -0.58046410       0.00058398       0.00537527       0.00133678
C       -1.46460058      -3.03371220      -1.55692473       0.00604133       0.00024995       0.00511996
C       -2.72411332      -2.90306753      -2.10929356       0.00103785      -0.00266501      -0.00803450
O       -0.55998726      -3.99965312      -1.84267205       0.00034145       0.00551988       0.00308982
C       -0.90649326      -5.00128218      -2.81053525      -0.00130901      -0.00216164       0.00144814
O        0.21181270      -2.34588869      -0.06191398       0.00517210      -0.00053674       0.00171597
C        0.91960043      -1.34063667       0.70049693       0.00306424      -0.00458358      -0.00084567
C        1.32779584      -0.15406309      -0.18397168       0.00199819       0.00064433       0.00229417
C        2.53810687       0.57455551       0.38308303      -0.00136785       0.00476542       0.00149214
N        3.69618665      -0.32190820       0.41798286      -0.00302689      -0.00007105       0.00288556
C        3.38958365      -1.76254242       0.39437165      -0.00601092       0.00013956      -0.00350474
C        2.16065132      -2.04536743       1.25988465      -0.00757229      -0.00391490      -0.00052664
C        4.97000121       0.07811488       0.77575141       0.00723484       0.00125450      -0.00278638
O        5.90756165      -0.75184111       0.87664549      -0.00528384       0.00120267       0.00119635
C        5.21040452       1.49213667       0.98102222      -0.00257415      -0.00048992       0.00255885
C        6.58237970       1.93471895       1.23363023       0.00303304      -0.00281036       0.00226147
Cl      -3.26193368       5.47579817       2.98798952      -0.00099660      -0.00088167       0.00027929
H       -6.02258834       5.58939518       2.19695964      -0.00083126      -0.00492194      -0.00253958
H       -7.38179579       3.99998984       0.81758518       0.00085741       0.00328858      -0.00070511
H       -6.32611701       1.91309397      -0.11979904       0.00197290      -0.00035347       0.00020789
H       -2.73637634       1.21784361       0.65104274       0.00572608       0.00055287       0.00047705
H       -6.58338587      -0.71906153      -2.41006918       0.00267923      -0.00056271      -0.00092840
H       -1.48992984      -0.33927545       0.54735406       0.00262005       0.00224493       0.00019431
H       -3.11193979      -3.60434411      -2.84585172      -0.00566746       0.00314462       0.00182271
H       -1.78415751      -5.58623089      -2.48945788       0.00189577      -0.00220346      -0.00131506
H       -0.03139152      -5.65800761      -2.87972804       0.00384431      -0.00078318       0.00429262
H       -1.11261777      -4.55458707      -3.79701387      -0.00087658      -0.00187775      -0.00528656
H        0.28535992      -0.99397022       1.53460327       0.00086321      -0.00387954       0.00460517
H        0.49650410       0.55438264      -0.28726329       0.00083980       0.00327862      -0.00089803
H        1.55238090      -0.53056252      -1.19337714      -0.00453733       0.00398492      -0.00200355
H        2.76693995       1.45142775      -0.23744959       0.00412565       0.00145027      -0.00099656
H        2.30272818       0.96658711       1.39191054       0.00144513       0.00011162      -0.00108027
H        3.20830883      -2.10523183      -0.63961081       0.00095408       0.00314710      -0.00122145
H        4.28386379      -2.27896622       0.76323786       0.00132377       0.00031322      -0.00207344
H        2.35485249      -1.68438353       2.28115455       0.00077143       0.00032276       0.00528640
H        1.95852977      -3.12231668       1.31485753       0.00450294       0.00427660      -0.00308009
H        4.40576273       2.22391566       0.91560382       0.00297883      -0.00284653      -0.00074066
H        7.25316279       1.12126886       1.54123121       0.00279984      -0.00124753       0.00140403
H        6.66085824       2.80227759       1.90027017      -0.00035735      -0.00281523       0.00179511
S        7.03719234       2.58167830      -0.42021588       0.00108463      -0.00160764      -0.00911324
C        7.29337673       1.07832878      -1.37425349      -0.00138577       0.00440121      -0.00282978
H        7.83407323       1.39367426      -2.27542683      -0.00275616      -0.00228363       0.00069296
H        6.34664576       0.60840367      -1.66859449      -0.00486695      -0.00218770       0.00229020
H        7.89734213       0.35301082      -0.81661685       0.00519570      -0.00335167       0.00077187
