29
Properties=species:S:1:pos:R:3:forces:R:3 charge=0 spin=1 energy=-162.913330078125 free_energy=-162.913330078125 stress="0.0 0.0 0.0 0.0 0.0 0.0 0.0 0.0 0.0" pbc="F F F"
C        4.50376398      -0.97618268      -0.24579647       0.00427501       0.00189778       0.00251107
S        3.91937687       0.59123893       0.42071559      -0.00620630       0.00424751      -0.00046957
C        2.82881483       1.15617437      -0.91334760       0.00129664       0.00264543       0.00518720
C        1.49309052       0.43910607      -0.96447566       0.00058001       0.00273755       0.00182996
C        0.51253634       0.97939505       0.07795148       0.00136115      -0.00033587      -0.00029472
O        0.77795021       1.99844405       0.73034978       0.00382499      -0.00401594      -0.00331030
N       -0.65871815       0.28819014       0.22855084      -0.00741817      -0.00127588       0.00073214
C       -1.09228065      -0.83079749      -0.61963079       0.00175659      -0.00190169      -0.00302097
C       -2.32721773      -1.49320124      -0.01962030       0.00188357       0.00503002      -0.00270511
C       -3.51812288      -0.52077277       0.04115691       0.00023545       0.00130703       0.00057348
H       -4.04922646      -0.51290627      -0.92102502       0.00159785      -0.00109078       0.00072545
C       -3.02945674       0.90142727       0.38971116       0.00311833       0.00079788      -0.00166988
C       -1.68707280       0.84567142       1.12288110      -0.00081027      -0.00563809       0.00031750
H        5.22093640      -1.37845476       0.48037741       0.00048782      -0.00320010       0.00045571
H        5.01977105      -0.85234964      -1.20782670       0.00362968      -0.00060966       0.00331795
H        3.69210757      -1.70765097      -0.36565472      -0.00210630       0.00145117      -0.00358461
H        3.35796417       1.06925841      -1.87152926       0.00111584      -0.00693861      -0.00314984
H        2.66057187       2.22224700      -0.70963217      -0.00313963       0.00053042      -0.00026891
H        1.01616182       0.57125542      -1.95192476      -0.00106772       0.00694849      -0.00315958
H        1.61435316      -0.64337981      -0.81278731      -0.00218775      -0.00470014       0.00047819
H       -1.31206419      -0.48306654      -1.64604621       0.00251421      -0.00376146       0.00257204
H       -0.28135863      -1.56378891      -0.70903807      -0.00698632       0.00245276      -0.00182523
H       -2.57831948      -2.37695219      -0.62019344       0.00184586      -0.00372308      -0.00171752
H       -2.07853661      -1.86634029       0.98674124       0.00351249       0.00474395       0.00463495
H       -4.23807055      -0.87499589       0.79176560       0.00226930      -0.00144885       0.00245170
H       -3.76567280       1.42653935       1.01293865      -0.00116770       0.00025015       0.00643660
H       -2.89983744       1.50319621      -0.52353745      -0.00548703       0.00488107      -0.00258702
H       -1.33419054       1.83492168       1.43359032       0.00056120      -0.00392655      -0.00253296
H       -1.77581350       0.22694861       2.03320117       0.00071106       0.00264566      -0.00192812
