23
Properties=species:S:1:pos:R:3:forces:R:3 charge=0 spin=1 energy=-134.38780212402344 free_energy=-134.38780212402344 stress="0.0 0.0 0.0 0.0 0.0 0.0 0.0 0.0 0.0" pbc="F F F"
C        3.73873998       0.22900988      -1.35121831      -0.00330877      -0.00543720      -0.00386424
C        2.61339774       0.48734891      -0.68870343       0.00089282      -0.00031076      -0.00107288
C        1.44675762      -0.45711979      -0.82122561      -0.00227068       0.00582349       0.00227466
O        1.57469347      -1.53236249      -1.42470848      -0.00184125      -0.00368994      -0.00222053
N        0.25391039      -0.09865281      -0.24365576       0.00091175      -0.00426561      -0.00181163
C       -0.04846851       1.17654155       0.41958141      -0.00063588       0.00410046       0.00107104
C       -1.54185224       1.47886129       0.30473908      -0.00524133      -0.00104041       0.00322186
C       -2.38484874       0.43094768       1.05456599      -0.00571886       0.00563690      -0.00336912
H       -3.39067383       0.38419185       0.61373695       0.00239542       0.00019148       0.00157979
C       -1.69807364      -0.94761342       0.97742876      -0.00403640      -0.00344211      -0.00014801
C       -0.85272698      -1.06653707      -0.29122496      -0.00167525       0.00087282       0.00082450
H        4.61299884       0.87985049      -1.28001541       0.00561428       0.00244202       0.00457561
H        3.81262701      -0.65243897      -1.99121711      -0.00100243       0.00374724       0.00478101
H        2.51136722       1.35426145      -0.03571466      -0.00072397       0.00095969      -0.00097203
H        0.24978501       1.15942984       1.48438144      -0.00076108       0.00108523      -0.00210808
H        0.53302878       1.97491038      -0.05499749       0.00308110       0.00037116      -0.00188150
H       -1.81441787       1.50275366      -0.76272186      -0.00090289       0.00150080       0.00132726
H       -1.73448605       2.48654402       0.69606461       0.00097126      -0.00579679      -0.00067136
H       -2.51677289       0.72731901       2.10470582       0.00290526      -0.00039194      -0.00197729
H       -1.04629604      -1.10495103       1.85181534       0.00274197      -0.00105166       0.00151312
H       -2.44377632      -1.75451262       0.99431344       0.00719713       0.00435711       0.00295443
H       -0.40057188      -2.05720924      -0.41377536       0.00200175      -0.00609398      -0.00168012
H       -1.48071630      -0.89806924      -1.18678474      -0.00059402       0.00043220      -0.00234611
