40
Properties=species:S:1:pos:R:3:forces:R:3 charge=0 spin=1 energy=-244.84759521484375 free_energy=-244.84759521484375 stress="0.0 0.0 0.0 0.0 0.0 0.0 0.0 0.0 0.0" pbc="F F F"
I       -5.10003161       3.07326814      -3.03065486       0.00145392      -0.00108726      -0.00127824
C       -5.13215177       1.39400797      -1.78227548      -0.00114453       0.00117061      -0.00048704
C       -6.32700331       0.76038033      -1.40031098       0.00623694       0.00240632      -0.00679106
C       -6.27926933      -0.35592062      -0.55725475      -0.00871781      -0.00071563       0.00321187
C       -5.05770502      -0.84720091      -0.09590357       0.00338662      -0.00116622       0.00193082
C       -3.84301166      -0.24910102      -0.49935100      -0.00153873      -0.00101423       0.00145780
C       -3.91003480       0.88195611      -1.32488851       0.00292146      -0.00171858      -0.00107034
N       -2.66599898      -0.84208680      -0.00466418       0.00228797       0.00290763       0.00244263
C       -1.43497814      -0.09307346       0.04466071       0.00320728       0.00003649       0.00183178
C       -0.31182536      -1.08894275       0.36076454       0.00076279      -0.00210696       0.00005395
O       -0.53404775      -2.30568162       0.24411281       0.00477309      -0.00610957      -0.00103469
N        0.88498331      -0.57628414       0.73402219      -0.00598630      -0.00291072      -0.00088375
C        1.98991170      -1.49431509       1.02712296       0.00274886       0.00234425       0.00103129
C        3.22208610      -1.13749714       0.20827333      -0.00235363       0.00192819      -0.00042729
N        3.56293455       0.27159398       0.42434263       0.00329749       0.00313815       0.00217877
C        2.63549481       1.04491155       1.25026632      -0.00156304      -0.00172076       0.00086085
C        1.19875807       0.85674087       0.78234381      -0.00350341       0.00019890      -0.00016281
C        4.64080527       0.93175073      -0.12707765       0.00233915       0.00680840       0.00030714
O        4.83444721       2.13644029       0.08888970       0.00170581      -0.00300985       0.00008044
C        5.57166096       0.13168632      -0.98747750      -0.00508349      -0.00573571       0.00046387
C        6.65136669       0.71964764      -1.50306462       0.00245991       0.00643927      -0.00085050
O       -5.05119082      -1.89162686       0.77606620      -0.00696471      -0.00312416       0.00179638
Cl      -7.86235553       1.32621405      -1.92846368      -0.00067198      -0.00087802      -0.00151110
H       -7.20304280      -0.83563559      -0.23541523       0.00427261       0.00405684      -0.00231084
H       -2.98896990       1.36956907      -1.64827247      -0.00007072       0.00266188       0.00456493
H       -2.45383315      -1.79736550      -0.32356900      -0.00008358      -0.00347990      -0.00014982
H       -1.49275583       0.69315803       0.81369108      -0.00145915       0.00639278       0.00161815
H       -1.17213093       0.40492040      -0.90951359       0.00246738      -0.00193977      -0.00131868
H        1.65076327      -2.51067262       0.79639722      -0.00076425       0.00076017      -0.00176022
H        2.22821947      -1.45841013       2.10362347      -0.00240411       0.00077679      -0.00346588
H        4.05340783      -1.79300638       0.50738262      -0.00088641       0.00294408      -0.00180759
H        3.02474959      -1.33453677      -0.85820925       0.00029143       0.00139335      -0.00240989
H        2.71707819       0.75168599       2.31235832       0.00080723      -0.00359575      -0.00157041
H        2.93011220       2.09950344       1.17454820      -0.00273798      -0.00022447       0.00050235
H        0.52138072       1.38145773       1.47127768      -0.00223081       0.00479677       0.00408052
H        1.07450759       1.30952503      -0.21462517      -0.00430412       0.00118099       0.00344044
H        5.33893281      -0.91753926      -1.16768314       0.00331861      -0.00158301      -0.00046649
H        7.35720868       0.17332818      -2.13223966       0.00120759       0.00007959      -0.00418161
H        6.85542123       1.77342935      -1.30613530      -0.00168815      -0.00806254       0.00087397
H       -4.14154961      -1.96903878       1.13660271       0.00421080      -0.00223760       0.00121020
