49
Properties=species:S:1:pos:R:3:forces:R:3 charge=0 spin=1 energy=-290.60955810546875 free_energy=-290.60955810546875 stress="0.0 0.0 0.0 0.0 0.0 0.0 0.0 0.0 0.0" pbc="F F F"
C       -4.96048780       4.64475558      -0.11629962       0.00229947      -0.00601083       0.00003071
C       -6.02644382       3.75864337       0.12767730       0.00087803       0.00022134      -0.00093317
Cl      -7.63030875       4.35061458       0.01847834       0.00295772      -0.00271887      -0.00462351
C       -5.75757163       2.42047740       0.45357006       0.00025760       0.00340766       0.00394214
Cl      -7.03734893       1.30912743       0.75268431      -0.00131090       0.00111285       0.00045674
C       -4.43361101       1.97944701       0.53521584       0.00452313       0.00012255      -0.00063381
C       -3.35595992       2.84532083       0.30006889       0.00482978       0.00028053      -0.00168822
N       -2.04367258       2.47018673       0.36876268       0.00005430      -0.00049661      -0.00222073
C       -1.58052862       1.16954992       0.72888726       0.00556134      -0.00441355       0.00295049
C       -0.04385870       1.21969238       0.73628622       0.00008900       0.00721669      -0.00049469
O        0.53744830       2.27284718       0.43013154      -0.00225571      -0.00007482       0.00111808
N        0.59723743       0.08052315       1.09320439      -0.00202912      -0.00215869      -0.00195699
C       -0.07397941      -1.17888384       1.42918465      -0.00687513      -0.00599980       0.00094128
C        0.96703505      -2.21688321       1.81753322      -0.00321496      -0.00155115       0.00406368
N        1.97867486      -2.35385670       0.77050761       0.00144920      -0.00005871       0.00054047
C        2.20753125      -3.59964713       0.24541426      -0.00283593      -0.00556111       0.00335675
O        1.60357443      -4.60411202       0.64632454       0.00417268       0.00577949      -0.00229513
C        3.26511885      -3.68593502      -0.84767028      -0.00014597      -0.00431824      -0.00498343
C        3.44881461      -5.11275908      -1.32964360       0.00425802       0.00537702       0.00487836
S        4.61330776      -5.28243147      -2.70215874      -0.00102790      -0.00448050      -0.00398581
C        6.18942595      -4.97949846      -1.88193856       0.00340626       0.00232583      -0.00616791
C        2.59273035      -1.11267652       0.29118681      -0.00083138      -0.00240672       0.00042282
C        2.06278077       0.06322059       1.09953426       0.00090298      -0.00052083      -0.00173277
C       -3.64504099       4.20167246      -0.03283751      -0.00315443       0.00229410       0.00220506
O       -2.53124513       4.95922475      -0.24309307      -0.00185713      -0.00107282       0.00011682
C       -2.68647320       6.34502100      -0.58334379       0.00074933       0.00487383      -0.00069417
H       -5.18636589       5.67921981      -0.37211793      -0.00023749       0.00591150       0.00040808
H       -4.24498699       0.93555300       0.78561950       0.00237166       0.00012806      -0.00083719
H       -1.28369289       3.13695342       0.19044262      -0.00084437      -0.00140669      -0.00147898
H       -1.90992699       0.38937671       0.01467086      -0.00448560      -0.00147322      -0.00033634
H       -1.93708867       0.86081896       1.73062091      -0.00063134       0.00008930       0.00543134
H       -0.65465453      -1.54813042       0.56872407       0.00154339       0.00219162       0.00051916
H       -0.77390504      -1.03759308       2.26535106      -0.00244178       0.00139347       0.00167662
H        0.49678815      -3.19788399       1.95642473      -0.00055647       0.00190866      -0.00127757
H        1.43809781      -1.93212479       2.77435315      -0.00325408      -0.00093392       0.00179617
H        4.20501688      -3.26928820      -0.44792658       0.00095944      -0.00089003       0.00288975
H        2.96748706      -3.03374646      -1.68516086       0.00148361       0.00239986       0.00015655
H        3.72953848      -5.76863923      -0.49348786       0.00126247       0.00302909      -0.00349072
H        2.49000312      -5.49329000      -1.70796281      -0.00033155      -0.00372416      -0.00213841
H        6.27548670      -3.95211013      -1.50113188      -0.00234264      -0.00079281      -0.00031094
H        6.36789354      -5.68633864      -1.06023368       0.00232359      -0.00124754       0.00100690
H        6.96853019      -5.12716735      -2.63992224      -0.00239295       0.00116330       0.00083110
H        2.36924801      -0.95504283      -0.77608605      -0.00077647       0.00141479       0.00231516
H        3.68747326      -1.14789769       0.38862472       0.00066262       0.00024994       0.00064862
H        2.43365050       0.00715655       2.13623097      -0.00166978       0.00188189       0.00542115
H        2.41028415       1.01151664       0.67504395      -0.00064085       0.00220755      -0.00578494
H       -1.67106322       6.73939735      -0.70203084       0.00070630      -0.00250283       0.00017264
H       -3.20412333       6.89849273       0.21635817      -0.00111228       0.00092045      -0.00037519
H       -3.24085944       6.46630897      -1.52790963      -0.00044591      -0.00308627       0.00014395
