28
Properties=species:S:1:pos:R:3:forces:R:3 charge=-1 spin=1 energy=-155.91561889648438 free_energy=-155.91561889648438 stress="0.0 0.0 0.0 0.0 0.0 0.0 0.0 0.0 0.0" pbc="F F F"
N       -0.64288453       0.66537288       0.37103956      -0.00327822      -0.00157759      -0.00360498
C       -1.74625990       0.22479852      -0.49973688       0.00595891      -0.00043997       0.00103772
C       -1.67561763      -1.30033802      -0.70217662       0.00149714      -0.00427840      -0.00245142
O       -1.79393559      -2.01614136       0.52336618      -0.00166866      -0.00418368       0.00651534
C       -1.69438835       0.90271583      -1.87101223      -0.00405124      -0.00133213       0.00289863
C       -3.05366984       0.56280934       0.21274694       0.00141028      -0.00163688      -0.00161690
C        0.70042427       0.58269983       0.05403967       0.00058088       0.00070858       0.00487587
O        1.09359778       0.03470493      -1.00684200      -0.00034562      -0.00223184      -0.00242941
C        1.60665481       1.10491048       1.03872084      -0.00243497      -0.00143790      -0.00173941
C        3.05662611       1.03097879       0.82259816       0.00135773       0.00536820       0.00546533
H       -0.90686489       1.13010934       1.23157984       0.00072452       0.00161102       0.00384788
H       -0.73636333      -1.52422267      -1.23289140       0.00393897       0.00402258      -0.00468532
H       -0.95721058      -1.91792489       1.00605660      -0.00583844       0.00277377      -0.00231523
H       -0.73993679       0.68083976      -2.36330766      -0.00169069      -0.00124832      -0.00242335
H       -1.78606607       1.99028796      -1.75770366      -0.00000475      -0.00102139       0.00055881
H       -2.52637692       0.55153553      -2.49623040      -0.00102052      -0.00058156      -0.00009066
H       -3.12030856       0.02569487       1.16734731      -0.00187999      -0.00110011      -0.00078437
H       -3.14650953       1.64367735       0.38365900       0.00278874       0.00118743       0.00247133
H       -3.90325645       0.24905375      -0.40780528      -0.00082222       0.00374910       0.00056213
H        1.20591409       1.52701603       1.96259269       0.00200873      -0.00062569       0.00050242
H        3.60656845       1.87230935       1.25978052      -0.00025627      -0.00276849      -0.00312183
H        3.33881380       0.86727849      -0.22481065       0.00264195       0.00114405      -0.00439507
H       -2.52813451      -1.60239165      -1.33056655      -0.00144255      -0.00067840      -0.00116831
S        3.50357256      -0.43303387       1.83265474       0.00101778       0.00048840      -0.00084084
C        3.24683791      -1.77081668       0.65804279       0.00259560       0.00563073      -0.00002897
H        3.27649602      -2.69737874       1.24468404      -0.00273834      -0.00003646       0.00462325
H        4.04480721      -1.79904051      -0.09452310      -0.00239927      -0.00269861      -0.00040722
H        2.27699394      -1.66532249       0.15287960       0.00335023       0.00119353      -0.00125505
