32
Properties=species:S:1:pos:R:3:forces:R:3 charge=0 spin=1 energy=-200.60623168945312 free_energy=-200.60623168945312 stress="0.0 0.0 0.0 0.0 0.0 0.0 0.0 0.0 0.0" pbc="F F F"
C       -1.20827518       0.68355681       0.34040640       0.00075651      -0.00294471       0.00302778
C       -2.29126630      -0.17895690       0.01284317       0.00283679      -0.00067677       0.00179527
C       -3.73847961       0.01621818       0.22875140       0.00275248      -0.00171912      -0.00219538
C       -4.64287520      -1.00188276      -0.11881830      -0.00319389       0.00419313       0.00152308
C       -6.01145786      -0.82952956       0.08912394      -0.00110903      -0.00529155      -0.00222483
C       -6.49216733       0.36180843       0.64636525       0.00015315       0.00318881       0.00066097
C       -5.59983112       1.37898775       0.99315130       0.00002410      -0.00291264      -0.00014907
C       -4.22865795       1.20415645       0.78493832      -0.00249828      -0.00329018       0.00135398
N       -1.86998712      -1.30890275      -0.55579851      -0.00778314      -0.00081945       0.00433689
O       -0.45519997      -1.20265023      -0.61136542      -0.00406458       0.00189668      -0.00029831
C       -0.10464487      -0.01406970      -0.07378104       0.00314232       0.00205114       0.00540946
N        1.23134186       0.28629932       0.02858489       0.00154139       0.00699867       0.00194976
C        2.29009272      -0.33642190      -0.65167508       0.00078946       0.00360665      -0.00026998
O        2.10743832      -1.21501615      -1.48005576      -0.00319986      -0.00201826       0.00034664
C        3.65699948       0.20360194      -0.25510845      -0.00558816      -0.00044277      -0.00035143
C        4.76438859      -0.51575132      -1.00214300      -0.00236738       0.00075342       0.00225969
S        6.40361875       0.19899869      -0.74172561       0.00386969       0.00305137       0.00455086
C        6.72546547      -0.22344398       0.98343576       0.00137699       0.00248812      -0.00043826
H       -1.23782537       1.66800181       0.79737846       0.00673651      -0.00035980       0.00020280
H       -4.24157436      -1.92207800      -0.55243344       0.00112032      -0.00605518       0.00122854
H       -6.70666017      -1.62622378      -0.18495685      -0.00092024      -0.00076449      -0.00093774
H       -7.56620948       0.49545927       0.80819130      -0.00106391       0.00320897      -0.00271861
H       -5.96716934       2.31177961       1.42712155      -0.00067814       0.00506026      -0.00305478
H       -3.53073145       1.99927111       1.05552605      -0.00085738       0.00148466      -0.00226928
H        1.45025179       1.07841639       0.62757828       0.00021527      -0.00782370      -0.00209008
H        3.76400578       0.10309443       0.83845178      -0.00023893       0.00470664      -0.00799173
H        3.68804256       1.28557132      -0.46800918       0.00113467      -0.00264773      -0.00033905
H        4.57921775      -0.43752210      -2.08229308       0.00237902      -0.00171756      -0.00266331
H        4.75737995      -1.58794863      -0.75895332       0.00374076      -0.00245550      -0.00070891
H        7.74553121       0.11731921       1.19904993       0.00304693       0.00139228      -0.00193743
H        6.04328273       0.28865354       1.67652405      -0.00049678      -0.00279291       0.00207562
H        6.67837440      -1.30715551       1.15818950      -0.00155684       0.00065168      -0.00008333
