64
Properties=species:S:1:pos:R:3:forces:R:3 charge=0 spin=1 energy=-403.8011779785156 free_energy=-403.8011779785156 stress="0.0 0.0 0.0 0.0 0.0 0.0 0.0 0.0 0.0" pbc="F F F"
C        2.06872817      -0.97438180      -2.34776897       0.00050950       0.00053766      -0.00061196
N        1.62633938      -0.67378843      -1.11756616      -0.00126418      -0.00353484       0.00127411
C        2.53719611      -0.09376970      -0.31421279      -0.00188324       0.00351441      -0.00138623
N        2.21236722       0.25217492       0.98528860       0.00519037      -0.00177592      -0.00407548
C        1.02938820       0.09430107       1.68733676      -0.00726280       0.00058238       0.00293601
C       -0.16456812      -0.37897847       1.14475266       0.00059096      -0.00121820       0.00414479
C       -1.31407559      -0.49456700       1.94695209      -0.00156005       0.00080367       0.00041381
N       -2.48534544      -0.95767112       1.32103990       0.00197175       0.00232090       0.00042441
C       -3.63960087      -1.37769399       1.93452096       0.00521210      -0.00000814      -0.00115043
O       -3.81205204      -1.42961836       3.15165392       0.00026186      -0.00054559       0.00605004
C       -4.72815546      -1.82130798       0.94708702      -0.00201215       0.00463964      -0.00420332
C       -5.10228381      -0.79243211      -0.13183423       0.00158358       0.00366957       0.00032926
S       -3.94361969      -0.73514592      -1.54987931       0.00152597      -0.00219208      -0.00183740
C       -4.00550598      -2.41368310      -2.20279734      -0.00226939       0.00365473       0.00070105
C       -6.58903074      -0.92788354      -0.55753073       0.00102900      -0.00335609       0.00406924
N       -7.16424673       0.15717696      -1.32649377      -0.00093412       0.00611119       0.00733782
C       -6.98131526       0.16576231      -2.77126439       0.00028092      -0.00180439      -0.00561617
C       -7.12005991       1.47304245      -0.71095708      -0.00200170       0.00133687      -0.00353882
C       -1.27175841      -0.13747989       3.30065436      -0.00243415       0.00385233       0.00044885
C       -0.07515010       0.33760932       3.84790260      -0.00151151      -0.00079434      -0.00393993
C        1.06798164       0.45941104       3.06354900       0.00470328      -0.00038771       0.00075394
O        2.28580961       0.91063144       3.49172510      -0.00207910       0.00248353       0.00426856
C        2.43036313       1.31905063       4.85849365       0.00229678      -0.00421698       0.00090899
N        3.80120043       0.20808657      -0.63514542       0.00256075       0.00087066       0.00410569
C        4.25702051      -0.08000038      -1.88328774       0.00078610      -0.00055327       0.00086914
C        5.62714971       0.29501185      -2.15874593       0.00254804       0.00269680       0.00220084
C        6.39873224       0.21640175      -3.34865582      -0.00544411      -0.00074844      -0.00222436
N        7.63497208       0.68763874      -3.21229999       0.00055376       0.00116388       0.00288790
N        7.70031815       1.09616136      -1.89403718      -0.00549603      -0.00129404      -0.00194642
C        8.81143074       1.65106782      -1.33407370       0.00330323       0.00088674       0.00680962
C        8.78391159       2.02777511      -0.01282478      -0.00263147      -0.00299244       0.00024864
C        7.60499957       1.82660519       0.74087892       0.00338829       0.00062132      -0.00320017
C        6.48291468       1.26019303       0.15676425       0.00029868      -0.00438128      -0.00390577
C        6.51792268       0.88404514      -1.20057179      -0.00431369       0.00046298      -0.00258365
C        3.36199505      -0.70657721      -2.79352135      -0.00140834       0.00083763      -0.00383312
Cl       3.76076552      -1.18075108      -4.42091511      -0.00031195      -0.00255192       0.00273280
H        1.35927805      -1.45505723      -3.02380065       0.00107512       0.00308552      -0.00078145
H        2.98879459       0.67224391       1.49727503       0.00396319       0.00030611       0.00312704
H       -0.15141699      -0.66110821       0.08868267      -0.00135637       0.00070003      -0.00282952
H       -2.50404526      -0.94600831       0.29079203       0.00344483      -0.00341325      -0.00168967
H       -5.59651940      -2.04653121       1.57983940      -0.00303246       0.00109884      -0.00158976
H       -4.40597807      -2.77242358       0.49327257       0.00273957      -0.00225486       0.00077588
H       -4.98507845       0.21775638       0.29732592      -0.00090546      -0.00376526       0.00370461
H       -3.42739825      -2.39474785      -3.13421302      -0.00201143      -0.00115021       0.00182994
H       -3.54193800      -3.14367993      -1.52873270      -0.00507986      -0.00218378       0.00204916
H       -5.03067057      -2.72240854      -2.44023562       0.00525127      -0.00211669       0.00065167
H       -7.16370300      -1.02930641       0.38020047      -0.00175439      -0.00043760      -0.00201125
H       -6.73052941      -1.87514108      -1.10258715       0.00307890      -0.00324698      -0.00467119
H       -7.78467841       0.74949224      -3.24359344       0.00282396       0.00035159      -0.00000542
H       -7.03904446      -0.85728809      -3.16670259      -0.00254161       0.00210249      -0.00150746
H       -6.01624348       0.59447470      -3.09504823      -0.00262633       0.00076729       0.00044993
H       -7.32972104       1.39722160       0.36483723       0.00253540      -0.00105269      -0.00046770
H       -6.14831155       1.99102311      -0.82954255      -0.00352184      -0.00414010      -0.00004757
H       -7.88663402       2.12346348      -1.15395560       0.00150067      -0.00009094       0.00227285
H       -2.16668698      -0.23428474       3.91603140      -0.00370508       0.00086684      -0.00006795
H       -0.03840918       0.61528497       4.90135393       0.00050816      -0.00058059      -0.00168905
H        3.47150020       1.64233773       4.97333462      -0.00387922       0.00138935      -0.00142787
H        2.23120271       0.48402446       5.54935000      -0.00169917      -0.00182058      -0.00057381
H        1.75851865       2.15827693       5.10048598       0.00296786      -0.00087738      -0.00091798
H        6.08963533      -0.16997759      -4.31640236       0.00275755       0.00235130      -0.00190383
H        9.65957402       1.75392420      -2.00663493       0.00179660       0.00440986       0.00074308
H        9.67096555       2.47465326       0.43939592       0.00307673      -0.00088517      -0.00124618
H        7.58483612       2.12313585       1.79256356       0.00122648       0.00061096      -0.00108197
H        5.55788242       1.09135688       0.70682292      -0.00040993       0.00128492      -0.00095707
