58
Properties=species:S:1:pos:R:3:forces:R:3 charge=0 spin=1 energy=-375.4043273925781 free_energy=-375.4043273925781 stress="0.0 0.0 0.0 0.0 0.0 0.0 0.0 0.0 0.0" pbc="F F F"
Cl      -3.78908419      -0.48751110       4.31475891      -0.00085445      -0.00502550      -0.00414111
C       -3.22636521      -0.42054397       2.66860367      -0.00387621       0.00212312       0.00247630
C       -1.85660091      -0.55814254       2.44008023       0.00460950       0.00133230       0.00059086
N       -1.30103883      -0.48082289       1.22333485       0.00654453       0.00545830       0.00262070
C       -2.15519581      -0.23524248       0.21634225       0.00010815       0.00142764       0.00431627
N       -1.69397472      -0.14045026      -1.08382100      -0.00181816      -0.00073834      -0.00233951
C       -0.40065857      -0.19639948      -1.57863457      -0.00050150       0.00036814      -0.00251418
C       -0.28656691      -0.21268525      -2.99868266       0.00405094       0.00530609      -0.00192491
O       -1.48078734      -0.19924176      -3.66203089       0.00442390      -0.00140512       0.00312351
C       -1.47292081      -0.17881252      -5.09550004      -0.00149710       0.00306051      -0.00810653
C        0.97271379      -0.24326946      -3.59486865      -0.00189430      -0.00323877       0.00258917
C        2.11988337      -0.25738799      -2.80273935      -0.00259474      -0.00136923      -0.00141925
C        2.01667020      -0.24084706      -1.40392776       0.00299522       0.00071435      -0.00062303
N        3.21407972      -0.25301350      -0.67212837       0.00017312      -0.00024994      -0.00361878
C        3.36999378      -0.16863550       0.70523253      -0.00409323      -0.00293770       0.00492245
C        4.80484746      -0.18051948       1.13238540      -0.00103594       0.00059660      -0.00542870
C        5.08821644      -0.08561187       2.44019476      -0.00162110       0.00321747       0.00498468
C        6.45251195      -0.07092290       3.07755082       0.00065619       0.00071623      -0.00266659
N        7.62924072      -0.15406769       2.22502744       0.00136346       0.00465744       0.00632101
C        7.94891334       1.01376130       1.42058812       0.00307147      -0.00151220       0.00032063
C        7.91374970      -1.44001804       1.61082760      -0.00485838      -0.00136699      -0.00180482
O        2.43085037      -0.08539509       1.49677765      -0.00126210       0.00153639       0.00149011
C        0.75471953      -0.21095878      -0.79038365      -0.00498668       0.00513760      -0.00314331
N       -3.48296004      -0.07526246       0.31811204      -0.00039984       0.00247148       0.00231561
C       -4.05917510      -0.18082030       1.54360627      -0.00286114      -0.00372330       0.00261855
C       -5.49999509      -0.03772191       1.58440322       0.00396186      -0.00130409       0.00514269
C       -6.29725811       0.49150205       0.52067959       0.00042621       0.00217767      -0.00713987
C       -6.07936739       1.06113313      -0.74871097       0.00418490      -0.00078449       0.00139284
C       -7.16110768       1.49753034      -1.49670034      -0.00374162      -0.00166918      -0.00053823
C       -8.47767695       1.37680860      -0.99458292       0.00038156      -0.00351210       0.00166202
C       -8.68022099       0.82542792       0.24810251      -0.00718114       0.00068215      -0.00236669
N       -7.60674596       0.40333143       0.97378873       0.00332829      -0.00063837       0.00672525
N       -7.70295690      -0.14672033       2.23582735      -0.00819544       0.00017598      -0.00271046
C       -6.44273053      -0.39914249       2.58192654       0.00253731      -0.00182855      -0.00176799
H       -1.18463092      -0.73760386       3.28034074      -0.00061607       0.00031275      -0.00214246
H       -2.44157168      -0.01968195      -1.76872334       0.00344414      -0.00138397       0.00351569
H       -2.52337173      -0.16402107      -5.40857279       0.00309724      -0.00058852       0.00180320
H       -0.98343893      -1.07670124      -5.50625362      -0.00272051      -0.00222810       0.00124941
H       -0.96434415       0.71950760      -5.48156985      -0.00026878      -0.00163934       0.00117882
H        1.05700612      -0.25733815      -4.68196889      -0.00120525       0.00068132       0.00014931
H        3.10180094      -0.28121933      -3.28050790      -0.00252298       0.00125673      -0.00058895
H        4.06656699      -0.30633324      -1.22242481       0.00362536      -0.00054885      -0.00113213
H        5.55476324      -0.26384842       0.34347764      -0.00102575      -0.00053619       0.00281179
H        4.23896166      -0.00633441       3.13168721       0.00123440      -0.00264402      -0.00264555
H        6.48347556      -0.89667489       3.81382346       0.00204097      -0.00107042      -0.00013673
H        6.51737375       0.84819053       3.69075487       0.00285996       0.00203106       0.00198314
H        9.00192937       0.98129208       1.10928227      -0.00038473      -0.00002684      -0.00060185
H        7.80118365       1.92828886       2.01113418      -0.00129702      -0.00211030       0.00026623
H        7.34386199       1.11687093       0.49880160      -0.00298812      -0.00404731      -0.00097696
H        7.29192647      -1.67256345       0.72447208      -0.00084565       0.00474871      -0.00029614
H        7.75831053      -2.24733702       2.33989168       0.00211069       0.00046387      -0.00122094
H        8.96227249      -1.47739667       1.28548890       0.00384960      -0.00356046      -0.00320956
H        0.64912714      -0.20051464       0.29651911      -0.00219369      -0.00178508       0.00344378
H       -5.05231151       1.13458812      -1.10604897       0.00268319      -0.00373753       0.00075983
H       -7.00477511       1.93715388      -2.48470650       0.00071108      -0.00353998       0.00447068
H       -9.33574630       1.71430403      -1.57835441      -0.00295320       0.00385043      -0.00344643
H       -9.64376175       0.68663287       0.73364954       0.00159928       0.00308918      -0.00574522
H       -6.24567873      -0.85109320       3.55079580       0.00222261       0.00315735      -0.00084743
