63
Properties=species:S:1:pos:R:3:forces:R:3 charge=-1 spin=1 energy=-398.99884033203125 free_energy=-398.99884033203125 stress="0.0 0.0 0.0 0.0 0.0 0.0 0.0 0.0 0.0" pbc="F F F"
Cl      -7.39603072      -0.60717864      -1.13537776       0.00463611      -0.00033950       0.00382455
C       -5.89923488      -1.35607067      -0.65332075      -0.00589545       0.00352859      -0.00248495
C       -5.91996249      -2.70266558      -0.27737805       0.00479716      -0.00000075      -0.00221061
N       -4.81757300      -3.37980268       0.06017258      -0.00561860      -0.00236723      -0.00154025
C       -3.66525330      -2.68369885       0.00329887       0.00552340      -0.00224683      -0.00171013
N       -2.56792795      -3.44554496       0.35366660       0.00746373       0.00137511       0.00338583
C       -1.25073773      -3.06124227       0.54575970      -0.00181789      -0.00132127       0.00300766
C       -0.28476877      -4.10823309       0.59200396      -0.00152743       0.00427769       0.00198274
O       -0.79425106      -5.35697409       0.39072224      -0.00379220       0.00436107      -0.00115215
C        0.09519517      -6.47996796       0.44218116       0.00186548       0.00484249       0.00214307
C        1.05674317      -3.80294882       0.82074300      -0.00353378       0.00038914       0.00075294
C        1.47312508      -2.48438406       1.00040739       0.00426897       0.00436531       0.00116185
C        0.53087770      -1.44130777       0.94924016       0.00563582      -0.00143689      -0.00137082
N        0.87954493      -0.11589442       1.14000912       0.00205602      -0.00039653       0.00091604
C        2.18177565       0.45269416       1.14860814      -0.00629801      -0.00575483      -0.00210229
C        2.22480470       1.83319348       1.41331966       0.00068307       0.00319663      -0.00314901
C        3.50990713       2.53864285       1.50505294      -0.00005326      -0.00412260      -0.00061023
C        3.89595923       3.41760900       0.25728648      -0.00269999      -0.00308613      -0.00253316
N        4.15248575       2.67839445      -0.95352886      -0.00054601       0.00085229       0.00343350
C        3.00439473       2.14343773      -1.67030156      -0.00301909      -0.00133909       0.00019272
C        5.30994003       1.79370125      -0.94714137      -0.00278138       0.00155950      -0.00283680
O        3.18800385      -0.26913517       0.89384376       0.00098646      -0.00042696       0.00162693
C       -0.83049150      -1.74702703       0.73024017       0.00748535      -0.00283957       0.00140478
N       -3.52073400      -1.40609425      -0.36268109      -0.00515914      -0.00072911       0.00391499
C       -4.64394149      -0.70297505      -0.68648847       0.00879043       0.00127488       0.00079554
C       -4.44768028       0.68921844      -1.03852179      -0.00957032      -0.00160593      -0.00003127
C       -3.20486349       1.25077641      -1.46399291       0.00446703       0.00216548       0.00096282
C       -1.91835820       0.77731697      -1.78405216      -0.00355932      -0.00218552      -0.00209218
C       -0.94530424       1.67184059      -2.19536697      -0.00603263       0.00171567      -0.00078622
C       -1.23732988       3.05007451      -2.30548084       0.00290048       0.00139514      -0.00195065
C       -2.50299730       3.49943108      -2.01256747       0.00347522       0.00156741      -0.00240377
N       -3.45139694       2.60827928      -1.61007849      -0.00627410       0.00206175       0.00553273
N       -4.75675044       2.95123345      -1.31617898       0.00435323       0.00000182      -0.00187156
C       -5.33134678       1.79745523      -0.98134569       0.00363785      -0.00360110      -0.00156677
H       -6.86271248      -3.25198803      -0.25173546      -0.00649032      -0.00310077       0.00078613
H       -2.80135326      -4.42584899       0.52205175       0.00162303      -0.00301877       0.00275662
H        0.58019400      -6.56505339       1.42819440      -0.00105509       0.00031786      -0.00168285
H       -0.52046704      -7.36858328       0.26251048      -0.00296287      -0.00041640      -0.00141175
H        0.87067792      -6.40925599      -0.33719822       0.00032094      -0.00467709      -0.00237583
H        1.78828731      -4.61060088       0.85267968       0.00227830       0.00058913      -0.00021207
H        2.52127919      -2.22684991       1.16933984      -0.00242227       0.00172400      -0.00042018
H        0.11399523       0.54185687       1.23925599       0.00276528      -0.00402189       0.00320372
H        1.30316141       2.37760002       1.62692895       0.00148551      -0.00367659      -0.00149793
H        4.32070155       1.79445732       1.61386835      -0.00494120       0.00196097      -0.00165282
H        3.08305215       4.13993304       0.08623138      -0.00218289       0.00173491      -0.00105720
H        4.79476363       3.99318264       0.53909666       0.00083771      -0.00467560      -0.00213274
H        2.73673758       1.12565895      -1.33085671      -0.00367712       0.00216210      -0.00192826
H        3.21742716       2.09196924      -2.75012044      -0.00123113       0.00035850       0.00395894
H        2.13035232       2.79218882      -1.52007133      -0.00164549      -0.00282553       0.00285433
H        5.11183616       0.84788456      -0.40659814      -0.00141530       0.00000412       0.00588310
H        6.16696151       2.29435245      -0.47659647       0.00296953       0.00276686       0.00316831
H        5.59098382       1.53983093      -1.97852450       0.00345632       0.00042665      -0.00537340
H       -1.59473860      -0.96985752       0.69161623      -0.00214700       0.00195047       0.00066291
H       -1.73094541      -0.29325805      -1.69684873       0.00132027       0.00409332       0.00008349
H        0.05532277       1.31081819      -2.44232983       0.00940484       0.00266057      -0.00107116
H       -0.47904527       3.76270628      -2.63307468      -0.00145110       0.00163084      -0.00116850
H       -2.84128697       4.53124314      -2.07509516       0.00040206      -0.00120410      -0.00375147
H       -6.38057115       1.79835829      -0.69433947       0.00266701       0.00064507      -0.00072097
S        3.54040309       3.69732462       2.93247741      -0.00004400       0.00323329       0.00452560
C        3.33398551       2.52321530       4.27678174       0.00057168       0.00341620      -0.00164121
H        4.14511961       1.78414585       4.28797408      -0.00173548      -0.00100794      -0.00312794
H        2.37013247       2.00414927       4.20105458      -0.00156241      -0.00331835       0.00206357
H        3.36496142       3.09985887       5.20976165       0.00001465      -0.00286199      -0.00135633
