26
Properties=species:S:1:pos:R:3:forces:R:3 charge=0 spin=1 energy=-157.09983825683594 free_energy=-157.09983825683594 stress="0.0 0.0 0.0 0.0 0.0 0.0 0.0 0.0 0.0" pbc="F F F"
C        4.08089080       1.39051277       0.16017300       0.00566179      -0.00110945       0.00524756
C        2.71058280       1.41463489       0.39507586       0.00393343       0.00435883       0.00089306
C        1.90452386       0.30175422       0.09521141       0.00344034      -0.00572241      -0.00103341
N        0.52376430       0.41579557       0.34627090      -0.00057365       0.00423683       0.00115980
C       -0.41536910      -0.59688894       0.38376849      -0.00245883      -0.00351387      -0.00722672
O       -0.14483144      -1.78391533       0.19295218      -0.00535822       0.00318103       0.00681515
C       -1.82196687      -0.10291954       0.70186046      -0.00251427      -0.00031966      -0.00121396
C       -2.84074480      -1.22417420       0.62404962      -0.00403318       0.00095573      -0.00071842
S       -4.47873286      -0.76889115       1.23811553      -0.00102237      -0.00102515      -0.00009005
C       -5.02739523       0.42482776       0.00188181      -0.00529796      -0.00264248       0.00186598
C        2.48872879      -0.85076272      -0.45489211       0.00007413      -0.00296032       0.00173967
C        3.86298039      -0.89002890      -0.69053490       0.00140237      -0.00565165      -0.00004236
C        4.63403578       0.22854031      -0.37779262      -0.00331086      -0.00461587      -0.00232209
F        5.97732259       0.18625130      -0.60345086       0.00061828       0.00373293      -0.00793152
H        4.71850598       2.24482268       0.38872207      -0.00194889       0.00380450       0.00006174
H        2.25140813       2.30897588       0.82519573       0.00456478       0.00330526       0.00466953
H        0.18497394       1.35149872       0.55562284       0.00128398      -0.00220327      -0.00369018
H       -2.06360007       0.72045090       0.00907711       0.00266843       0.00463420      -0.00215548
H       -1.81420975       0.33798626       1.71313273       0.00003443      -0.00016125       0.00003053
H       -2.90077510      -1.62071485      -0.39997731       0.00210103      -0.00014263       0.00340277
H       -2.51126242      -2.05588574       1.26200788       0.00008720      -0.00184178      -0.00022564
H       -4.42547734       1.34446157       0.00575742       0.00127599      -0.00193674      -0.00042969
H       -5.03273793      -0.00178448      -1.01045480       0.00035534      -0.00427370      -0.00035364
H       -6.05720707       0.69227272       0.26944051      -0.00153223       0.00240470       0.00061527
H        1.85428364      -1.70796436      -0.68554449      -0.00169992       0.00557226      -0.00444239
H        4.33734429      -1.77556772      -1.11372405       0.00224882       0.00193337       0.00537443
