23
Properties=species:S:1:pos:R:3:forces:R:3 charge=0 spin=1 energy=-144.9202423095703 free_energy=-144.9202423095703 stress="0.0 0.0 0.0 0.0 0.0 0.0 0.0 0.0 0.0" pbc="F F F"
O       -2.10843465      -1.25945613      -0.58256113       0.00083953       0.00073150      -0.00076645
C       -2.16772560      -0.10130363      -0.14731805      -0.00019210      -0.00118762       0.00328049
C       -3.20104774       0.35056388       0.83842422       0.00085492       0.00235242      -0.00006391
C       -4.12667047      -0.49878580       1.28208840      -0.00126770       0.00335681      -0.00479755
N       -1.28675189       0.87437602      -0.53844497      -0.00047635       0.00422069       0.00071535
C       -0.19641562       0.60434502      -1.46663503       0.00152195       0.00174969       0.00114161
C        1.09731990       0.20033685      -0.77994346      -0.00531502      -0.00371898       0.00245564
C        1.17028245      -1.03615961      -0.12356541      -0.00112531       0.00298116       0.00173817
C        2.34704554      -1.41769302       0.52807086      -0.00015637       0.00052336       0.00216021
C        3.46109963      -0.57200418       0.52990895       0.00080067       0.00141081       0.00346971
C        3.38972718       0.65948303      -0.12178535       0.00001924       0.00011589      -0.00052314
C        2.21119883       1.04377653      -0.77343336       0.00202487       0.00736430      -0.00395402
H       -3.15274792       1.39546292       1.15639081      -0.00118800      -0.00336897      -0.00021350
H       -4.13796985      -1.53252533       0.93331108       0.00032432      -0.00305450      -0.00154611
H       -4.89481111      -0.19486380       1.99621395       0.00000881      -0.00065842       0.00236328
H       -1.33244422       1.79055068      -0.10330943       0.00207372      -0.00227040      -0.00069479
H       -0.53558463      -0.22414066      -2.10714716      -0.00123169       0.00155658      -0.00157055
H       -0.02254144       1.49476464      -2.08402989      -0.00138776      -0.00144821      -0.00167012
H        0.29592732      -1.69254564      -0.13412047       0.00049132       0.00004241       0.00028182
H        2.38934627      -2.38501839       1.03483782       0.00387956      -0.00457579       0.00001118
H        4.38126100      -0.87362138       1.03734593      -0.00036654       0.00029144      -0.00245890
H        4.25210894       1.33104758      -0.13009051      -0.00309038      -0.00141460      -0.00004821
H        2.16145090       2.00656947      -1.28761507       0.00295802      -0.00499964       0.00068988
