23
Properties=species:S:1:pos:R:3:forces:R:3 charge=0 spin=1 energy=-144.53382873535156 free_energy=-144.53382873535156 stress="0.0 0.0 0.0 0.0 0.0 0.0 0.0 0.0 0.0" pbc="F F F"
C       -3.72861964      -1.50688312       0.61010891       0.00134957      -0.00026569      -0.00187285
C       -2.92885722      -0.56376747       0.10613558      -0.00030473      -0.00318211      -0.00306866
C       -1.44320819      -0.72053784       0.23822769      -0.00175166       0.00142056      -0.00209966
O       -0.94520182      -1.72917871       0.74982889       0.00417990      -0.00406067       0.00199587
N       -0.64577937       0.31224422      -0.25166819       0.00099385       0.00431480       0.00212745
C       -1.20245671       1.52120090      -0.86102346      -0.00579331       0.00333467       0.00069745
C        0.77251630       0.17223718      -0.21310258      -0.00165132      -0.00050105       0.00086380
C        1.53122027       0.55743639      -1.33104672       0.00550355       0.00035468       0.00678810
C        2.92280914       0.46792115      -1.30276413      -0.00474408       0.00247057      -0.00001577
C        3.57342674      -0.01388801      -0.16535929       0.00342107      -0.00132082      -0.00007752
C        2.81839441      -0.40874033       0.94321038       0.00107126       0.00154461       0.00024393
C        1.42645070      -0.31551372       0.92778955      -0.00292633      -0.00106595       0.00046355
H       -3.30853356      -2.37590381       1.11836057      -0.00157087      -0.00070328      -0.00088042
H       -4.81568532      -1.44051168       0.52670797       0.00159040       0.00130408       0.00221952
H       -3.32492322       0.30829942      -0.41143604       0.00177619       0.00064674      -0.00040981
H       -1.97455313       1.95420458      -0.21199555      -0.00223814      -0.00247459      -0.00151924
H       -0.40265695       2.25998629      -0.97529390      -0.00046782       0.00291051       0.00142133
H       -1.64782760       1.32777366      -1.84878971       0.00007727       0.00034974       0.00051602
H        1.01927432       0.89606882      -2.23402903       0.00010864      -0.00095203      -0.00289428
H        3.49506855       0.77263686      -2.18167858       0.00063524      -0.00100657       0.00076640
H        4.66451131      -0.08618263      -0.14398289      -0.00001833      -0.00538228      -0.00321242
H        3.31490990      -0.79661355       1.83557069      -0.00075072      -0.00095062      -0.00071579
H        0.82334509      -0.62912788       1.78026450       0.00151059       0.00321477      -0.00133702
