26
Properties=species:S:1:pos:R:3:forces:R:3 charge=-1 spin=1 energy=-164.74061584472656 free_energy=-164.74061584472656 stress="0.0 0.0 0.0 0.0 0.0 0.0 0.0 0.0 0.0" pbc="F F F"
O       -1.04702446      -0.33372865      -1.40812660      -0.00051169       0.00382717      -0.00221717
C       -0.91502888       0.61651368      -0.60951009      -0.00274959      -0.00618416       0.00275269
C       -1.95179909       1.55511348      -0.30323034      -0.00091875       0.00107999      -0.00122930
C       -3.26998189       1.39833721      -0.92979334      -0.00449407       0.00408190       0.00160949
N        0.27702451       0.83600660       0.11057242      -0.00607565       0.00425018      -0.00033882
C        1.47705420       0.14526395       0.03190389       0.00056015       0.00317433      -0.00506471
C        2.53364707       0.55554025       0.90431314       0.00013024      -0.00510987      -0.00106868
C        2.28701929       1.63396359       1.80506327      -0.00012694      -0.00397746      -0.00001895
N        1.96509956       2.52678289       2.49190866       0.00120229       0.00376017      -0.00076297
C        3.77375116      -0.09713270       0.85966509       0.00230426       0.00100258       0.00080021
C        3.98849800      -1.14599820      -0.02920729      -0.00072680      -0.00497842      -0.00303259
C        2.95145188      -1.54939521      -0.88027538      -0.00194136      -0.00109139       0.00117636
C        1.71181951      -0.91907408      -0.85818624      -0.00202553       0.00162673      -0.00197989
H       -1.76909336       2.35348126       0.42087813       0.00025005      -0.00305228       0.00172858
H       -3.77608790       2.34697072      -1.14671511       0.00661597      -0.00343189      -0.00327110
H       -3.25963257       0.73976018      -1.80840167      -0.00242966      -0.00188591       0.00210020
H        0.25851507       1.61348415       0.77373010       0.00329216       0.00424542       0.00285180
H        4.56455409       0.23727421       1.53505386       0.00453198       0.00265221       0.00132638
H        4.95855515      -1.64773609      -0.06006136       0.00060540      -0.00024685       0.00451033
H        3.11303010      -2.37330765      -1.58039129       0.00142251       0.00122315      -0.00006410
H        0.89280657      -1.21599710      -1.51574047       0.00065383       0.00157653      -0.00001565
S       -4.23609565       0.65510403       0.44015216       0.00484818      -0.00129063      -0.00397390
C       -3.69883956      -1.05890466       0.41457747       0.00048839      -0.00023308       0.00212169
H       -2.65233173      -1.17257971       0.72287814      -0.00165515       0.00382643       0.00364600
H       -3.83589606      -1.50861243      -0.57641082      -0.00017076       0.00052802      -0.00078601
H       -4.34598119      -1.57271075       1.13691597      -0.00307924      -0.00537297      -0.00079995
