20
Properties=species:S:1:pos:R:3:forces:R:3 charge=0 spin=1 energy=-128.47222900390625 free_energy=-128.47222900390625 stress="0.0 0.0 0.0 0.0 0.0 0.0 0.0 0.0 0.0" pbc="F F F"
C        3.67319389      -0.50352043       0.50198257       0.00312612       0.00139713      -0.00421277
C        3.13766441       0.72091240       0.53239272       0.00002612       0.00362854      -0.00305298
C        1.66420831       0.97855585       0.57179160      -0.00194556       0.00367159       0.00364074
O        1.18921678       1.93115361       1.18954867       0.00334331      -0.00206318      -0.00561892
N        0.88569444       0.04697624      -0.10210212       0.00511406      -0.00061364       0.00307193
C       -0.51862629      -0.02918507      -0.11830620      -0.00096230      -0.00643783       0.00489911
C       -1.32013928       0.58859185       0.85575488      -0.00315951       0.00424987       0.00665706
C       -2.70638971       0.43640036       0.79745976       0.00104865       0.00212568      -0.00340667
C       -3.30454041      -0.32663408      -0.21069978      -0.00579453       0.00043270       0.00131234
C       -2.50366971      -0.94357931      -1.17514505       0.00194816      -0.00107369       0.00139141
C       -1.12014747      -0.79488597      -1.13334187      -0.00073932       0.00038077      -0.00312936
H       -0.49433713      -1.26536670      -1.89521829       0.00549248      -0.00599696      -0.00171395
H        4.75422495      -0.64032578       0.55175752      -0.00337914      -0.00136024       0.00094964
H        3.06892088      -1.40942907       0.45187404      -0.00164583       0.00119731      -0.00282724
H        3.74187858       1.61621955       0.68272722      -0.00187054       0.00258377       0.00284458
H        1.37811422      -0.58581920      -0.72809108      -0.00148788      -0.00505351       0.00750523
H       -0.83906373       1.18584591       1.63184057       0.00213128      -0.00417280      -0.00209153
H       -3.32599712       0.92340326       1.55381529      -0.00125024      -0.00277799      -0.00169563
H       -4.39283598      -0.43962195      -0.24510398       0.00312373       0.00421990       0.00047041
H       -2.95627401      -1.54283676      -1.96852198      -0.00311938       0.00566265      -0.00499359
