25
Properties=species:S:1:pos:R:3:forces:R:3 charge=-1 spin=1 energy=-151.83351135253906 free_energy=-151.83351135253906 stress="0.0 0.0 0.0 0.0 0.0 0.0 0.0 0.0 0.0" pbc="F F F"
O        0.02993549       0.00180851       2.56957252      -0.00103280       0.00335126       0.00401922
C        0.57256850      -0.47167664       1.55061965      -0.00016314       0.00155219      -0.00542206
C        1.83916137      -1.11284927       1.53945879      -0.00004441      -0.00317299       0.00011709
C        2.45146207      -1.80087289       0.38970517       0.00276783       0.00368565      -0.00099133
N       -0.04788162      -0.37829555       0.27661693      -0.00275484       0.00095021       0.00339444
C       -1.31421830       0.11729773       0.01219756       0.00479387      -0.00266460      -0.00214500
C       -2.31322656       0.22181684       1.00450259      -0.00281909       0.00664160      -0.00261801
C       -3.57656701       0.70108637       0.66645766       0.00131574      -0.00412714       0.00216639
C       -3.87839455       1.07108230      -0.64952624       0.00242381      -0.00161085      -0.00299249
C       -2.89587851       0.96043911      -1.63820020       0.00047287       0.00399986       0.00539997
C       -1.62705843       0.49360418      -1.31459572      -0.00108913      -0.00202319      -0.00704578
H        2.35549885      -1.11290554       2.49853203      -0.00392842       0.00175043      -0.00295177
H        3.38084659      -2.30635514       0.68117471       0.00171825      -0.00231534       0.00074128
H        1.78172563      -2.53962970      -0.08166018       0.00154245       0.00046095       0.00077443
H        0.60074432      -0.48045237      -0.51875204      -0.00391749       0.00091873      -0.00134181
H       -2.04783879      -0.06228562       2.02569502      -0.00162214      -0.00114116       0.00036046
H       -4.34132655       0.78708387       1.44157848       0.00205144       0.00083159       0.00417438
H       -3.12216731       1.24480110      -2.66837090       0.00385332       0.00050184      -0.00184608
H       -0.84968276       0.41393918      -2.07744248      -0.00390497      -0.00237254       0.00120644
H       -4.87557366       1.44332762      -0.90459657      -0.00197452       0.00012439       0.00141355
S        2.84889030      -0.74280635      -1.11300252       0.00032048      -0.00274142       0.00193907
C        3.62921880       0.66260972      -0.30617297      -0.00167492      -0.00241543       0.00167704
H        4.51891009       0.35192099       0.25549353       0.00129694      -0.00033043       0.00105259
H        2.92974127       1.16622029       0.37260256       0.00032181      -0.00274091       0.00123587
H        3.93792317       1.35350773      -1.09990859       0.00204707       0.00288719      -0.00231791
