25
Properties=species:S:1:pos:R:3:forces:R:3 charge=0 spin=1 energy=-152.31907653808594 free_energy=-152.31907653808594 stress="0.0 0.0 0.0 0.0 0.0 0.0 0.0 0.0 0.0" pbc="F F F"
C       -3.84471643      -1.89562647       0.01226826       0.00515980      -0.00209817       0.00446486
N       -2.53494385      -1.73172320       0.26200781       0.00740973       0.00439644      -0.00317137
C       -1.99646058      -0.52649615       0.03561245       0.00134147       0.00636675       0.00349802
N       -0.62571816      -0.52961485       0.33222461      -0.00371929       0.00117426      -0.00251281
C        0.26565623       0.51885281       0.27003587      -0.00001828      -0.00433403      -0.00543019
O       -0.05274967       1.66473210      -0.05414415       0.00142431       0.00594684      -0.00443765
C        1.69775822       0.13317271       0.62800640       0.00042713      -0.00018969       0.00675103
C        2.61812835       1.33922856       0.62628640      -0.00336027       0.00040109      -0.00025226
S        4.31799541       0.97063965       1.12211828       0.00099172      -0.00359791       0.00627031
C        4.93089942       0.07034212      -0.31563329       0.00047271       0.00350817       0.00057675
C       -2.72187643       0.57804515      -0.44799272       0.00130989      -0.00245403      -0.00089187
C       -4.08027036       0.38037585      -0.70344924      -0.00152230       0.00218478       0.00068191
C       -4.66262617      -0.87515762      -0.47347324      -0.00354886       0.00225449       0.00282133
H       -4.22422475      -2.90061077       0.21667310       0.00028688      -0.00379431      -0.00237750
H       -0.31640194      -1.45636925       0.62900636       0.00227313      -0.00596075      -0.00302658
H        2.02701743      -0.63211354      -0.09487200      -0.00159156       0.00057797       0.00056969
H        1.70015295      -0.35905392       1.61358720      -0.00079575       0.00168999      -0.00057408
H        2.25561523       2.07482480       1.35750549      -0.00331032      -0.00077337      -0.00146407
H        2.59560393       1.83860224      -0.35214779      -0.00138092       0.00458348      -0.00558683
H        5.98442903      -0.15771286      -0.11177914       0.00509819       0.00309732       0.00140258
H        4.87775810       0.67499865      -1.23127893       0.00205573      -0.00631368       0.00028980
H        4.40126193      -0.87914931      -0.47526851      -0.00583524      -0.00480282       0.00011012
H       -2.21649715       1.53051116      -0.60762936      -0.00335253      -0.00148463      -0.00245721
H       -4.68377037       1.20653775      -1.08543054       0.00374579      -0.00119600       0.00205131
H       -5.72520507      -1.05481620      -0.67007158      -0.00356138       0.00081737       0.00269476
