25
Properties=species:S:1:pos:R:3:forces:R:3 charge=-1 spin=1 energy=-152.04087829589844 free_energy=-152.04087829589844 stress="0.0 0.0 0.0 0.0 0.0 0.0 0.0 0.0 0.0" pbc="F F F"
O       -0.98719051      -0.00649343      -1.20396900      -0.00057579       0.00045543      -0.00120035
C       -0.76462657      -0.78487343      -0.25254650       0.00176571       0.00093997      -0.00247350
C       -1.71699012      -1.73798188       0.23149706      -0.00677365      -0.00190786      -0.00295493
C       -3.04140326      -1.81647443      -0.39614117      -0.00030702       0.00098088       0.00884062
N        0.44186960      -0.76364467       0.46662490      -0.00017266       0.00083598       0.00466883
C        1.58176060       0.01627133       0.24464102      -0.00645310      -0.00504448       0.00055869
C        1.74524432       0.82616951      -0.89423867      -0.00119574      -0.00147012       0.00439984
C        2.91783501       1.56435199      -1.04967218       0.00011717       0.00155184      -0.00511184
C        3.93774409       1.50817218      -0.09351079      -0.00142314       0.00146908       0.00158821
C        3.77747440       0.70001821       1.03618954       0.00280780       0.00002335       0.00074786
C        2.61203301      -0.03869970       1.20581795      -0.00699592      -0.00095095      -0.00171299
H       -1.46926488      -2.37594971       1.08329926       0.00132717      -0.00397147       0.00019810
H       -3.45636402      -2.83123296      -0.43389962       0.00133801      -0.00024483       0.00022291
H       -3.08757788      -1.32809525      -1.37827597      -0.00046393      -0.00027994      -0.00550044
H        0.48921610      -1.39668003       1.26074012       0.00298728       0.00121278      -0.00010561
H        0.93705661       0.85497486      -1.62855165       0.00298169       0.00505611       0.00002095
H        3.03817975       2.19178394      -1.93588150       0.00511260      -0.00280622      -0.00153524
H        4.56624468       0.64497278       1.79072523      -0.00342852      -0.00023255      -0.00354293
H        2.48389280      -0.66864584       2.08982436      -0.00532384       0.00471631       0.00167188
H        4.85479790       2.08959674      -0.22897847       0.00107127       0.00243154      -0.00116242
S       -4.08469872      -0.92970505       0.82271259      -0.00091964       0.00108545       0.00016968
C       -3.73368841       0.79407485       0.45774857      -0.00045660       0.00169379      -0.00084531
H       -2.69969122       1.06849724       0.69968952       0.00384119       0.00087541       0.00315476
H       -4.42016230       1.36935220       1.09229682       0.00822689      -0.00240177      -0.00153881
H       -3.93487557       1.03265889      -0.59388324       0.00291280      -0.00401776       0.00144237
