23
Properties=species:S:1:pos:R:3:forces:R:3 charge=0 spin=1 energy=-145.16036987304688 free_energy=-145.16036987304688 stress="0.0 0.0 0.0 0.0 0.0 0.0 0.0 0.0 0.0" pbc="F F F"
O        1.08705033      -0.48384142       1.63496042      -0.00092147       0.00016457      -0.00275563
C        1.24280225       0.05292040       0.53411227      -0.00340337      -0.00413689       0.00038701
C        2.56715660       0.64188354       0.12855680       0.00214925       0.00671147      -0.00161222
C        3.75244209      -0.02029661       0.74939237       0.00175130      -0.00485763      -0.00331128
C        2.63530444       1.75050192      -0.63072229       0.00274517      -0.00511312       0.00568531
N        0.23655326       0.17066941      -0.40581228       0.00134809       0.00100705       0.00293563
C       -1.11396068      -0.20190029      -0.25020211       0.00431545      -0.00157568       0.00588552
C       -1.71571441      -0.32985833       1.01059334      -0.00502089       0.00029183      -0.00221175
C       -3.06859385      -0.66339797       1.09009193       0.00687140       0.00235000       0.00088209
C       -3.82740427      -0.86435553      -0.06757354      -0.00123644       0.00274337      -0.00719531
C       -3.22366489      -0.73259338      -1.32079615       0.00083926      -0.00428776       0.00284001
C       -1.87344749      -0.40496717      -1.41520279       0.00150609       0.00148211      -0.00150913
H        3.82143403      -1.07535060       0.44753238       0.00076945       0.00055110      -0.00034309
H        4.67742443       0.49164984       0.46312966      -0.00053591       0.00260158       0.00232712
H        3.65174634      -0.01749775       1.84452373      -0.00462060      -0.00128602       0.00045910
H        1.75464343       2.27010602      -1.00872720       0.00036563      -0.00269544      -0.00172091
H        3.60595538       2.18653123      -0.86627969       0.00331694       0.00339919      -0.00554426
H        0.51398781       0.46771180      -1.33857896      -0.00132656       0.00327944      -0.00097642
H       -1.10852084      -0.17697643       1.90347651      -0.00177883       0.00357395       0.00365037
H       -3.53382019      -0.76727626       2.07304119       0.00062813       0.00046311       0.00052619
H       -4.88859813      -1.12193498       0.00676871      -0.00280139      -0.00629852      -0.00046320
H       -3.80381269      -0.89084726      -2.23292814      -0.00287548      -0.00029903      -0.00305083
H       -1.39533998      -0.31772075      -2.39398544      -0.00208516       0.00193131       0.00511539
