23
Properties=species:S:1:pos:R:3:forces:R:3 charge=0 spin=1 energy=-145.1597442626953 free_energy=-145.1597442626953 stress="0.0 0.0 0.0 0.0 0.0 0.0 0.0 0.0 0.0" pbc="F F F"
C        2.91033463      -1.34089301       0.43624724      -0.00470593       0.00267482      -0.00323820
C        2.64195917      -0.04414654       0.20088533       0.00649497      -0.00165167       0.00276270
C        3.68663782       1.00649187       0.02174080      -0.00242907       0.00062537       0.00147726
C        1.23267425       0.48417529       0.24178707      -0.00767837       0.00288248       0.00342244
O        0.98513709       1.62242227       0.65040602      -0.00258216      -0.00116624      -0.00423086
N        0.26074415      -0.39445476      -0.19794216       0.00423282      -0.00042582      -0.00153887
C       -1.13324100      -0.18468926      -0.17855603       0.00207470      -0.00074145       0.00494244
C       -1.92287073      -0.94755496      -1.05525058      -0.00351971       0.00203578       0.00344682
C       -3.30900028      -0.80907004      -1.04749708       0.00460729       0.00439487      -0.00295684
C       -3.91880900       0.09345840      -0.17238880      -0.00455141      -0.00118531      -0.00667822
C       -3.12990839       0.85214491       0.69851751      -0.00204365      -0.00009492      -0.00633079
C       -1.74087346       0.71918513       0.70536308      -0.00018080      -0.00152633       0.00215095
H        2.13888010      -2.08128656       0.64804023      -0.00003564       0.00325692      -0.00177684
H        3.94436251      -1.68635717       0.45113462       0.00222838      -0.00087389      -0.00142142
H        3.56587011       1.52720999      -0.93908718       0.00344964      -0.00368777       0.00105441
H        4.68985027       0.56904112       0.06588695       0.00258085      -0.00254053       0.00025309
H        3.58229882       1.77350988       0.80309374      -0.00081345      -0.00049509      -0.00304884
H        0.58347233      -1.23095912      -0.67858259      -0.00334451      -0.00123548       0.00404623
H       -1.44222732      -1.63865898      -1.75191898      -0.00160269      -0.00235015       0.00334929
H       -3.91311672      -1.40465375      -1.73597948       0.00342438       0.00088626       0.00208744
H       -5.00729494       0.20797110      -0.17035673       0.00268519      -0.00068435      -0.00167800
H       -3.59985908       1.56157985       1.38320493       0.00051290       0.00110006       0.00161272
H       -1.11139549       1.30869324       1.37304363       0.00119597       0.00080274       0.00229311
