61
Properties=species:S:1:pos:R:3:forces:R:3 charge=0 spin=1 energy=-392.3941345214844 free_energy=-392.3941345214844 stress="0.0 0.0 0.0 0.0 0.0 0.0 0.0 0.0 0.0" pbc="F F F"
Cl       4.19029643      -2.09156637      -2.82819877       0.00550132       0.00237522      -0.00233836
C        3.36703819      -1.15684633      -1.60320081       0.00327802       0.00421880       0.00315076
C        1.97273809      -1.18873338      -1.56799639      -0.00100395      -0.00269508       0.00515717
N        1.24271257      -0.60788191      -0.60529962      -0.00023642      -0.00008792       0.00169100
C        1.95017672      -0.01241315       0.37409813      -0.00116184      -0.00300180      -0.00262496
N        1.32280638       0.60914509       1.43488742      -0.00593328      -0.00559765       0.00279487
C       -0.02386783       0.70393382       1.74375361       0.00278287       0.00869008       0.00279985
C       -0.34672003       1.45699751       2.90881289       0.00239804       0.00451464       0.00613097
O        0.73562716       1.99694500       3.54512371      -0.00150451      -0.00658025      -0.00146839
C        0.52559370       2.76895085       4.73511491      -0.00609422       0.00034058      -0.00213769
C       -1.67517285       1.59086531       3.30387873      -0.00623575      -0.00062656       0.00210774
C       -2.70671185       0.99545193       2.56937926      -0.00127491       0.00438707      -0.00693944
C       -2.39258866       0.25902154       1.41982120      -0.00471900      -0.00468773       0.00205921
N       -3.36377976      -0.36951434       0.62417190      -0.00290414      -0.00061332      -0.00557922
C       -4.74041040      -0.36737928       0.79271854      -0.00035283       0.00477281      -0.00066561
C       -5.46208304      -1.14090134      -0.26319522      -0.00178732      -0.00649252      -0.00693560
C       -6.79895009      -1.24336442      -0.22730187      -0.00222787       0.00087249      -0.00086184
C       -7.62736899      -2.01467862      -1.22097958       0.00669059      -0.00282407       0.00282688
N       -8.89341663      -1.37995887      -1.60281405      -0.00306016       0.00793242       0.00249350
C       -9.92484590      -1.41576996      -0.57579431       0.00387055      -0.00067575      -0.00202817
C       -8.72149039      -0.06419148      -2.20715709      -0.00018644      -0.00496458       0.00375727
O       -5.31693025       0.21497387       1.71444042      -0.00574946      -0.00073871       0.00428098
C       -1.05413125       0.11680193       1.01101011      -0.00099869      -0.00230321      -0.00432554
N        3.28599896       0.06452939       0.44377034       0.00051979      -0.00113986       0.00247434
C        4.02442834      -0.46587202      -0.55809880      -0.00095573      -0.00327959      -0.00630622
C        5.46050013      -0.30880821      -0.36803976       0.00664073       0.00024721       0.00509447
C        6.12125379      -0.31052975       0.85676397      -0.00006498       0.00017052      -0.00280392
N        7.45442470      -0.10548269       0.72641619      -0.00231767       0.00174234       0.00459152
C        7.66162532       0.05344844      -0.59501458      -0.00002590       0.00051368      -0.00603309
C        8.88712003       0.32731432      -1.25965658       0.00256434      -0.00503963       0.00211582
C       10.12896834       0.39252709      -0.41432420       0.00311995       0.00472384       0.00092089
C        8.83405244       0.52262337      -2.62680132       0.00396974       0.00284718      -0.00255093
C        7.60150609       0.47285817      -3.33237836       0.00022115      -0.00186539      -0.00009647
C        6.43535819       0.20101215      -2.66510657       0.00757970      -0.00217336       0.00135204
N        6.46442825      -0.05646806      -1.31968409      -0.00097391      -0.00151522      -0.00554736
H        1.43070003      -1.71406748      -2.35607861       0.00386435      -0.00226596       0.00073075
H        1.97776449       1.05113530       2.08291486       0.00577180       0.00266827       0.00258419
H        1.51800214       3.09408081       5.06823174       0.00143005      -0.00289664       0.00247887
H        0.05381249       2.16527174       5.52731063       0.00044000      -0.00094759      -0.00080886
H       -0.09864257       3.65408820       4.53271402      -0.00205353      -0.00117081      -0.00179182
H       -1.91380196       2.16926381       4.19667173       0.00156666       0.00018758       0.00130874
H       -3.74785893       1.09969250       2.87658746      -0.00870109       0.00067875       0.00079174
H       -2.99904260      -0.88075162      -0.17570422      -0.00321105       0.00456914       0.00133272
H       -4.85802156      -1.60758569      -1.04481900       0.00136515      -0.00060973       0.00114506
H       -7.33103327      -0.75474736       0.59788898       0.00013441      -0.00290205      -0.00089450
H       -7.02984512      -2.21141130      -2.12513559      -0.00082819       0.00596142       0.00321999
H       -7.86393519      -3.00741890      -0.79353906       0.00410189       0.00291756       0.00131842
H      -10.09061175      -2.44999005      -0.24417048       0.00023018      -0.00214104      -0.00017869
H       -9.69518145      -0.80726443       0.32177481       0.00331997       0.00440034      -0.00184572
H      -10.87142938      -1.04023328      -0.98797516      -0.00664687      -0.00092030       0.00157079
H       -8.34385492       0.70280984      -1.50146158       0.00230315      -0.00258630       0.00201881
H       -8.00667701      -0.12693211      -3.03897362       0.00040525       0.00140461      -0.00004125
H       -9.67872219       0.29467191      -2.60795768       0.00289816       0.00039938      -0.00164762
H       -0.76784257      -0.44444978       0.11662928      -0.00027554      -0.00240321       0.00230725
H        5.65204275      -0.46753629       1.82752293      -0.00255211       0.00288853      -0.00080250
H       10.28373235      -0.56273957       0.10527660      -0.00366877       0.00115943      -0.00337830
H       10.00440489       1.14816516       0.37286799       0.00297547      -0.00137942      -0.00245893
H       11.00889569       0.62905701      -1.01936341      -0.00152808      -0.00030671       0.00006537
H        9.75105858       0.73103021      -3.17916470      -0.00105065       0.00227357      -0.00016665
H        7.57118002       0.65619170      -4.40674503       0.00124995      -0.00396946       0.00076842
H        5.46220172       0.16718203      -3.15049212      -0.00090787       0.00354413      -0.00418264
