36
Properties=species:S:1:pos:R:3:forces:R:3 charge=-1 spin=1 energy=-212.73069763183594 free_energy=-212.73069763183594 stress="0.0 0.0 0.0 0.0 0.0 0.0 0.0 0.0 0.0" pbc="F F F"
C        4.82053034      -1.39089033       0.81301880       0.00524379      -0.00046182       0.00324568
C        5.61769309      -0.67222666      -0.08559883      -0.00063966       0.00010982      -0.00464198
C        5.02684935       0.28378952      -0.91735372      -0.00059745      -0.00010356       0.00387409
C        3.65993061       0.52407902      -0.84571675      -0.00289583       0.00083469       0.00474191
C        2.84821764      -0.19453309       0.06273804      -0.00411891       0.00060786      -0.00399658
N        1.48664763       0.05505411       0.07426708       0.00062990       0.00644204       0.00116519
C        0.57917480      -0.27372888       1.12309608       0.00609127      -0.00020400       0.00474787
C       -0.78453957       0.00419624       0.84504835       0.00615430      -0.00018786      -0.00056748
C       -1.34050901       0.46626503      -0.42730595       0.00175196      -0.00141423       0.00536292
C       -2.87359274       0.49263381      -0.43853663      -0.00172143       0.00405877      -0.00593231
N       -3.48432870      -0.77290184      -0.04742007      -0.00049270       0.00370077      -0.00344694
C       -4.93771365      -0.72030764      -0.09600641       0.00352837      -0.00315049      -0.00267848
C       -2.93188674      -1.95140454      -0.70141571      -0.00209121       0.00001658       0.00562495
O        0.99473984      -0.75653025       2.19834988       0.00310218      -0.00394092       0.00122632
C        3.44858160      -1.16767031       0.89179901      -0.00098959      -0.00222963      -0.00037605
H        5.63777761       0.84729314      -1.62614280      -0.00196645       0.00229427       0.00153992
H        3.19127850       1.27414366      -1.48643891       0.00067070      -0.00019209       0.00053883
H        1.12364030       0.72998220      -0.61164852      -0.00099658      -0.00185140      -0.00029803
H       -1.47087339      -0.18372910       1.66688560       0.00177380      -0.00023595       0.00132297
H       -0.97528479      -0.12320223      -1.29161410       0.00029941       0.00227097      -0.00204231
H       -3.22761552       1.26510541       0.26402205      -0.00055507       0.00120336       0.00220745
H       -3.20428641       0.82451333      -1.44528122      -0.00430632      -0.00276070       0.00197104
H       -5.36411480      -1.62717404       0.35285940      -0.00225021       0.00620505      -0.00297903
H       -5.30240375       0.14417534       0.47336531      -0.00312883      -0.00094774       0.00316194
H       -5.33778143      -0.63323783      -1.12483903       0.00143293      -0.00016988      -0.00109588
H       -2.99667576      -1.90830703      -1.80551693      -0.00234130       0.00045013      -0.00292641
H       -3.47910780      -2.84331549      -0.36980137      -0.00348766      -0.00254285      -0.00159606
H       -1.87701513      -2.08256348      -0.42016411       0.00479536      -0.00208367       0.00006037
H        2.80584757      -1.70572484       1.59293315       0.00020143       0.00132221      -0.00366136
H        6.69449482      -0.85844241      -0.13900078       0.00147545      -0.00277916      -0.00151413
H        5.27719643      -2.14042491       1.46315516       0.00043897      -0.00026464       0.00035307
S       -0.72369638       2.15223895      -1.03678687       0.00110816      -0.00009981      -0.00194329
C       -0.72937992       3.07446261       0.50868425      -0.00198058       0.00093838      -0.00192067
H       -1.73656926       3.12356707       0.93936558      -0.00151074      -0.00042544      -0.00067974
H       -0.39745020       4.09283408       0.27039750       0.00006714      -0.00753905       0.00012272
H       -0.04412755       2.62492002       1.23638643      -0.00269435       0.00313039       0.00102925
