20
Properties=species:S:1:pos:R:3:forces:R:3 charge=0 spin=1 energy=-128.48004150390625 free_energy=-128.48004150390625 stress="0.0 0.0 0.0 0.0 0.0 0.0 0.0 0.0 0.0" pbc="F F F"
C        3.67753937      -0.31138870      -0.44556563      -0.00162025       0.00709943       0.00185771
C        3.18572147       0.58395173       0.41694868       0.00379947      -0.00434722      -0.00397949
C        1.72795710       0.89429492       0.54530819      -0.00448799      -0.00115937      -0.00124060
O        1.32873205       2.02172515       0.83476397      -0.00047307       0.00029598       0.00199456
N        0.87377464      -0.16827878       0.27958033       0.00158378      -0.00010566      -0.00106540
C       -0.53147590      -0.13166547       0.23227509      -0.00385758      -0.00317811       0.00230107
C       -1.22225897      -1.35226558       0.34452343       0.00519422       0.00731415      -0.00260937
C       -2.61202625      -1.38214512       0.27472917       0.00009844      -0.00185072       0.00174295
C       -3.33076227      -0.19747892       0.09309070      -0.00328636       0.00656806       0.00032756
H       -4.42372055      -0.21955725       0.03748902       0.00069866       0.00168065       0.00048434
C       -2.64351955       1.01549898      -0.02072830       0.00564125      -0.00214344       0.00070720
H       -3.19793211       1.94553261      -0.16467208      -0.00286964       0.00038773       0.00058236
C       -1.24976068       1.06045682       0.04317628      -0.00121623      -0.00440973       0.00321647
H        4.75409166      -0.44824352      -0.55431910       0.00044879      -0.00320105       0.00227967
H        3.04170524      -0.91675363      -1.09177510       0.00045362      -0.00071347      -0.00120062
H        3.82794783       1.25669457       0.98668661      -0.00086202      -0.00161138      -0.00275144
H        1.29999048      -1.09021897       0.22387144      -0.00002764       0.00324389       0.00137243
H       -0.65840616      -2.27605956       0.49619111      -0.00054343      -0.00290522       0.00200954
H       -3.13593560      -2.33687489       0.36365000       0.00192416       0.00106537      -0.00297385
H       -0.70056393       1.99962733      -0.03840284      -0.00059828      -0.00203001      -0.00305509
