69
Properties=species:S:1:pos:R:3:forces:R:3 charge=-1 spin=1 energy=-431.08001708984375 free_energy=-431.08001708984375 stress="0.0 0.0 0.0 0.0 0.0 0.0 0.0 0.0 0.0" pbc="F F F"
C       -8.54995912       4.21992040      -0.79969089      -0.00060286       0.00482991       0.00084160
N       -8.29611239       2.79417712      -0.83867785       0.00320169      -0.00363722      -0.00066319
C       -7.08454367       2.32591647      -1.25922551      -0.00250712       0.00519253       0.00090715
C       -6.91038940       0.84676571      -1.25788808       0.00300699      -0.00325582      -0.00302293
C       -5.60512545       0.26691713      -1.35132154      -0.00156584      -0.00357419       0.00470763
N       -4.52072541       1.13095638      -1.44450009       0.00140594      -0.00402015       0.00473220
C       -3.19453642       0.86421147      -1.25991348      -0.00165972       0.00454969      -0.00358407
C       -2.22845582       1.87017168      -1.55952734      -0.00514466       0.00376123      -0.00026058
Cl      -2.67950988       3.40504080      -2.22447672       0.00143016      -0.00069608      -0.00111478
C       -0.90288649       1.55614434      -1.30842619       0.00223911       0.00275904      -0.00282525
N       -0.49792887       0.37738806      -0.80053154       0.00150579      -0.00392993       0.00219165
C       -1.48005101      -0.50334111      -0.55405909      -0.00097458       0.00247893      -0.00050351
N       -1.19754939      -1.74584242      -0.02266502       0.00054294       0.00341026      -0.00198736
C        0.01317646      -2.30688564       0.36049328       0.00396746       0.00596957      -0.00348922
C       -0.06940610      -3.58625534       0.98244283      -0.00284764       0.00195113       0.00029786
O       -1.33922596      -4.07495637       1.10010209      -0.00213224      -0.00242189       0.00331526
C       -1.53165116      -5.36004427       1.70361592      -0.00032058      -0.00599338      -0.00567415
C        1.09153420      -4.22701667       1.41410003       0.00042343       0.00048441      -0.00404614
C        2.34180143      -3.63372080       1.24491356       0.00473908      -0.00257066       0.00268625
C        2.43889443      -2.37778853       0.61216409       0.00202209       0.00357162      -0.00705820
N        3.64275498      -1.72688222       0.43668692       0.00407343       0.00570256      -0.00269315
C        4.94152505      -2.28200213       0.59396266       0.00019678      -0.00553703       0.00558089
C        5.99679378      -1.33995075       0.48326168      -0.00325035       0.00480966      -0.00040035
C        5.88022994       0.12036062       0.43396872       0.00315437       0.00068209      -0.00001800
C        7.26171856       0.77624020       0.54114686      -0.00371757      -0.00431421       0.00739891
N        7.23475352       2.22875838       0.69121453       0.00137168       0.00276047      -0.00063467
C        8.45760255       2.87138158       0.21831523      -0.00337765       0.00301668       0.00338498
C        6.88241487       2.65217142       2.03874138      -0.00000696       0.00080837      -0.00460438
O        5.11163713      -3.49844758       0.82050929       0.00145392      -0.00140488      -0.00065044
C        1.26222849      -1.72542420       0.17572937      -0.00147557      -0.00154591       0.00322583
N       -2.79794054      -0.31738301      -0.76402995      -0.00037488       0.00138298       0.00120519
C       -5.48339564      -1.13424966      -1.39189788       0.00456569      -0.00108284      -0.00341493
C       -6.60559145      -1.94834558      -1.32227305      -0.00575413      -0.00561485      -0.00081937
C       -7.88711264      -1.39084723      -1.23516612       0.00103523       0.00271960      -0.00048431
C       -8.02368484      -0.00768383      -1.21725926       0.00055885      -0.00031952       0.00242484
O       -6.19884044       3.12106834      -1.65598230       0.00138898      -0.00683067      -0.00121861
H       -7.99990148       4.72064945       0.01057388      -0.00141029      -0.00339062      -0.00371359
H       -8.22018624       4.66174073      -1.74699323       0.00003442       0.00081454       0.00183800
H       -9.62283409       4.39620821      -0.66429643       0.00227135       0.00318733       0.00055841
H       -8.88512797       2.19681005      -0.27249124      -0.00663469      -0.00238556       0.00280683
H       -4.82014051       2.11407828      -1.64673281       0.00008911       0.00444551      -0.00180888
H       -0.12739765       2.29126435      -1.52809968      -0.00306669       0.00074983       0.00079030
H       -2.02995077      -2.31246342       0.14411426      -0.00667553      -0.00523443      -0.00053159
H       -2.61086078      -5.55032996       1.68729874      -0.00030631       0.00080653       0.00438110
H       -1.17471865      -5.36952270       2.74597486      -0.00015206      -0.00057618       0.00177210
H       -1.01330009      -6.14951996       1.13590074      -0.00063483       0.00336009       0.00399920
H        1.01378648      -5.20485747       1.88964913       0.00120362      -0.00190622       0.00318423
H        3.26365149      -4.12518305       1.56664923      -0.00240096      -0.00332595       0.00397886
H        3.63934721      -0.84338847      -0.09290760       0.00050622      -0.00052749       0.00242424
H        6.98701500      -1.79060521       0.52415141       0.00510532      -0.00186091      -0.00426613
H        5.19101277       0.53689183       1.19303983       0.00407258      -0.00102263      -0.00296044
H        7.79406556       0.28798436       1.38407679      -0.00015038      -0.00137865      -0.00271039
H        7.82005601       0.52547011      -0.37422645      -0.00102745      -0.00020483      -0.00024535
H        9.35655557       2.58028325       0.79524967      -0.00014028       0.00022562      -0.00495652
H        8.63610460       2.61084276      -0.83229624      -0.00073265       0.00155014       0.00376689
H        8.35756407       3.96275648       0.28720512      -0.00022721      -0.00066760       0.00206900
H        7.65620988       2.40960679       2.79184319       0.00295901       0.00147707      -0.00233450
H        5.95179802       2.16593126       2.35822631      -0.00191043      -0.00057946       0.00043912
H        6.72290241       3.73850526       2.06884810       0.00448341      -0.00157627       0.00035255
H        1.29600768      -0.74795584      -0.30864446       0.00151529      -0.00450836      -0.00064535
H       -4.47824054      -1.54676620      -1.47778777      -0.00001144      -0.00251666      -0.00198967
H       -6.48126277      -3.03314551      -1.34731208       0.00040427       0.00363559      -0.00124508
H       -8.77498796      -2.02724544      -1.19631060      -0.00188130       0.00240415      -0.00013797
H       -9.02710188       0.42358729      -1.20669435      -0.00047231       0.00145148      -0.00137602
S        5.02636864       0.62931045      -1.17899913      -0.00205932       0.00233307       0.00383049
C        4.38184689       2.27465971      -0.80122579      -0.00121430       0.00168695      -0.00255798
H        3.88176361       2.63229721      -1.70949272      -0.00109750       0.00413838       0.00090674
H        5.20089902       2.95257100      -0.53579976      -0.00079077      -0.00199109       0.00222094
H        3.64492399       2.24485294       0.01055017       0.00378021      -0.00270446      -0.00157216
