31
Properties=species:S:1:pos:R:3:forces:R:3 charge=0 spin=1 energy=-189.30111694335938 free_energy=-189.30111694335938 stress="0.0 0.0 0.0 0.0 0.0 0.0 0.0 0.0 0.0" pbc="F F F"
C       -0.42931764       0.83447468      -1.30184106       0.00135383      -0.00266451       0.00602446
C        0.97541831       0.99539324      -0.80001311      -0.00540826       0.00128180      -0.00386659
O        1.51821770       2.10036564      -0.80651777      -0.00068786       0.00136828       0.00092585
N        1.58446135      -0.14770019      -0.31539093       0.00439531      -0.00018658       0.00384279
C        2.84839238      -0.22694071       0.29997723      -0.00521788       0.00330266       0.00009453
C        3.45208515       0.87716336       0.92185814       0.00004967       0.00258636       0.00198485
C        4.68736041       0.71563483       1.55097470       0.00188483      -0.00409898      -0.00323510
C        5.32494083      -0.52906640       1.57380208      -0.00129242       0.00077236      -0.00261690
H        6.29299798      -0.64356547       2.07084896       0.00357756      -0.00044542       0.00199057
C        4.71897770      -1.62568630       0.95578993       0.00042465       0.00484106      -0.00209854
H        5.20773012      -2.60273632       0.96229827      -0.00047231       0.00032109      -0.00036885
C        3.48950950      -1.47828571       0.31956653       0.00321966      -0.00699532       0.00138336
C       -1.32038621      -0.06140243      -0.85103744      -0.00001147       0.00515342      -0.00287211
C       -2.75614831      -0.07976030      -1.28891566      -0.00175741      -0.00024705      -0.00499997
N       -3.68196279       0.11564047      -0.15589045       0.00536490       0.00058413       0.00251317
C       -4.95875611       0.68080253      -0.58694319      -0.00367901      -0.00330660       0.00078058
C       -3.87315345      -1.10088227       0.62411540      -0.00501636      -0.00044788      -0.00063848
H       -0.71559317       1.63015459      -1.99196203      -0.00019308      -0.00073668      -0.00031504
H        1.12305181      -1.03346928      -0.50567168       0.00069317      -0.00088303       0.00066080
H        2.94522031       1.84282749       0.89082415       0.00181045      -0.00297669      -0.00180240
H        5.15676473       1.57803168       2.02908689       0.00106128       0.00369623       0.00287428
H        3.02206480      -2.32952368      -0.18149461      -0.00256848      -0.00352255       0.00196038
H       -1.04360330      -0.79350835      -0.08621907      -0.00297251       0.00169083      -0.00029840
H       -2.97891891      -1.02922762      -1.81925588       0.00122339       0.00377998       0.00063090
H       -2.91238294       0.72949616      -2.01651981       0.00004243      -0.00181782       0.00154096
H       -4.79684780       1.65384010      -1.06932709       0.00037543       0.00186664      -0.00255933
H       -5.50329808       0.03500239      -1.30480867      -0.00133860       0.00252497       0.00405223
H       -5.60965403       0.83652595       0.28346419       0.00223200       0.00006049      -0.00072224
H       -4.48152650      -0.88443063       1.51247764       0.00255355      -0.00295702      -0.00114506
H       -2.90907614      -1.49589841       0.97061961       0.00284392      -0.00120704      -0.00304116
H       -4.38086799      -1.90623059       0.05755572      -0.00249056      -0.00133740      -0.00067965
