65
Properties=species:S:1:pos:R:3:forces:R:3 charge=0 spin=1 energy=-412.8518981933594 free_energy=-412.8518981933594 stress="0.0 0.0 0.0 0.0 0.0 0.0 0.0 0.0 0.0" pbc="F F F"
C        2.06964073       1.64652275      -1.93782116       0.00503325       0.00315693      -0.00331503
N        1.54528549       0.82468514      -1.01504491      -0.00133795       0.00358459       0.00015026
C        2.44612986       0.20957947      -0.22540756       0.00250888       0.00155264       0.00231430
N        2.03217947      -0.67158418       0.75886459       0.00711340      -0.00468014       0.00270524
C        0.75729489      -1.07613977       1.11589186       0.00100832       0.00303723      -0.00258394
C       -0.42044860      -0.52605521       0.60728121      -0.00256007       0.00320026      -0.00632420
C       -1.66653101      -1.00413482       1.04123432       0.00085334       0.00582337       0.00157466
N       -2.81698993      -0.38019910       0.51928847      -0.00350216      -0.00385262       0.00154127
C       -4.06213827      -0.95463506       0.38584114      -0.00062598       0.00405315      -0.00103481
O       -4.31130598      -2.10979198       0.73626136       0.00102054      -0.00295198       0.00179681
C       -5.11477952      -0.04160673      -0.24771893      -0.00035362      -0.00015664       0.00598927
C       -5.37581102       1.18920510       0.64538113       0.00066945       0.00443191      -0.00222213
N       -6.47785919       2.00273809       0.13075656      -0.00213653      -0.00063494      -0.00023963
C       -6.83955041       3.07399855       1.05692874      -0.00210974       0.00145138       0.00459528
C       -6.16145938       2.50492075      -1.21140583      -0.00089547      -0.00260797       0.00049300
C       -5.93250412       1.34656440      -2.17871147      -0.00233757       0.00182235       0.00039387
C       -4.81949495       0.39563975      -1.70312264      -0.00051925      -0.00031192       0.00220376
S       -4.77151167      -0.95051032      -2.92887292       0.00277965       0.00178710       0.00124312
C       -3.22935969      -1.81971481      -2.57831020       0.00085342       0.00356874       0.00068221
C       -1.74801398      -2.03476477       1.98121387      -0.00062805      -0.00270110       0.00265822
C       -0.56943467      -2.58842794       2.49318004       0.00512451      -0.00198931      -0.00048295
C        0.67456202      -2.12293719       2.07633268      -0.00242564      -0.00196828       0.00193201
O        1.88730534      -2.58852104       2.50507750       0.00300136      -0.00297344       0.00077072
C        1.91865980      -3.63441548       3.48591549       0.00054111       0.00705914      -0.00102714
N        3.77555623       0.35067611      -0.28014305      -0.00484258       0.00213224       0.00125703
C        4.31683420       1.19711101      -1.19682747      -0.00375947      -0.00219864      -0.00272831
C        5.75740576       1.32241447      -1.17526851       0.00133836       0.00022015       0.00235479
C        6.62959953       2.22092057      -1.84600323       0.00015327      -0.00474316       0.00103679
N        7.91279527       2.03782313      -1.54619494      -0.00056477       0.00082117       0.00472879
N        7.90745724       0.98719332      -0.64861295      -0.00786529      -0.00034186      -0.00116381
C        9.03774069       0.46770494      -0.09175476      -0.00055394      -0.00323135      -0.00447839
C        8.93361877      -0.58624395       0.78374605       0.00346538       0.00147438       0.00224602
C        7.65666006      -1.11089597       1.08856846       0.00497526      -0.00617650       0.00243202
C        6.51674845      -0.57147123       0.51400067      -0.00379221       0.00421020      -0.00366580
C        6.63263269       0.51134171      -0.38001047       0.00137131       0.00052719      -0.00702066
C        3.43589770       1.87841601      -2.08071673      -0.00489169       0.00188297       0.00202325
Cl       3.93858249       2.95472687      -3.35366459       0.00065980      -0.00140817      -0.00092988
H        1.36886038       2.15183120      -2.60449310       0.00113171      -0.00262478       0.00408903
H        2.80408581      -1.09077996       1.27870293      -0.00426978       0.00168451      -0.00470038
H       -0.31044708       0.25985670      -0.14537972      -0.00138914      -0.00467889       0.00229153
H       -2.68021298       0.55502996       0.14501835       0.00010899       0.00068447      -0.00229746
H       -6.02562301      -0.65808585      -0.26252922       0.00161889       0.00134131       0.00011821
H       -4.44626143       1.78926320       0.74198695      -0.00309303      -0.00143004      -0.00049542
H       -5.62310683       0.84381203       1.65924056       0.00077402      -0.00231456      -0.00112814
H       -6.02062748       3.80059664       1.22231159      -0.00223428      -0.00080563       0.00050436
H       -7.11499969       2.65229306       2.03252950       0.00248420       0.00251815      -0.00568581
H       -7.70519603       3.62771266       0.66998771       0.00175524       0.00193869      -0.00337508
H       -7.00366380       3.11538782      -1.56738632      -0.00122917       0.00036108       0.00168349
H       -5.27296602       3.16945548      -1.20005105       0.00145417      -0.00276227       0.00171340
H       -5.68422530       1.72988138      -3.17802681      -0.00042930      -0.00334591       0.00056478
H       -6.86725008       0.77158928      -2.27998911       0.00108838       0.00060453      -0.00172520
H       -3.85342095       0.92612582      -1.74087685       0.00110909      -0.00120712       0.00006945
H       -2.37670582      -1.13028948      -2.52914597       0.00007397      -0.00151375      -0.00040248
H       -3.07340852      -2.50074133      -3.42450382      -0.00125845      -0.00201905      -0.00212751
H       -3.29163675      -2.40892941      -1.65645836       0.00454325      -0.00171328      -0.00161451
H       -2.72327970      -2.40607736       2.29734591       0.00185204       0.00130089       0.00112893
H       -0.62739722      -3.39557180       3.22332809       0.00033381       0.00269163      -0.00056687
H        1.43261857      -4.54996640       3.11209632      -0.00323949       0.00016578      -0.00033102
H        2.97731963      -3.84035306       3.68059341       0.00194344      -0.00028771      -0.00027977
H        1.43053829      -3.32086931       4.42288922       0.00030783      -0.00114997      -0.00255635
H        6.36350618       3.00933245      -2.54536340       0.00121012      -0.00341184       0.00170438
H        9.96209449       0.94861683      -0.40299128       0.00030908      -0.00143614       0.00097273
H        9.83576116      -1.00767158       1.23063956      -0.00094831       0.00502333      -0.00140850
H        7.57500878      -1.95083943       1.78276483       0.00206290      -0.00181273       0.00263309
H        5.51735132      -0.95113447       0.72364722      -0.00283891       0.00133047       0.00131531
