56
Properties=species:S:1:pos:R:3:forces:R:3 charge=0 spin=1 energy=-359.3943176269531 free_energy=-359.3943176269531 stress="0.0 0.0 0.0 0.0 0.0 0.0 0.0 0.0 0.0" pbc="F F F"
F       -6.41243875       5.60013796      -0.35679418       0.00178660      -0.00029547       0.00098014
C       -5.63817501       4.52736611      -0.06587621       0.00149015       0.00066805      -0.00269499
C       -4.62160641       4.65273412       0.89210894       0.00219779      -0.00312039       0.00149229
Cl      -4.37055977       6.16479319       1.67556833      -0.00288186      -0.00043732      -0.00069721
C       -3.83633463       3.54683613       1.19627282      -0.00581734       0.00253946      -0.00290900
C       -4.06194055       2.31418890       0.55129794      -0.00225611      -0.00167961       0.00160152
N       -3.20199683       1.25448094       0.86063236       0.00910070       0.00240442       0.00219360
C       -3.40516437      -0.09920896       0.73929455      -0.00327263      -0.00173246       0.00066821
C       -4.66358759      -0.73140705       0.90894918       0.00508919       0.00092667      -0.00043156
C       -5.86448141      -0.04407508       1.26504171      -0.00563993       0.00277382       0.00347986
N       -6.88265254       0.44327355       1.57028920       0.00312230      -0.00210024      -0.00043750
C       -4.72554416      -2.14453758       0.83198334      -0.00378513      -0.00078037      -0.00407120
N       -3.68135850      -2.93691841       0.62506458       0.00353438      -0.00241187      -0.00194000
C       -2.46417983      -2.35810590       0.48380324      -0.00406645       0.00364918      -0.00270327
C       -2.25571032      -0.93708306       0.51792457       0.00077327      -0.00560811      -0.00005367
C       -0.94377878      -0.44515985       0.30951017       0.00254308       0.00227067      -0.00263568
C        0.13440041      -1.30186884       0.14346313      -0.00164080      -0.00377850       0.00104601
N        1.45385914      -0.88208789      -0.03377289       0.00105822       0.00145248       0.00071111
C        1.93672480       0.40178786       0.14763395      -0.00534648       0.00445235       0.00193138
C        3.37811856       0.62233182      -0.16198602      -0.00181888      -0.00008056       0.00341955
C        4.08445536      -0.06154838      -1.08156944      -0.00469770      -0.00060485      -0.00502187
C        5.50562048       0.24941833      -1.43695136      -0.00166254      -0.00097369       0.00178612
N        5.91165602       1.60392757      -1.06150601       0.00189931      -0.00627255       0.00329518
C        7.35664692       1.73725077      -0.91235412       0.00120292      -0.00051827      -0.00048348
C        5.36591783       2.60826342      -1.97179424      -0.00013532       0.00278959      -0.00215922
O        1.22341785       1.34471107       0.51266989       0.00539242      -0.00494883      -0.00133013
C       -0.08449330      -2.71938471       0.12240541       0.00300461       0.00128798       0.00089252
O        1.05766540      -3.43179149      -0.09240013       0.00002053      -0.00082720       0.00372171
C        1.01829605      -4.87987520      -0.01140757       0.00430138       0.00205702       0.00451803
C        0.95445986      -5.37344313       1.42200515       0.00080986       0.00249691      -0.00421828
C       -1.35874947      -3.22694845       0.27921200       0.00357838       0.00111702       0.00070983
C       -5.06589885       2.21330044      -0.42033626       0.00087307       0.00084007      -0.00274089
C       -5.85986652       3.31923589      -0.72095667      -0.00228408      -0.00248361      -0.00239387
H       -3.06227846       3.64035500       1.95822981      -0.00072423      -0.00003184       0.00259663
H       -2.26628798       1.53346247       1.14489253      -0.00513826      -0.00279135      -0.00129829
H       -5.68780533      -2.65032912       0.95971719       0.00490361       0.00426614       0.00405845
H       -0.71299414       0.62027153       0.27010224      -0.00149745       0.00033799       0.00350856
H        2.11447851      -1.64062816      -0.20148278       0.00028842       0.00085734      -0.00273088
H        3.79134994       1.50669521       0.32505750       0.00201886      -0.00033084      -0.00098443
H        3.64748079      -0.90759870      -1.62083808       0.00286945       0.00474721       0.00303857
H        5.65818750       0.04129864      -2.51606608      -0.00039172      -0.00221986      -0.00132899
H        6.16274327      -0.46693909      -0.90959290       0.00355287      -0.00204009      -0.00185023
H        7.91276167       1.53396134      -1.84854104      -0.00003619      -0.00107514       0.00247971
H        7.72499345       1.04164061      -0.14628608      -0.00216588       0.00178169      -0.00147079
H        7.60551847       2.75752042      -0.59205499       0.00049503       0.00172570      -0.00195353
H        5.52292454       3.61489179      -1.56204575       0.00019680      -0.00145543      -0.00062348
H        4.28594273       2.45619579      -2.10182134      -0.00367768       0.00216021       0.00119357
H        5.83100238       2.57728445      -2.97559169      -0.00196498       0.00058210      -0.00058500
H        1.95269627      -5.19996916      -0.49210711       0.00193137       0.00034860      -0.00036892
H        0.18217100      -5.26661255      -0.61655431      -0.00386027      -0.00159319      -0.00516662
H        0.97278086      -6.47142744       1.43803884      -0.00308186      -0.00384049       0.00445983
H        0.04070016      -5.03250901       1.92529406      -0.00479040       0.00063275       0.00211599
H        1.81504059      -5.00822323       1.99588983       0.00042585      -0.00045488       0.00133133
H       -1.58198750      -4.29143897       0.24128254       0.00354924      -0.00012836      -0.00336862
H       -5.21366646       1.27447316      -0.95432802      -0.00013809       0.00335267      -0.00086986
H       -6.65593301       3.25283841      -1.46276947       0.00076273       0.00209739       0.00229186
