41
Properties=species:S:1:pos:R:3:forces:R:3 charge=-1 spin=1 energy=-251.38351440429688 free_energy=-251.38351440429688 stress="0.0 0.0 0.0 0.0 0.0 0.0 0.0 0.0 0.0" pbc="F F F"
C        4.64589666       1.00003459      -1.32696722       0.00021894      -0.00440943       0.00365078
C        5.99469844       1.00582032      -1.02776159      -0.00628221       0.00690772      -0.00325659
C        6.43776688       0.25316111       0.09064080       0.00278288      -0.00521898       0.00085552
N        5.60778184      -0.45882272       0.85727268      -0.00108922       0.00174052      -0.00335684
C        4.28860477      -0.47943068       0.57986278       0.00437146      -0.00067809       0.00526080
C        3.73136136       0.25203778      -0.52533118       0.00427025      -0.00041711       0.00023077
C        2.34348378       0.19875774      -0.76668617       0.00540551       0.00033823       0.00431275
C        1.50252975      -0.57091458       0.05399831      -0.00110494       0.00643966      -0.00583758
N        0.13805856      -0.63922055      -0.11816516       0.00302817       0.00208569      -0.00077103
C       -0.60600655      -0.20161029      -1.25351781      -0.00417790      -0.00232275       0.00690845
C       -2.01574040      -0.29891852      -1.13686603      -0.00173066      -0.00254180       0.00136973
C       -2.82632577      -0.61831725       0.04601399       0.00242394       0.00204095      -0.00110220
C       -2.75668936       0.45112143       1.19771495       0.00003322       0.00634710      -0.00025622
N       -3.36952142       1.71627904       0.87662536      -0.00404704       0.00096089      -0.00281513
C       -4.81835776       1.73682378       0.79673286       0.00262019       0.00549719      -0.00080242
C       -2.69792716       2.54870606      -0.11236583      -0.00005241      -0.00626135       0.00406189
O       -0.01795243       0.24132086      -2.26614918       0.00634816       0.00174188      -0.00751292
C        2.07126621      -1.29826466       1.15226319      -0.00113180       0.00121708      -0.00325838
C        3.41660059      -1.25053856       1.40560515      -0.00334451      -0.00217140       0.00034451
H        7.48995661       0.21409034       0.38511947      -0.00155735      -0.00352051      -0.00151781
H        1.89413301       0.73414615      -1.60681877      -0.00321899      -0.00088702      -0.00518635
H       -0.40264024      -1.21783495       0.54368146       0.00253153      -0.00134177      -0.00103561
H       -2.53377609      -0.06681708      -2.06588400      -0.00294815      -0.00369753       0.00250930
H       -3.88704819      -0.69377347      -0.25363299      -0.00121439      -0.00367904      -0.00152746
H       -1.69704158       0.61455889       1.44648726      -0.00092727       0.00005947      -0.00037231
H       -3.24545697       0.02000349       2.08880755      -0.00229284       0.00199270      -0.00029451
H       -5.25573116       1.15857380       1.62089824       0.00016552      -0.00039613       0.00362345
H       -5.19054653       2.76749173       0.87253212       0.00241721      -0.00100417       0.00256107
H       -5.21424395       1.32056256      -0.15052299      -0.00186758      -0.00677213       0.00293722
H       -2.95718823       2.28382376      -1.15484862       0.00447481       0.00466516      -0.00458103
H       -2.96275769       3.60668197       0.03931312      -0.00403950      -0.00238927      -0.00126703
H       -1.60942270       2.44691186      -0.01646954      -0.00057697       0.00194154       0.00003878
H        3.88275970      -1.79222737       2.23007814       0.00350781      -0.00269035       0.00700480
H        6.71133017       1.57257174      -1.63169170       0.00159413      -0.00199969       0.00007504
H        4.24832121       1.55604505      -2.17806268       0.00290373       0.00855315      -0.00153634
H        1.40206603      -1.89339767       1.77650840      -0.00425386       0.00047824       0.00104150
S       -2.42084550      -2.23193343       0.92081645       0.00233050      -0.00263080      -0.00156358
C       -2.34263069      -3.32627133      -0.50500227       0.00038265      -0.00127004       0.00234912
H       -2.18684178      -4.34279670      -0.12330942       0.00180508       0.00025924      -0.00693909
H       -1.51743671      -3.04508627      -1.16847040      -0.00324468       0.00250825       0.00240669
H       -3.28423341      -3.29519882      -1.06539567      -0.00451350       0.00052498       0.00324801
