42
Properties=species:S:1:pos:R:3:forces:R:3 charge=0 spin=1 energy=-265.1420593261719 free_energy=-265.1420593261719 stress="0.0 0.0 0.0 0.0 0.0 0.0 0.0 0.0 0.0" pbc="F F F"
C       -0.26847439      -0.78346385       0.36915079       0.00268206       0.00072512       0.00242277
C        1.01943895      -0.64375698      -0.37042956      -0.00285096      -0.00355909      -0.00301260
O        1.12015189      -0.73978554      -1.59443216      -0.00092301       0.00044175       0.00648817
N        2.09982150      -0.39361591       0.47292104      -0.00205357       0.00169785       0.00068220
C        3.44632754      -0.20658654       0.14103167      -0.00012168       0.00057519       0.00464006
C        3.93708292      -0.34573029      -1.18846928       0.00338561       0.00137289       0.00126296
H        3.22474020      -0.60277333      -1.97404985      -0.00275627      -0.00195216       0.00070974
C        5.27725290      -0.15218806      -1.44839335      -0.00470018       0.00504860      -0.00633377
C        6.19127314       0.18807387      -0.41296060       0.00307013       0.00106341      -0.00772136
N        7.50121917       0.38433124      -0.68880240      -0.00449839      -0.00173034       0.00066808
C        8.32304470       0.70199308       0.31033387       0.00616401       0.00024799       0.00336691
N        7.95695407       0.85191386       1.61322605       0.00313967      -0.00200271       0.00080561
C        6.68168945       0.66647641       1.90551374       0.00416180      -0.00225826      -0.00101125
H        6.38755914       0.78819996       2.95311687      -0.00181593       0.00274225       0.00264528
C        5.69901153       0.32205392       0.92471343      -0.00691175       0.00327244      -0.00248386
C        4.32709488       0.11921483       1.17658905      -0.00292791       0.00053666       0.00150249
C       -1.40618800      -1.07892589      -0.27673933       0.00294068      -0.00271937       0.00213033
C       -2.73466163      -1.20044076       0.41611844      -0.00566417      -0.00071844      -0.00499431
N       -3.54933686       0.02687966       0.28457536      -0.00102158       0.00513530      -0.00065163
C       -4.79177464      -0.01275552       1.09370937       0.00480407      -0.00310731      -0.00170743
C       -6.02459785      -0.37066794       0.25223599      -0.00151193       0.00354208      -0.00409258
C       -6.29334473       0.76241854      -0.75433014      -0.00034330      -0.00496379      -0.00146094
C       -4.95815509       1.41387439      -1.17817833      -0.00121842      -0.00149660       0.00514166
C       -3.81969861       0.39762122      -1.11472528       0.00454167      -0.00369257      -0.00684898
H       -0.23970744      -0.63948475       1.45221835      -0.00129394      -0.00169945       0.00476924
H        1.88451463      -0.32717559       1.46462348      -0.00264895       0.00152522      -0.00161303
H        5.68890970      -0.24813972      -2.45377969       0.00247726       0.00066796      -0.00484872
H        9.37661667       0.85953296       0.07612841      -0.00361621      -0.00517730       0.00018139
H        3.95195434       0.22535746       2.19669997       0.00158986       0.00423582       0.00227414
H       -1.36082393      -1.22481113      -1.36133495       0.00198673      -0.00299795      -0.00052479
H       -3.27004184      -2.09143220       0.02527258       0.00007105      -0.00481335      -0.00567096
H       -2.56787994      -1.37063209       1.49019707       0.00103106      -0.00151695       0.00448063
H       -4.95438808       0.97572312       1.56028287      -0.00422045      -0.00151549       0.00357130
H       -4.65208099      -0.71888869       1.92324426       0.00089839      -0.00073460      -0.00075826
H       -5.83334400      -1.32252791      -0.27055371       0.00342833       0.00396971       0.00266673
H       -6.89435445      -0.53543504       0.90290835       0.00047596       0.00076616      -0.00028589
H       -6.95218770       1.52063254      -0.30641318       0.00058180       0.00013128      -0.00315844
H       -6.82554021       0.37282341      -1.63336555       0.00066516       0.00103481      -0.00032964
H       -4.71203181       2.26185909      -0.51924756       0.00129931       0.00548454       0.00237078
H       -5.03391955       1.82015355      -2.19544241      -0.00119005       0.00669307      -0.00067934
H       -2.90446643       0.82176858      -1.55385644       0.00463092      -0.00155900       0.00384881
H       -4.07141905      -0.48766962      -1.73796758      -0.00173707      -0.00269526       0.00155881
