27
Properties=species:S:1:pos:R:3:forces:R:3 11_carbanion=T (SP=-976.179310835303,U=-975.94843985,H=-975.94749564,G=-976.00458472) charge=-1 spin=1 energy=-162.6045684814453 free_energy=-162.6045684814453 stress="0.0 0.0 0.0 0.0 0.0 0.0 0.0 0.0 0.0" pbc="F F F"
C        1.29303302       2.98604613      -0.00573227       0.00276829       0.00014608      -0.00000683
S       -0.03485183       2.09702883      -0.85553360       0.00193065       0.00336134       0.00238069
C       -0.06068871       0.53453427       0.12368366       0.00189698       0.00341174      -0.00278398
C       -1.14992683      -0.26522575      -0.45191273      -0.00422898      -0.00142425      -0.00047931
C       -2.38424156      -0.34220936       0.26788632       0.00219908       0.00208442       0.00324798
O       -2.61191590       0.19037735       1.36041695       0.00058721       0.00068846       0.00633408
O       -3.30568018      -1.10218408      -0.41215028      -0.00112626      -0.00261503      -0.00258079
C       -4.58938568      -1.25759064       0.22010135      -0.00288239       0.00021276      -0.00355710
C        1.26479898      -0.22095584       0.09947784      -0.00030700      -0.00064880       0.00302765
H       -0.33193202       0.81295257       1.15766453       0.00254167       0.00176151       0.00050983
H       -1.04231710      -0.81291798      -1.38878891      -0.00260442      -0.00138459       0.00118986
H        1.42212314       3.94006368      -0.53236114      -0.00363272       0.00076152       0.00012966
H        1.03328047       3.18864152       1.04137179       0.00415448      -0.00301329      -0.00856950
H        2.23456333       2.42345652      -0.04943997       0.00220796      -0.00016115       0.00347802
H       -5.17365838      -1.90399890      -0.44794533      -0.00320721      -0.00076294      -0.00266710
H       -4.48038949      -1.72284133       1.21177111       0.00144365      -0.00236883      -0.00073542
H       -5.08269542      -0.28090447       0.34163922      -0.00144327      -0.00202993       0.00163576
C        1.72233655      -0.83628768       1.27200273      -0.00080509      -0.00167762      -0.00349075
C        2.89221111      -1.60412050       1.25739342      -0.00022111      -0.00007074      -0.00311396
C        3.61509546      -1.76204401       0.07418092      -0.00047433       0.00193200       0.00293123
C        3.16099570      -1.15111483      -1.09854971       0.00288995      -0.00366246      -0.00202063
C        1.99009819      -0.38779907      -1.08702284      -0.00256206       0.00369070      -0.00008965
H        1.14999616      -0.72042807       2.19423362      -0.00303632      -0.00135153       0.00036365
H        3.23381760      -2.08077825       2.17961164       0.00471547       0.00299224      -0.00191751
H        4.52946814      -2.36094161       0.06370835      -0.00220409       0.00111502      -0.00239595
H        3.71678388      -1.26775542      -2.03192884      -0.00206509      -0.00199316       0.00289232
H        1.62397660       0.09666878      -1.99504219       0.00346500       0.00100625       0.00628808
