29
Properties=species:S:1:pos:R:3:forces:R:3 15_TS=T (SP=-1102.785111003891,U=-1102.54574931,H=-1102.5448051,G=-1102.60367107) charge=-1 spin=1 energy=-185.92111206054688 free_energy=-185.92111206054688 stress="0.0 0.0 0.0 0.0 0.0 0.0 0.0 0.0 0.0" pbc="F F F"
N       -3.10759633       0.02947467      -0.12371228      -0.00065900       0.00314890      -0.00168587
C       -1.81289428       0.61402257      -0.06752051      -0.00526489      -0.00055888      -0.00361386
C       -0.90940801      -0.04735017       0.79763094      -0.00388432      -0.00532907      -0.00054723
C        0.47626532       0.42370713       0.87956274      -0.00013132       0.00042984      -0.00382416
O       -1.53037514       1.62296810      -0.75067868      -0.00039610      -0.00470693       0.00309226
S        1.41434793      -0.75217144      -0.17618012      -0.00212505      -0.00250059       0.00125672
C        3.12223091      -0.32935973       0.22795277       0.00141612       0.00229447      -0.00634545
H       -1.24159437      -0.91113550       1.37924585       0.00171357      -0.00111686       0.00192645
H        0.57328350       1.43723525       0.46090229      -0.00285344      -0.00287426      -0.00208608
H        0.91051395       0.35664505       1.88700034       0.00351050       0.00319800       0.00308126
H        3.34930733       0.71657472      -0.01770317       0.00030689       0.00152481       0.00205072
H        3.35149452      -0.51286087       1.28641604       0.00089911       0.00077761      -0.00175798
H        3.75685117      -0.97991445      -0.38772330       0.00147958       0.00070108       0.00493749
C       -4.19927113       0.43512116      -0.86795664       0.00294679       0.00139030       0.00285585
C       -5.39470290      -0.34819285      -0.77137423       0.00554061       0.00375170       0.00057421
C       -6.52221330      -0.01373272      -1.47623988      -0.00243412       0.00013271       0.00319287
C       -6.53033426       1.12724689      -2.33040950       0.00344567      -0.00504047       0.00179625
C       -5.33821326       1.91679807      -2.42920605      -0.00661045       0.00262374      -0.00029719
C       -4.18533714       1.56521165      -1.69802044       0.00311413       0.00198707      -0.00234994
C       -5.43875386       3.04522837      -3.30558000       0.00529659       0.00068927      -0.00262043
N       -6.53691482       3.34094764      -3.97956496      -0.00439800      -0.00037023      -0.00129125
C       -7.61000779       2.52509152      -3.81731995      -0.00714535       0.00259954       0.00132945
N       -7.64032805       1.45041981      -3.02726973      -0.00077489       0.00332543      -0.00006838
H       -5.38630517      -1.22608105      -0.12139095      -0.00068645       0.00611034       0.00040524
H       -7.44616941      -0.59236484      -1.41979021       0.00494227      -0.00308181      -0.00469114
H       -3.26445769       2.15092263      -1.75948572       0.00220445      -0.00103010      -0.00087396
H       -3.22981369      -0.80111674       0.44849830      -0.00504291      -0.00602443       0.00067786
H       -4.57562845       3.70480351      -3.44001252       0.00474167      -0.00343372       0.00179808
H       -8.51235598       2.77338912      -4.37845158       0.00084823       0.00138268       0.00307813
