36
Properties=species:S:1:pos:R:3:forces:R:3 18H=T (SP=-838.408472982961,U=-838.08604624,H=-838.08510203,G=-838.14727017) charge=0 spin=1 energy=-226.53028869628906 free_energy=-226.53028869628906 stress="0.0 0.0 0.0 0.0 0.0 0.0 0.0 0.0 0.0" pbc="F F F"
N       -3.53608426      -0.01222617       0.08895781       0.00461581       0.00029583      -0.00201650
C       -2.21592288       0.39242153       0.20551073      -0.00231987       0.00405937      -0.00218073
C       -1.50035361      -0.19601959       1.36367987       0.00698037       0.00271015      -0.00366300
C       -0.17911009       0.06813527       1.50894553      -0.00301406      -0.00002697      -0.00074041
O       -1.66423567       1.18001168      -0.57201330       0.00109733      -0.00176531       0.00150018
H       -2.06559941      -0.82892974       2.05436605      -0.00025684       0.00253102      -0.00028940
H        0.31490031       0.67377274       0.74420371      -0.00323403       0.00114764       0.00084399
C        0.59732228      -0.40227734       2.67008465       0.00386988       0.00085039      -0.00570861
C       -4.48116578       0.41012477      -0.85791127       0.00665092       0.00369852       0.00183000
C       -5.71837523      -0.29576811      -0.86283814      -0.00346953      -0.00015857       0.00552347
C       -6.71994982       0.06330413      -1.73449248       0.00144775      -0.00201640      -0.00274156
C       -6.53815538       1.14121296      -2.64544805       0.00183558       0.00029391      -0.00281918
C       -5.29056366       1.84708196      -2.63838630       0.00360119       0.00351661       0.00530207
C       -4.26651538       1.46940610      -1.73743974       0.00221977       0.00108403      -0.00242200
N       -5.09374277       2.88654181      -3.49756295      -0.00331338       0.00269169      -0.00698134
C       -6.07227230       3.22093620      -4.33247441       0.00623390      -0.00527900       0.00518525
N       -7.28818545       2.61076826      -4.42022396       0.00024213      -0.00235292      -0.00231077
C       -7.50023431       1.59691177      -3.58960885       0.00255334       0.00441642       0.00130190
H       -5.85638183      -1.12949321      -0.16830703      -0.00167279       0.00305796      -0.00223815
H       -7.66984440      -0.47632775      -1.74172658      -0.00504148      -0.00406030      -0.00092354
H       -3.32550029       2.01777877      -1.75273546      -0.00629893      -0.00191136       0.00172680
H       -5.89288167       4.05689094      -5.01182232      -0.00133386      -0.00428605      -0.00195760
H       -8.47515586       1.10201287      -3.65513565      -0.00524744       0.00021315       0.00378737
H       -3.86581790      -0.71315019       0.74740160      -0.00049307      -0.00178432       0.00259743
H        1.68447009      -0.37259772       2.51316263      -0.00095141      -0.00039696       0.00004992
H        0.30155453      -1.40471708       3.01103117      -0.00070066      -0.00497046       0.00213750
N        0.35554540       0.49038142       3.90840836      -0.00320143      -0.00232122      -0.00108063
C        0.65982637       1.91081564       3.60120779       0.00152902      -0.00176640       0.00192337
C        1.13405121      -0.00069454       5.06643653       0.00619834      -0.00017108       0.00002684
H        0.88132894      -1.04851161       5.25140469      -0.00173021      -0.00490123      -0.00056019
H        0.89646742       0.59966814       5.94988506      -0.00017283       0.00109793      -0.00096348
H        2.20127571       0.08726002       4.83349904      -0.00382127       0.00023462      -0.00101671
H       -0.00502931       2.24553351       2.79913177       0.00180027      -0.00359754      -0.00005904
H        1.70360983       1.97842345       3.27414114       0.00047787       0.00285346      -0.00012373
H        0.50880584       2.51688165       4.49932511       0.00140863       0.00606991       0.00532010
H       -0.65088102       0.41733736       4.12258432      -0.00648905       0.00094343       0.00174063
