18
Properties=species:S:1:pos:R:3:forces:R:3 3_TS=T (SP=-837.231470792289,U=-837.08662744,H=-837.08568323,G=-837.13796905) charge=-1 spin=1 energy=-106.93128967285156 free_energy=-106.93128967285156 stress="0.0 0.0 0.0 0.0 0.0 0.0 0.0 0.0 0.0" pbc="F F F"
O       -1.49645799       0.95776735      -0.82846490      -0.00235555      -0.00092608       0.00292116
C       -1.85671604      -0.25688959      -0.25427405      -0.00411859      -0.00593060      -0.00065980
C       -0.83871880      -0.69991493       0.65525291       0.00153454      -0.00390151      -0.00005370
C        0.43087946       0.06615314       0.84530160      -0.00135125      -0.00522956      -0.00409283
O       -2.90952618      -0.82584462      -0.53033658       0.00327738       0.00687494       0.00376340
S        1.64623204      -0.70067079      -0.29277134       0.00293095       0.00189544       0.00065337
C        3.12434330       0.27040069       0.04924495       0.00256144      -0.00188002      -0.00356007
C       -1.01702914      -1.90442924       1.32965877      -0.00275870       0.00231055      -0.00168179
H        0.29767329       1.11754926       0.56032030       0.00306307       0.00043425      -0.00099167
H        0.82697498      -0.02914530       1.86561483       0.00120246      -0.00029062      -0.00300404
H        3.91702389      -0.12789910      -0.59633728      -0.00117925       0.00235316       0.00221956
H        2.98031631       1.33319274      -0.18645540      -0.00225026      -0.00134456       0.00325697
H        3.44402663       0.17187130       1.09554830      -0.00016921       0.00382548       0.00113111
C       -2.43219401       1.48770858      -1.77735954       0.00555117       0.00431641       0.00051729
N       -1.05494393      -2.90822611       1.94288409       0.00000392      -0.00066489       0.00158672
H       -1.99831834       2.42794390      -2.14343285      -0.00565151      -0.00133416       0.00145671
H       -3.40721071       1.67305998      -1.30049796      -0.00131052      -0.00106338      -0.00178772
H       -2.58137669       0.78286393      -2.60979015       0.00102015       0.00055538      -0.00167467
