23
Properties=species:S:1:pos:R:3:charge:R:1:forces:R:3 1=T (SP=-630.181545049113,U=-629.99165771,H=-629.9907135,G=-630.0432562) energy=-17128.872269256237 pbc="F F F"
C        2.32385780      -0.56203126       0.02855559       0.21592654      -0.00451909       0.00107907      -0.00241886
O        2.47528842      -1.76050108       0.12312728      -0.26591447       0.00356320      -0.00239807      -0.00143654
C        0.99543129       0.11141176      -0.02289478      -0.00212420      -0.00485875       0.00417020       0.00530360
C       -0.10351377      -0.68098579       0.01965977       0.01330465      -0.00166504       0.00076010      -0.00201624
O        3.32773079       0.32676212      -0.04408575      -0.10991880      -0.00141459      -0.00886245       0.00165786
C        4.64871085      -0.22807990       0.00137912       0.02351249       0.00072480       0.00008144      -0.00031239
H        4.80326440      -0.91505727      -0.82654964       0.04276941      -0.00196364       0.00246188      -0.00061541
H        5.31828854       0.61948511      -0.07801271       0.04959583       0.00292017       0.00123310       0.00391809
H        4.80862086      -0.75516594       0.93853063       0.04284062       0.00155373       0.00444588      -0.00277927
C       -1.50603484      -0.35807009       0.02120576       0.00540207       0.00090154      -0.00411631       0.00664303
C       -2.40041659      -1.41423479      -0.22286779      -0.03309380      -0.00057564       0.00311898       0.00124981
C       -2.03785253       0.91635137       0.27295785      -0.02929010       0.00240478      -0.00246767      -0.00232938
C       -3.76567895      -1.20635843      -0.23444385      -0.03292901       0.00073825      -0.00169753       0.00015472
H       -2.00540665      -2.40364718      -0.41150194       0.04659852      -0.00273231       0.00150216       0.00446744
C       -3.40504432       1.11632707       0.26504464      -0.03218865      -0.00013131      -0.00238445       0.00035460
H       -1.38854824       1.74909928       0.48774931       0.04295444       0.00526509      -0.00131552       0.00205948
C       -4.27243674       0.06189068       0.00940468      -0.03149290      -0.00219594      -0.00204851      -0.00202914
H       -4.43906936      -2.02904057      -0.43194303       0.04976757       0.00057555      -0.00057300      -0.00217032
H       -3.79751067       2.10410925       0.46233208       0.04875583      -0.00046675       0.00114742      -0.00308164
H       -5.34072078       0.22755519       0.00190609       0.04847083      -0.00410327       0.00189368       0.00077559
H        0.12077334      -1.74076884       0.04257234       0.03973622      -0.00101770       0.00320459      -0.00502625
C        0.96891130       1.51943093      -0.13836568       0.07856160       0.00612058      -0.00102602      -0.00089116
N        0.95826774       2.67672697      -0.23490056      -0.21124469       0.00087632       0.00179178      -0.00147776
