28
Properties=species:S:1:pos:R:3:charge:R:1:forces:R:3 19_carbanion=T (SP=-881.270096922048,U=-881.01355875,H=-881.01261454,G=-881.06426733) energy=-23957.963553527956 pbc="F F F"
C       -2.20283945       0.96310397       0.12738278       0.12971970      -0.00027811      -0.00231975       0.00139788
C       -1.20093215       0.52189742       1.07668329      -0.04478400      -0.00239397      -0.00399757      -0.00071884
C        0.19108691       0.59934944       0.71402079      -0.01941984       0.00051348      -0.00787054      -0.00392561
O       -1.86982319       1.56929010      -0.90318011      -0.31065586       0.00005925      -0.00425403       0.00314358
S        0.65969242      -1.20561898       0.26833575      -0.06538607      -0.00572728      -0.00318151      -0.00017839
C        2.43410512      -1.02649066      -0.13123648      -0.06037964       0.00039632       0.00238526       0.00238519
H       -1.44518762       0.09798574       2.03849803       0.03589731       0.00194110       0.00851574      -0.00182399
H        0.33769603       1.21990485      -0.16335474       0.04087266       0.00102281       0.00428868      -0.00459683
H        0.85393837       0.88091202       1.52836927       0.04443585       0.00312635       0.00358884       0.00262531
H        2.58118004      -0.32605127      -0.95179916       0.03952108       0.00284726      -0.00168203       0.00084747
H        3.00366315      -0.69697725       0.73648826       0.03958723      -0.00003588       0.00311118       0.00113831
H        2.79763094      -2.00547406      -0.43998825       0.04342470       0.00735319      -0.00318811       0.00146960
N       -3.54007836       0.71520693       0.40774465      -0.08273331      -0.00019478      -0.00082184      -0.00140691
C       -4.48754115       1.07320872      -0.63697072       0.00836746      -0.00310516      -0.00151363      -0.00158026
C       -3.99530448      -0.41292949       1.20116553       0.01257138       0.00310597       0.00142696      -0.00047420
C       -4.20546385      -1.64364414       0.32608294      -0.04322014       0.00483461      -0.00167684       0.00061217
C       -5.16686087      -1.33503103      -0.81113262      -0.03897828      -0.00003703      -0.00195604      -0.00088172
C       -4.72059040      -0.10162275      -1.58151856      -0.04103764      -0.00341666      -0.00014112       0.00025936
H       -5.42366648       1.36220622      -0.15298772       0.02939235      -0.00034930       0.00021992       0.00309180
H       -3.28549048      -0.61534328       1.99162802       0.03803611      -0.00446152       0.00221118       0.00324382
H       -3.23869663      -1.94945043      -0.07960356       0.02649156       0.00036682      -0.00010541       0.00056393
H       -6.16539977      -1.16397073      -0.39748498       0.02399503      -0.00269613       0.00289529      -0.00395544
H       -4.08156478       1.93072094      -1.15996001       0.03482668      -0.00102529       0.00109585      -0.00331690
H       -4.93467742      -0.12416906       1.67935702       0.03328189       0.00221153      -0.00066141       0.00601617
H       -4.57794756      -2.46946808       0.93554780       0.03496866       0.00295034      -0.00068272      -0.00584334
H       -5.24866042      -2.19287496      -1.47925287       0.03255726      -0.00291926      -0.00149563      -0.00393404
H       -3.78639154      -0.31171602      -2.10455714       0.02574759       0.00001657       0.00011369       0.00358541
H       -5.45791809       0.17022063      -2.33901019       0.03290032      -0.00410490       0.00569521       0.00225592
