13
Properties=species:S:1:pos:R:3:charge:R:1:forces:R:3 energy=-7804.121933353392 pbc="F F F"
C       -2.09549626       0.41722904      -0.20011872      -0.13109644       0.00021457      -0.00019741       0.00207946
N       -0.66773487       0.33588774       0.02573127      -0.40425009       0.00762987       0.00091848      -0.00159371
C        0.06912639      -0.71696473      -0.42266819       0.48273799       0.00179381      -0.00838021       0.00206175
O       -0.41321268      -1.69389076      -0.96653952      -0.48085907      -0.00124041      -0.00212646      -0.00503540
C        1.54738045      -0.62605097      -0.20682672      -0.14691912       0.00461699       0.00039106      -0.00633338
C        2.16493494       0.15936566       0.66630550      -0.28274071      -0.00344493       0.00017096       0.00402380
H       -2.44188003      -0.56734398      -0.49407297       0.10287189       0.00363899      -0.00347717       0.00214549
H       -2.34104549       1.12314534      -0.99418981       0.08743607      -0.00357739      -0.00118830      -0.00056209
H       -2.60952699       0.71732667       0.71082818       0.09135852      -0.00231004       0.00967017       0.00024800
H       -0.16988308       1.16462863       0.29321579       0.27101088      -0.00175755       0.00479480       0.00214231
H        2.09888200      -1.32280944      -0.82190889       0.12524697      -0.00018392       0.00145233       0.00120059
H        1.62930827       0.82540054       1.33031453       0.13731517       0.00317665      -0.00565534      -0.00033103
H        3.23982903       0.14293727       0.76935759       0.14788796      -0.00855645       0.00362690      -0.00004577
