23
Properties=species:S:1:pos:R:3:charge:R:1:forces:R:3 energy=-12053.145360599974 pbc="F F F"
C        3.90871679      -0.11575545       0.38133737      -0.28911227       0.00553473      -0.00150584       0.00063910
C        2.67508300       0.01720461      -0.08510123      -0.14918414       0.00440932      -0.00145306      -0.00168204
C        1.52483096      -0.52881564       0.69982937       0.43782207       0.00482034      -0.00354987      -0.00330286
O        1.70655247      -1.23147716       1.68186728      -0.48771113      -0.00104158      -0.00357297       0.00437000
N        0.27088632      -0.22401247       0.26625800      -0.18829164      -0.00079154       0.00435729       0.00326431
C       -0.03420356       0.76396792      -0.76357824      -0.07064772      -0.00183980       0.00323053      -0.00390634
C       -1.40017444       1.37453514      -0.49303510      -0.13980789      -0.00645480       0.00136221      -0.00320544
C       -2.50370774       0.31439573      -0.57569558      -0.14568642      -0.00353080      -0.00117417      -0.00006579
C       -2.00386237      -1.04091339      -0.04907497      -0.14922749      -0.00778374       0.00197219      -0.00048872
C       -0.85704235      -0.86607354       0.93396173      -0.06817164      -0.00450092      -0.00277561       0.00029719
H        4.06950788      -0.62005588       1.32301762       0.16024011       0.00337459      -0.00392993       0.00526672
H        4.76764445       0.25814407      -0.15892694       0.14607137      -0.00099944       0.00503890       0.00044048
H        2.49288545       0.48943510      -1.03842136       0.11262742      -0.00341436       0.00264003      -0.00288627
H        0.72664979       1.53987446      -0.75663943       0.08859239       0.00035855       0.00202265      -0.00011211
H       -0.03056282       0.30721318      -1.76032089       0.08119088       0.00218554      -0.00401258      -0.00219394
H       -1.58402044       2.17684939      -1.20502789       0.07307301      -0.00214981       0.00303591      -0.00290580
H       -1.38102356       1.82826408       0.49869312       0.08438049       0.00382809       0.00094594      -0.00050597
H       -3.36930041       0.65390124      -0.00867790       0.07710680       0.00697845      -0.00269971       0.00525258
H       -2.83394659       0.20129982      -1.60770769       0.07483320      -0.00079077       0.00182644       0.00085465
H       -1.65009672      -1.65903165      -0.87660008       0.08485206       0.00513247       0.00400857       0.00304117
H       -2.81235094      -1.58884350       0.43119537       0.07497436      -0.00511028      -0.00554653      -0.00227786
H       -0.51017908      -1.81514610       1.32379605       0.10270354       0.00102539      -0.00310990       0.00320215
H       -1.17866387      -0.27180080       1.79422215       0.08937269       0.00076003       0.00288964      -0.00309505
