29
Properties=species:S:1:pos:R:3:charge:R:1:forces:R:3 energy=-23994.298763697338 pbc="F F F"
C        4.65829991      -1.11418211       0.27892282      -0.19720861      -0.00305241       0.00151926      -0.00088072
S        3.82998207      -0.68860027       1.82817923      -0.21433893       0.00527723      -0.00553916       0.00493518
C        2.62952270       0.51318797       1.21356180      -0.10478849      -0.00060058       0.00246822      -0.00082891
C        1.41027285      -0.13233714       0.58051337      -0.12614048      -0.00277053      -0.00096306      -0.00308889
C        0.44960777       0.91769729       0.04098140       0.41459793      -0.00522516      -0.00130510       0.00017846
O        0.68058829       2.10878298       0.15876490      -0.47417095      -0.00596337      -0.00184822      -0.00363048
N       -0.67156162       0.46164023      -0.57755361      -0.19690895      -0.00209581      -0.00440082      -0.00085831
C       -1.09034703      -0.93033311      -0.62982908      -0.06378897       0.00210200      -0.00557274       0.00000910
C       -2.33506319      -1.15217053       0.22815538      -0.13518342       0.00174101      -0.00139255       0.00081814
C       -3.44273734      -0.18979451      -0.18943137      -0.13655561       0.00250445       0.00481636      -0.00225579
C       -2.94688529       1.25369574      -0.17047929      -0.14666490       0.00298825       0.00724591       0.00213007
C       -1.68709582       1.40251225      -1.01696532      -0.06047611       0.00168517      -0.00110070       0.00280703
H        5.50144472      -1.75156088       0.53204900       0.11441902      -0.00589223       0.00204468       0.00274087
H        4.00496862      -1.65610741      -0.40077952       0.08555101      -0.00594273       0.00231482       0.00017775
H        5.02918502      -0.21912924      -0.21477033       0.09213227       0.00573554      -0.00192746      -0.00213224
H        3.11261728       1.18410077       0.50777995       0.09857852       0.00211559       0.00462147      -0.00369655
H        2.32764331       1.11969358       2.06197288       0.11124736      -0.00623256       0.00030774       0.00044505
H        1.69509566      -0.80312201      -0.23064718       0.06940371       0.00171684      -0.00336946      -0.00240484
H        0.88481079      -0.74671921       1.31316032       0.07696962      -0.00537329       0.00294350       0.00092558
H       -0.28534841      -1.58208616      -0.31425041       0.07123173       0.00489414      -0.00228222       0.00021202
H       -1.31296207      -1.18328462      -1.67056984       0.08145519       0.00125345       0.00439357      -0.00108167
H       -2.08080809      -0.98011620       1.27586697       0.07904930       0.00946417       0.00180595       0.00030771
H       -2.66184529      -2.18777818       0.13706215       0.07137696       0.00044084      -0.00337566       0.00085688
H       -4.31090499      -0.30489968       0.45866368       0.07078856       0.00233695      -0.00153744      -0.00396355
H       -3.77379659      -0.44344163      -1.19983259       0.07659677      -0.00623719      -0.00179075       0.00006662
H       -3.71848179       1.93140057      -0.53584246       0.07245330      -0.00015708       0.00332839      -0.00444469
H       -2.71338083       1.54408034       0.85549574       0.09157968       0.00323022       0.00033636       0.00613419
H       -1.27562107       2.40189510      -0.94806877       0.09931639       0.00016991      -0.00241577       0.00349038
H       -1.91576200       1.20015138      -2.06602008       0.07947809       0.00188683       0.00067523       0.00303109
