29
Properties=species:S:1:pos:R:3:charge:R:1:forces:R:3 energy=-26037.007505664154 pbc="F F F"
C       -4.38335016      -0.31646683       1.42726617      -0.16106649       0.00166210       0.00005531       0.00210217
C       -4.09504977      -0.54319808       0.09082858      -0.13908166      -0.00454267      -0.00161692       0.00247951
C       -2.81097844      -0.38082328      -0.41061005      -0.12066446      -0.00522182      -0.00149728       0.00193590
C       -1.79213349       0.02071386       0.44874532       0.14030561      -0.00071243       0.00091048      -0.00081183
N       -0.46007161       0.22650540       0.04119715      -0.32917714       0.00296271       0.00107727      -0.00162837
C        0.10813609      -0.01119444      -1.17497119       0.41695762       0.00360413      -0.00041379      -0.00746277
O       -0.49034986      -0.48262074      -2.11968025      -0.43048090      -0.00108469      -0.00349540      -0.00693874
C        1.59844784       0.33425506      -1.24639781      -0.06830008       0.00655785      -0.00298490      -0.00062470
C        2.05908840       0.36483463      -2.69387233      -0.22426717       0.00221727       0.00110980       0.00185699
C        2.42725681      -0.69004243      -0.44825724      -0.12166511       0.00012271      -0.00156959       0.00117867
S        2.50472035      -0.44947504       1.34380241      -0.18383089      -0.00387211      -0.00589209      -0.00509746
C        3.48563525       1.06075127       1.39565983      -0.18453473       0.00175244       0.00198652      -0.00034879
C       -2.07830574       0.25068696       1.79460997      -0.14813417       0.00037708      -0.00059196       0.00229399
C       -3.36268936       0.08246383       2.27897422      -0.14629222      -0.00044438       0.00105631       0.00127447
H       -5.38757254      -0.44927930       1.80187808       0.13585912       0.00574601       0.00225563      -0.00062981
H       -4.87952672      -0.85507105      -0.58343112       0.13357651      -0.00064587      -0.00182361      -0.00356096
H       -2.59370676      -0.56565741      -1.44688601       0.13621415       0.00065730       0.00401947       0.00213141
H        0.17964878       0.46419149       0.78708939       0.22124441       0.00233582       0.00030253      -0.00163350
H        1.74436187       1.31893398      -0.80096478       0.08085134      -0.00171496      -0.00035907      -0.00319884
H        3.10234865       0.67086037      -2.74767863       0.07036038      -0.00231919       0.00169769      -0.00176874
H        1.95555358      -0.61559686      -3.15489226       0.08420330       0.00114927       0.00202034       0.00842138
H        1.45924444       1.06088801      -3.27505890       0.08249726       0.00186240      -0.00029937       0.00375397
H        2.02788431      -1.68779016      -0.61449720       0.11152157      -0.00111634       0.00251817      -0.00116855
H        3.45279148      -0.68710809      -0.81119921       0.09217103      -0.00459412      -0.00036014       0.00152493
H        3.73293663       1.25045995       2.43650729       0.12056642      -0.00313153       0.00566959       0.00120989
H        2.93341446       1.91150567       1.00485516       0.07811726       0.00027803      -0.00411564       0.00102345
H        4.40677124       0.93914586       0.83225825       0.09266470      -0.00103878       0.00111761      -0.00104238
H       -1.28566152       0.56173342       2.46359942       0.12539428      -0.00095505      -0.00039956       0.00486451
H       -3.56740317       0.26304182       3.32446474       0.13499011       0.00010888      -0.00037759      -0.00013657
