23
Properties=species:S:1:pos:R:3:charge:R:1:forces:R:3 energy=-14096.16476069519 pbc="F F F"
C       -4.78078268       0.38311619       0.24629263      -0.18817647       0.00319295      -0.00071420      -0.00190649
C       -3.38592288       0.03294006       0.63806592      -0.09141706       0.00087266      -0.00322257       0.00065233
C       -2.30928965       0.26904833      -0.10045265      -0.17282730      -0.00333105       0.00245683       0.00096723
C       -0.95564466      -0.12293712       0.38452423       0.42920089      -0.00698832       0.00505609       0.00007301
O       -0.77338329      -0.67160909       1.45321702      -0.44889525      -0.00375515       0.00359742      -0.00440108
N        0.05172591       0.19784416      -0.49169402      -0.35969710      -0.00101717       0.00031427      -0.00484646
C        1.43722629      -0.01963728      -0.36533749       0.12706529       0.00346069      -0.00296975      -0.00488964
C        2.24338196       0.40320906      -1.42101176      -0.16627143       0.00780621       0.00400923      -0.00054421
C        3.61480954       0.22700996      -1.37661099      -0.14051098       0.00450429      -0.00284274       0.00002586
C        4.20314094      -0.37607875      -0.27421917      -0.16033567      -0.00420158       0.00155067       0.00104883
C        3.39931553      -0.79576004       0.77451046      -0.13697740      -0.00022164       0.00385735      -0.00097869
C        2.02251025      -0.62473683       0.74271584      -0.12493142       0.00007517      -0.00124401       0.00547801
H       -5.40513186      -0.50914784       0.21349898       0.08038265      -0.00056682       0.00287202       0.00489175
H       -5.22841554       1.05468641       0.97811566       0.08042563       0.00179035      -0.00576850       0.00239768
H       -4.81016436       0.86277396      -0.72789098       0.07576914      -0.00062532       0.00038968      -0.00151003
H       -3.24559756      -0.45079632       1.59725831       0.14143130       0.00825910      -0.00084311      -0.00053058
H       -2.39157026       0.75177238      -1.06964589       0.11731648       0.00285002      -0.00085435       0.00037219
H       -0.22379420       0.64722893      -1.34506935       0.26386282       0.00279624      -0.00053694       0.00246166
H        1.78687914       0.87473859      -2.28235365       0.12937966      -0.00067567      -0.00075593      -0.00244030
H        4.22485932       0.56095701      -2.20418034       0.13509992      -0.00032975      -0.00005412       0.00117091
H        5.27385313      -0.51567474      -0.23467447       0.13668844      -0.00847000      -0.00067979       0.00105201
H        3.84549642      -1.26623950       1.63920987       0.13410951       0.00015498      -0.00005826      -0.00314601
H        1.40012297      -0.94954890       1.55590755       0.13930836      -0.00558041      -0.00355929       0.00460142
