24
Properties=species:S:1:pos:R:3:charge:R:1:forces:R:3 energy=-25387.482752971253 pbc="F F F"
C        2.68730075      -1.50864168      -0.44147327      -0.09846302      -0.00440479      -0.00203265       0.00006127
C        2.01405690      -1.63274090       0.85925545      -0.49322501       0.00315957      -0.00588433      -0.00057796
C        0.67982096      -1.31113911       1.10095223       0.30719003       0.00366580      -0.00243807      -0.00134307
O        0.04611106      -1.48137692       2.16434723      -0.57804900       0.00346388       0.00857446       0.00243340
N       -0.00300968      -0.70727488      -0.01456702      -0.32322201       0.00033445       0.00054201       0.00288924
C       -1.20898987      -0.06809894      -0.02994849       0.38285196       0.00335954      -0.00100352      -0.00331689
C       -2.15474113      -0.15333847       1.01753467      -0.14545731       0.00638108      -0.00015312      -0.00426419
C       -3.34695615       0.51523357       0.87068403      -0.14554803      -0.00110853      -0.00370721       0.00339659
C       -3.60295987       1.25585197      -0.28390908      -0.21469590       0.00008986      -0.00463808       0.00261132
C       -2.61409053       1.27955009      -1.24567118       0.02893511      -0.00068583       0.00260298      -0.00133344
N       -1.44778064       0.64678265      -1.14264881      -0.42476305       0.00506469       0.00187737      -0.00069183
H        2.04359949      -1.82557618      -1.27074224       0.07546998       0.00113143      -0.00366626      -0.00152373
H        3.58209846      -2.13047039      -0.48443025       0.07634367      -0.00400389       0.00231837      -0.00070139
H        2.54773979      -2.03926260       1.70519349       0.10606080       0.00154179       0.00361210      -0.00334166
H        0.55758800      -0.49028310      -0.82462684       0.23449019      -0.00166119      -0.00195624       0.00181873
H       -1.89554838      -0.73275805       1.88697579       0.12418852       0.00209943       0.00478138      -0.00276637
H       -4.08716385       0.46419328       1.65982610       0.10997298      -0.00340738       0.00073717       0.00266621
H       -4.52940174       1.79099085      -0.42736394       0.11703485       0.00148914       0.00294791      -0.00041285
H       -2.75992014       1.84313175      -2.16148413       0.06809290      -0.00199334       0.00145281      -0.00535550
S        3.39733539       0.15329768      -1.02536232      -0.29914424      -0.00135701       0.00230019       0.00334515
C        2.62867149       1.33984634       0.09549366      -0.18395388      -0.00182438      -0.00676572      -0.00127437
H        1.66320099       1.66409842      -0.28159685       0.09235758      -0.00639084       0.00166256       0.00165775
H        2.50261903       0.88855504       1.07429241       0.08760940      -0.00362291      -0.00205785       0.00191597
H        3.28758562       2.20621011       0.16492494       0.09592359      -0.00132079       0.00089356       0.00410752
