19
Properties=species:S:1:pos:R:3:charge:R:1:forces:R:3 energy=-13462.469661793626 pbc="F F F"
C        4.05339308       0.79122169      -0.51949929      -0.27403635      -0.00398073      -0.00160313       0.00573897
C        3.01537934       0.26792782       0.11538320      -0.15772927      -0.00399932       0.00153401       0.00019929
C        1.63911178       0.39492235      -0.45170271       0.44041547       0.00214096      -0.00107057       0.00185802
O        1.40607186       0.97219899      -1.49428104      -0.43423119      -0.00748810      -0.00400701       0.00400328
N        0.67642441      -0.20167227       0.31811648      -0.35250339       0.00127973       0.00687507       0.00156374
C       -0.70476769      -0.27257803       0.09304619       0.31384403       0.00611007      -0.00235479      -0.00257712
C       -1.35011852       0.28188577      -1.01112759      -0.13336727       0.00303142      -0.00356981      -0.00086609
C       -2.72028560       0.12738159      -1.08957570      -0.10986738       0.00035400       0.00390976       0.00174704
C       -3.39932653      -0.55882392      -0.09195834      -0.16126812      -0.00336269      -0.00467717      -0.00232929
C       -2.65851282      -1.06942268       0.95826270       0.05696218       0.00228441      -0.00202598       0.00169391
N       -1.33938979      -0.93360034       1.05672223      -0.38926193       0.00459412       0.00290258      -0.00005986
H        5.05719809       0.70882522      -0.12637293       0.14740252      -0.00427569       0.00467448      -0.00653015
H        3.91170090       1.31698776      -1.45357470       0.15972979      -0.00104005      -0.00684281       0.00598286
H        3.13475804      -0.26046466       1.05409874       0.12206510       0.00416069       0.00008152      -0.00639950
H        0.94570767      -0.66047528       1.17172406       0.26454690      -0.00620471      -0.00244964      -0.00327582
H       -0.78666707       0.80327359      -1.76030500       0.13720897       0.00648007       0.00562313      -0.00096084
H       -3.25565369       0.54416685      -1.93067714       0.13255094       0.00382889       0.00007313      -0.00144463
H       -4.46883878      -0.69407243      -0.12905513       0.13684751      -0.00726075       0.00043551      -0.00083296
H       -3.14199405      -1.61413992       1.75997611       0.10069153       0.00334814       0.00249167       0.00248869
