25
Properties=species:S:1:pos:R:3:charge:R:1:forces:R:3 energy=-25403.430808959023 pbc="F F F"
C       -3.97655710       1.46323700       0.67583045       0.05707482       0.00321707      -0.00054677       0.00437922
N       -2.67733511       1.50117347       0.39226613      -0.38178059       0.00259364       0.00088188       0.00113753
C       -2.02016740       0.34696509       0.31771992       0.33587301       0.00076828      -0.00241008       0.00253202
N       -0.66492454       0.52985971       0.01480700      -0.35420114       0.00238492      -0.00505515      -0.00059190
C        0.30742631      -0.40752451      -0.20286858       0.40903726       0.00275476      -0.00016435      -0.00544003
O        0.10925790      -1.60099467      -0.14757287      -0.42496261       0.00052644      -0.00117514       0.00242550
C        1.66557022       0.19227525      -0.53532014      -0.13978058       0.00209149       0.00535693      -0.00298326
C        2.69739279      -0.89704065      -0.76575487      -0.10817558      -0.00238347      -0.00112374       0.00178421
S        4.32841372      -0.26140885      -1.20054267      -0.20876370      -0.00307222       0.00136930       0.00834292
C        4.88533212       0.27437112       0.43236682      -0.20346527      -0.00289262       0.00396994      -0.00001545
C       -2.62129757      -0.89540425       0.52464137      -0.12421894      -0.00168056      -0.00390267      -0.00487670
C       -3.97027193      -0.90585501       0.81933334      -0.10877075      -0.00238112      -0.00023102      -0.00040945
C       -4.67286429       0.28945189       0.89958314      -0.16390203      -0.00079187       0.00285650      -0.00067095
H       -4.48142734       2.42020547       0.72610412       0.09826880       0.00415915       0.00001629       0.00157850
H       -0.42173317       1.50222986      -0.07545777       0.25989273       0.00021156      -0.00607577       0.00077588
H        1.56714385       0.81717855      -1.42448740       0.07851563      -0.00229359       0.00056450      -0.00838850
H        1.96581148       0.85794048       0.27670684       0.07023899      -0.00438070       0.00515271       0.00580352
H        2.37700040      -1.53198007      -1.58543596       0.11289115      -0.00182801      -0.00170851      -0.00151454
H        2.77050873      -1.53402105       0.11187831       0.09895330      -0.00221010      -0.00461973      -0.00085113
H        5.91472657       0.60526730       0.32254413       0.11700127      -0.00229067      -0.00386431       0.00560428
H        4.85144889      -0.54944762       1.14143349       0.09461723       0.00270687       0.00413778      -0.00548170
H        4.29158757       1.10250805       0.81134600       0.08801706       0.00336032       0.00395405      -0.00230906
H       -2.04108820      -1.79536387       0.45122677       0.13219956       0.00131535      -0.00282178      -0.00007137
H       -4.47016314      -1.84974261       0.98451735       0.13042228      -0.00077403       0.00234678       0.00252467
H       -5.72697690       0.30853756       1.12857886       0.13501818       0.00088864       0.00309252      -0.00328446
