19
Properties=species:S:1:pos:R:3:charge:R:1:forces:R:3 energy=-13462.41311805119 pbc="F F F"
C        3.64118954      -0.19071018       0.42927383      -0.27815473       0.00073893      -0.00371116      -0.00178317
C        3.08885589       0.52245221      -0.54199638      -0.15496509      -0.00072056      -0.00287778       0.00033122
C        1.63351828       0.53982755      -0.90089897       0.45786911       0.00250838      -0.00622799      -0.00539165
O        1.26590737       0.94139073      -1.98618339      -0.45668221      -0.00126135       0.00235964       0.00335648
N        0.78807913       0.08594532       0.07663821      -0.32252809       0.00488345       0.00358653       0.00109265
C       -0.60374183      -0.03825602       0.03753599       0.30163810       0.00348815       0.00063934       0.00392573
C       -1.37276507       0.11184387      -1.11522058      -0.13409364       0.00404432      -0.00184646       0.00111910
C       -2.73766581      -0.05848564      -0.99353886      -0.11119382       0.00038783       0.00207784      -0.00459014
C       -3.29155715      -0.36720277       0.24129450      -0.15826471      -0.00394882      -0.00092810      -0.00385964
C       -2.43338897      -0.49631492       1.31831533       0.05612601      -0.00398714      -0.00220133      -0.00065353
N       -1.11603806      -0.33699015       1.22725132      -0.38573536      -0.00096271      -0.00504495       0.00127019
H        3.05942630      -0.85138969       1.05657950       0.13844074       0.00777083       0.00254046       0.00534770
H        4.70386108      -0.16003937       0.61913436       0.15163183      -0.00090789       0.00463450      -0.00724837
H        3.68436578       1.13531026      -1.20288995       0.12744986      -0.00141300      -0.00152819       0.00687173
H        1.14202241      -0.05589247       1.00716023       0.25308061       0.00567330      -0.00061849       0.00080130
H       -0.89971784       0.35386800      -2.04820028       0.14053111      -0.00105148       0.00566486      -0.00344369
H       -3.36632289       0.05179641      -1.86528535       0.13387434      -0.00822992       0.00054421      -0.00246080
H       -4.35468021      -0.50298286       0.36283503       0.13799052      -0.00453136      -0.00472864       0.00188111
H       -2.81715728      -0.74062837       2.30119795       0.10298549      -0.00248076       0.00766547       0.00343357
