30
Properties=species:S:1:pos:R:3:charge:R:1:forces:R:3 energy=-25484.578357469196 pbc="F F F"
C       -4.05604183      -0.01191754       1.34110340      -0.14190631       0.00159646      -0.00260150      -0.00784046
N       -2.72859049       0.09328396       0.78712308      -0.37285939      -0.00162662      -0.00165259       0.00166883
C       -2.41099696      -0.48789458      -0.37921769       0.48785755      -0.00039474      -0.00343398      -0.00153899
O       -3.21638959      -1.13323450      -1.05222313      -0.57578236      -0.00394915       0.00108879       0.00042807
C       -1.01464979      -0.32305218      -0.88026895      -0.15361768       0.00152180      -0.00068751       0.00107143
C        0.02162217       0.17112800      -0.21290021      -0.09558830       0.00288873      -0.00041898       0.00149730
C        1.37932418       0.33141279      -0.83319920      -0.01136066       0.00149008      -0.00563662       0.00508908
N        2.33614461      -0.61551730      -0.28779102      -0.27248478       0.00103258      -0.00557402      -0.00365484
C        2.12969145      -2.02581253      -0.64777463      -0.09379815       0.00347448       0.00054949       0.00042133
C        3.65200783      -2.15726599      -0.83953997      -0.20632143       0.00254504       0.00019630      -0.00037887
C        3.66967908      -0.61781686      -0.89758123      -0.11496460      -0.00346727       0.00016549      -0.00301311
H       -4.30779032      -1.04624895       1.57732003       0.07837003      -0.00120654      -0.00025382       0.00102870
H       -4.08436765       0.58103545       2.25157496       0.07865894      -0.00093374       0.00136015       0.00099956
H       -4.80322293       0.36292796       0.64136975       0.08102590       0.00200044       0.00427653       0.00275636
H       -2.06945366       0.66584988       1.32091941       0.23900071       0.00114449      -0.00015414       0.00142677
H       -0.89788512      -0.67379360      -1.89569364       0.10514011       0.00051940       0.00063436      -0.00367283
H       -0.05499214       0.44588501       0.83622028       0.15979861      -0.00174213       0.00069831       0.00266532
H        1.74847711       1.33828208      -0.63422521       0.06770998       0.00089492       0.00541850       0.00123260
H        1.31803661       0.20878168      -1.92471163       0.05414987       0.00138532       0.00174049      -0.00734008
H        1.57030479      -2.14380834      -1.58307168       0.07725389      -0.00029832       0.00181653       0.00190497
H        1.65441538      -2.63649710       0.11885332       0.08618607       0.00262545       0.00197533       0.00165839
H        4.00906984      -2.70193078      -1.71112728       0.08401283      -0.00399746       0.00306664       0.00593376
H        4.13620552      -2.52879597       0.06064182       0.09442036       0.00001306       0.00410493      -0.00620296
H        3.66680454      -0.23036846      -1.92463649       0.07814533      -0.00083444      -0.00304270       0.00251708
H        4.43568422      -0.09006907      -0.33068531       0.08859308      -0.00172255      -0.00436052       0.00056805
S       -1.13577966       2.09979407       2.82056018      -0.78300977       0.00081718      -0.00023091       0.00323282
C       -1.22229977       3.10603940       1.30864540      -0.28408527      -0.00753459      -0.00059796       0.00239610
H       -1.98084304       2.72992063       0.61775587       0.07553300       0.00090334      -0.00098863      -0.00137408
H       -1.47732716       4.14198665       1.53296581       0.08890157       0.00011586       0.00389139       0.00039673
H       -0.27210918       3.11557000       0.76808216       0.08102096       0.00273922      -0.00134938      -0.00387679
