25
Properties=species:S:1:pos:R:3:charge:R:1:forces:R:3 energy=-24950.591740983393 pbc="F F F"
C        2.72541333      -2.28857395      -0.84163677      -0.11236225       0.00275541       0.00273066       0.00604372
C        1.57860637      -1.93211274       0.01216271      -0.47580639      -0.00744711       0.00070422       0.00331096
C        0.61341433      -1.04296997      -0.42741914       0.31475475      -0.00478130       0.00425886       0.00082580
O        0.51937540      -0.49767343      -1.55030043      -0.50787067       0.00421220      -0.00004575      -0.00281697
N       -0.38339063      -0.71150483       0.57091552      -0.38449389      -0.00056143       0.00048056      -0.00251581
C       -1.47739925       0.11397884       0.50476139       0.21135095       0.00082712      -0.00224477       0.00113889
C       -2.26253605       0.28769916       1.66084706      -0.18855383       0.00120902      -0.00352284      -0.00186413
C       -3.38243182       1.09689569       1.65569019      -0.17668098       0.00121269      -0.00347982       0.00134482
C       -3.76744450       1.76598009       0.50191521      -0.22153507       0.00369566      -0.00205528       0.00004898
C       -2.99596060       1.60056574      -0.64327354      -0.16161528       0.00285737      -0.00116875      -0.00171106
C       -1.86911642       0.79612374      -0.66124597      -0.13767035       0.00200447      -0.00186055       0.00323039
H        2.52076179      -2.04100561      -1.88605121       0.08574092       0.00426074      -0.00333510       0.00168023
H        2.99816048      -3.34317948      -0.78687095       0.07182177       0.00266640      -0.00177537      -0.00203352
H        1.60987375      -2.24913519       1.04789438       0.10626595       0.00096556      -0.00857452       0.00110495
H       -0.21274124      -1.14349901       1.45805881       0.23735517      -0.00266936       0.00604051      -0.00082970
H       -1.97686794      -0.22809002       2.57091527       0.10709070      -0.00330384       0.00337462      -0.00032266
H       -3.96130925       1.20502858       2.56476381       0.11174868      -0.00141523       0.00129269       0.00321057
H       -4.64381843       2.39853467       0.49586706       0.11809497       0.00362263      -0.00023683      -0.00238087
H       -1.26701843       0.66568101      -1.54317232       0.12446687      -0.00139468       0.00184737       0.00336894
H       -3.27841765       2.11337161      -1.55431913       0.11052357       0.00187603       0.00258508      -0.00087468
S        4.32474116      -1.43113915      -0.42654573      -0.30704969      -0.00049862      -0.00272972      -0.00387914
C        3.73413983       0.25309520      -0.66020776      -0.19637887      -0.00289115       0.00880742      -0.00114254
H        3.32525901       0.37654698      -1.65945379       0.08523286       0.00044157       0.00417257      -0.00688232
H        2.94684003       0.46221595       0.05785742       0.09222051      -0.00432376      -0.00345504       0.00404839
H        4.56868133       0.93886023      -0.51659952       0.09334968      -0.00331980      -0.00181009      -0.00210362
