20
Properties=species:S:1:pos:R:3:charge:R:1:forces:R:3 energy=-13025.50927193055 pbc="F F F"
C        4.17990986      -0.01629728      -0.56759825      -0.27694696       0.00010280       0.00337236      -0.00051252
C        3.11783031      -0.25012371       0.18777655      -0.15195140      -0.00171710      -0.00116337       0.00113974
C        1.74460281       0.05825216      -0.31964649       0.44835705      -0.00257078       0.00295343      -0.00093561
O        1.55659783       0.52678311      -1.42400134      -0.43434796      -0.00448284      -0.00062076      -0.00433344
N        0.74330021      -0.23411757       0.56824944      -0.36161426       0.00288379      -0.00008085       0.00581905
C       -0.64821340      -0.06550555       0.40859287       0.12606390       0.00232633      -0.00311246       0.00175383
C       -1.45879207      -0.44463650       1.47738427      -0.16812399       0.00361310       0.00199381      -0.00169300
C       -2.83372065      -0.31290364       1.40055327      -0.13868138       0.00072612      -0.00244646       0.00031182
C       -3.41984201       0.20067210       0.25302135      -0.15797868       0.00020391       0.00278466      -0.00026640
C       -2.61134859       0.57724988      -0.80788518      -0.13591659       0.00046077       0.00394940      -0.00213790
H       -3.05579337       0.97938641      -1.70700541       0.13515867      -0.00430580       0.00032548      -0.00286310
C       -1.23098461       0.45073229      -0.74443237      -0.12448778       0.00395108      -0.00228775       0.00327348
H        5.18133167      -0.22809936      -0.22017777       0.14658780       0.00604591      -0.00514100      -0.00100539
H        4.05944277       0.39722514      -1.55855652       0.15896080       0.00293108       0.00498322      -0.00690155
H        3.22088604      -0.66672854       1.18273172       0.12171404      -0.00197866      -0.00046113       0.00627697
H        1.01782518      -0.61749264       1.45374503       0.26804677      -0.00174055      -0.00217059       0.00343166
H       -1.00504617      -0.84522112       2.37529880       0.13082379       0.00171511      -0.00171200      -0.00160154
H       -3.44806058      -0.61212676       2.23782524       0.13601138      -0.00181419       0.00053835       0.00301706
H       -4.49285667       0.30597314       0.18894037       0.13750091      -0.00622788       0.00011499      -0.00404455
H       -0.60596981       0.74383318      -1.56765037       0.14082393      -0.00012236      -0.00181906       0.00127106
