26
Properties=species:S:1:pos:R:3:charge:R:1:forces:R:3 energy=-24966.467416017804 pbc="F F F"
C       -3.42724507      -0.87436172       0.87588630      -0.14466830      -0.00104276       0.00270128       0.00904203
C       -4.09785684       0.31876675       1.10502542      -0.15981041       0.00156054      -0.00121060      -0.00033225
C       -3.49273880       1.51123826       0.74168506      -0.13874829      -0.00127957      -0.00233754       0.00208338
H       -4.00426357       2.44782403       0.91152097       0.13352582       0.00573400      -0.00360298       0.00026392
C       -2.23319078       1.53605135       0.15945875      -0.11608811      -0.00560451       0.00217081      -0.00581476
C       -1.56458941       0.33715150      -0.06383247       0.13729276      -0.00309427       0.00237744       0.00120430
N       -0.28911630       0.24941741      -0.65657302      -0.32402965       0.00087699       0.00111409      -0.00252021
C        0.56560075       1.25872583      -0.99699717       0.40854430       0.00371481       0.00388551      -0.00455179
O        0.33637819       2.43601157      -0.81858633      -0.44682652      -0.00066237       0.00154310       0.00447625
C        1.88332142       0.79722029      -1.61928845      -0.14079632       0.00345564      -0.00317962      -0.00422657
C        2.81292957       0.10770678      -0.62135200      -0.11684944       0.00098230      -0.00359276       0.00205482
S        2.44062212      -1.66506637      -0.49746797      -0.17791355      -0.00744289      -0.00472304      -0.00323591
C        3.56506448      -2.09276238       0.84274858      -0.18956885      -0.00232630      -0.00000541       0.00024534
C       -2.17191544      -0.86522633       0.29597750      -0.15348119      -0.00571788       0.00113300       0.00060632
H       -3.88327688      -1.81477681       1.15026945       0.13507400       0.00317897      -0.00076469      -0.00108562
H       -5.07708952       0.31750652       1.56049008       0.13604276       0.00277898      -0.00354240      -0.00780536
H       -1.76795661       2.46434077      -0.11905526       0.13746236       0.00904897       0.00186490       0.00321422
H        0.06716156      -0.69020288      -0.74922452       0.23044576      -0.00330160      -0.00001525      -0.00836897
H        2.37039141       1.69326405      -1.99137926       0.09513907      -0.00554832       0.00603674       0.00249884
H        1.69616659       0.13656378      -2.46696565       0.07256652      -0.00743892      -0.00371094      -0.00378215
H        3.84969126       0.20530576      -0.93446392       0.09664504       0.00275096      -0.00158520      -0.00240204
H        2.71431209       0.56726135       0.36117655       0.09818344       0.00063343       0.00210061       0.00386618
H        3.40034356      -3.14125140       1.07307727       0.11655688       0.00796925       0.00014240      -0.00178233
H        3.35341638      -1.50265503       1.72998831       0.09072675      -0.00389659      -0.00434426       0.00687400
H        4.60264421      -1.95555296       0.55056743       0.09312315       0.00184619       0.00540487       0.00514028
H       -1.65377010      -1.79921140       0.11887685       0.12745211       0.00282608       0.00214119       0.00433781
