25
Properties=species:S:1:pos:R:3:charge:R:1:forces:R:3 energy=-24950.427345656804 pbc="F F F"
C       -2.43180519       0.55176332       1.29351648      -0.11181792      -0.00040160       0.00297613       0.00235449
C       -1.43169454       0.03512778       2.22682934      -0.48527893      -0.00302929       0.00473701      -0.00007722
C       -0.09972870      -0.20568868       1.89998873       0.30820027      -0.00429226      -0.00368838       0.00363665
O        0.81939201      -0.50934069       2.68522908      -0.57779580       0.00213833       0.00920634       0.00066224
N        0.21140442      -0.07951855       0.49463620      -0.31516913       0.00007603       0.00394586      -0.00255316
C        1.42625730      -0.22740260      -0.12951534       0.19207665       0.00432194      -0.00453248       0.00008954
C        1.44738916      -0.38180812      -1.52660554      -0.19404119       0.00487502       0.00681608      -0.00195722
C        2.63364526      -0.48913292      -2.22601462      -0.18013947       0.00318665      -0.00237898      -0.00229412
C        3.85054857      -0.44279742      -1.55878791      -0.20930991      -0.00010763       0.00449124      -0.00227146
C        3.83891612      -0.29290316      -0.17699838      -0.16990246       0.00304361      -0.00284227      -0.00490553
C        2.65933158      -0.19186807       0.54216454      -0.13565972       0.00758395       0.00074438      -0.00097135
H       -2.03118715       1.31939828       0.61869952       0.07221228      -0.00280769       0.00035938       0.00186020
H       -3.27968401       0.99036438       1.82064380       0.07098799       0.00201964      -0.00272246      -0.00006189
H       -1.69608893      -0.13930243       3.25837830       0.10638706      -0.00087633       0.00275525      -0.00098542
H       -0.57975890      -0.15388590      -0.12246539       0.24145183      -0.00315472      -0.00538432      -0.00022147
H        0.50303782      -0.42021034      -2.05632742       0.11705105       0.00037075      -0.00480501      -0.00039268
H        2.60673162      -0.61234902      -3.30166553       0.11471479      -0.00163912       0.00609056       0.00101645
H        4.78242262      -0.52453314      -2.10038951       0.11940648      -0.00680091      -0.00018292       0.00384651
H        4.77990575      -0.25827301       0.35848696       0.11283030      -0.00570610      -0.00351211       0.00164252
H        2.64025064      -0.10010748       1.61442118       0.12758784      -0.00263073      -0.00859814       0.00162902
S       -3.23179705      -0.68548429       0.12622859      -0.25489262       0.00030220      -0.00095185       0.00229301
C       -4.20345939       0.51475704      -0.79976682      -0.18893358       0.00332968      -0.00266596       0.00227886
H       -4.89745567       1.04218383      -0.14708760       0.07457883      -0.00005114      -0.00321134       0.00103138
H       -3.55617276       1.24699102      -1.28051989       0.07073044       0.00122440       0.00561063      -0.00230706
H       -4.77358561      -0.00356047      -1.56852521       0.09472501      -0.00097325      -0.00225701      -0.00334197
