26
Properties=species:S:1:pos:R:3:charge:R:1:forces:R:3 energy=-24966.46234694663 pbc="F F F"
C       -3.87480414      -1.13328388      -0.01871970      -0.13403857      -0.00073468       0.00266792      -0.00488261
C       -2.49483452      -1.01446244      -0.10237170      -0.11633188      -0.00094111       0.00007843      -0.00002496
C       -1.92331340       0.25473936      -0.13375739       0.14373438       0.00010475      -0.00049223       0.00077653
N       -0.53614278       0.48366682      -0.21033190      -0.36203414       0.00047170      -0.00136344       0.00148260
C        0.48343205      -0.42037888      -0.35061911       0.41707680      -0.00150602      -0.00314774       0.00233711
O        0.31803256      -1.61770859      -0.42793054      -0.42416850      -0.00440014      -0.00443945      -0.00281809
C        1.86459848       0.21436670      -0.41373044      -0.13445434      -0.00354821       0.00108152      -0.00118361
C        2.94166622      -0.84057485      -0.58806299      -0.10209431      -0.00136993       0.00329907      -0.00072149
S        4.60824140      -0.15552777      -0.69570832      -0.21018524       0.00092440       0.00326026       0.00483454
C        4.90064294       0.19959129       1.05094227      -0.20202804       0.00040464       0.00110188      -0.00079435
C       -2.74511718       1.38018451      -0.08179612      -0.15633422       0.00017541      -0.00174742      -0.00405486
C       -4.11983251       1.24586949       0.00018057      -0.14085405       0.00225234      -0.00480437      -0.00003852
C       -4.69451847      -0.01654677       0.03273415      -0.16136235      -0.00034332      -0.00024820      -0.00098833
H       -5.76712775      -0.12690133       0.09577518       0.13597648       0.00027067       0.00253984       0.00179878
H       -4.31015072      -2.12226620       0.00362876       0.13314968       0.00027497       0.00428500       0.00318871
H       -1.86325020      -1.88279803      -0.14529218       0.13545065      -0.00264450      -0.00136797       0.00070365
H       -0.26918960       1.45101111      -0.17905881       0.26194790       0.00076755      -0.00070083       0.00059860
H        2.02341911       0.79852946       0.49484048       0.06891587      -0.00129381       0.00095046      -0.00023564
H        1.88863774       0.92310920      -1.24280606       0.07673058       0.00032014       0.00175286      -0.00163062
H        2.89072364      -1.56364887       0.22164325       0.09905655       0.00065107       0.00068358      -0.00466562
H        2.76801683      -1.38886938      -1.50840743       0.11215355      -0.00039245      -0.00320504       0.00201102
H        4.76083242      -0.69397308       1.65479560       0.09388876      -0.00323769       0.00341632      -0.00088963
H        5.93369860       0.52584476       1.13903265       0.11603432      -0.00046936       0.00189301       0.00354463
H        4.25258723       0.99107355       1.41940396       0.08800547      -0.00004622      -0.00116915      -0.00344827
H       -2.29660347       2.36511886      -0.11060280       0.12723407       0.00560810      -0.00243074       0.00423927
H       -4.74461013       2.12712389       0.03777972       0.13453057       0.00870133      -0.00189459       0.00086076
