22
Properties=species:S:1:pos:R:3:charge:R:1:forces:R:3 21_adduct=T (SP=-1062.801257999021,U=-1062.62038229,H=-1062.61943808,G=-1062.67406772) energy=-28900.485526506007 pbc="F F F"
N       -2.95914473       0.07728985       0.13572078      -0.11422469       0.00711294      -0.00119731       0.00405645
C       -1.90266149       0.78405872       0.59761995       0.15832199       0.00502572       0.00724875      -0.00022598
C       -1.04492997       0.08735446       1.63781689      -0.04169457      -0.00294550      -0.00205108      -0.00076823
C        0.41888857       0.15078378       1.22357894      -0.00040738      -0.00697042       0.00207696       0.00558803
O       -1.64752671       1.92340785       0.22818201      -0.30974138      -0.00540404      -0.00254482      -0.00295296
S        0.66541439      -1.00103671      -0.18007493      -0.07820810      -0.00499074      -0.00122511       0.00392392
C        2.12426668      -0.28838003      -0.99747561      -0.06511360       0.00416860       0.00055265       0.00015029
H       -3.03114089      -0.89483211       0.37352784       0.13885595      -0.00112226       0.00304755      -0.00132466
H        0.63906800       1.16363980       0.89290733       0.04302486       0.00170675       0.00059221      -0.00041481
H        1.95084381       0.75341563      -1.25394331       0.04213344       0.00188405      -0.00263258       0.00159801
H        3.02110239      -0.38328124      -0.39490439       0.03995743       0.00045581       0.00219432       0.00060605
H        2.24939912      -0.85631592      -1.91591396       0.04588476       0.00272493      -0.00017162       0.00262907
C       -3.82790972       0.60165490      -0.89294590      -0.01245306      -0.00046728      -0.00147016       0.00093365
H       -1.17923413       0.62394464       2.57605582       0.04630661       0.00011924      -0.00172706      -0.00855847
H       -1.34810859      -0.94499217       1.80208833       0.03981446      -0.00760229      -0.00159124      -0.00362390
H       -3.32140500       0.66120841      -1.85660278       0.03888816       0.00257422       0.00463199      -0.00121827
H       -4.69835394      -0.04113208      -0.98496396       0.04631311      -0.00502158      -0.00649921       0.00284103
H       -4.15012865       1.60346981      -0.62523104       0.04085685      -0.00029121       0.00267310       0.00258473
C        1.33225274      -0.15024485       2.39886143       0.27165943      -0.00021472      -0.00219747      -0.00032205
F        1.05254538      -1.33817600       2.98238291      -0.10971598       0.00484228      -0.00245415      -0.00046653
F        1.19062783       0.80726052       3.35675636      -0.11446392       0.00446629       0.00075735      -0.00311233
F        2.63947822      -0.16597438       2.05431338      -0.10599428      -0.00005081       0.00198762      -0.00192291
