23
Properties=species:S:1:pos:R:3:charge:R:1:forces:R:3 24=T (SP=-518.012547129081,U=-517.81096076,H=-517.81001655,G=-517.85864802) energy=-14079.11134759968 pbc="F F F"
N       -3.29664537       0.03790140       0.19661077      -0.06847485       0.00036207       0.00355798       0.00456700
C       -1.96526277       0.25617227      -0.11350375       0.17532441       0.00180196       0.00027834       0.00593115
C       -0.95955789      -0.29992161       0.83246892      -0.04309441       0.00357464      -0.00097712       0.00630614
C        0.33613263      -0.05275716       0.66940055      -0.05502691      -0.00194344      -0.00049307      -0.00368523
O       -1.62564800       0.87252804      -1.11686225      -0.30185905      -0.00263442      -0.00154885       0.00073560
H        0.67361265       0.55482841      -0.15892668       0.04136993      -0.00461884       0.00333924      -0.00212220
H        1.07926361      -0.45044309       1.34731689       0.04341468      -0.00071821       0.00277699      -0.00730545
C       -4.31480088       0.41741646      -0.72850270       0.04337471      -0.00286533      -0.00088333       0.00356888
C       -5.28841195      -0.51107191      -1.08783730      -0.04744202      -0.00001555      -0.00303539      -0.00359442
C       -6.31719738      -0.15157859      -1.94478895      -0.03617301       0.00014281       0.00393711      -0.00253763
C       -6.38791948       1.13925721      -2.44576750      -0.04066405      -0.00363097       0.00547789       0.00450213
C       -5.41476343       2.06288907      -2.09018516      -0.03837602       0.00175349       0.00187552       0.00212685
C       -4.37547577       1.70692185      -1.24666726      -0.04090523       0.00383430      -0.00119693      -0.00072583
H       -5.23859648      -1.52241831      -0.70864076       0.04243520       0.00024930      -0.00346515       0.00315291
H       -7.06275716      -0.88547439      -2.21941899       0.04323097       0.00107833       0.00528980      -0.00324110
H       -3.60664462       2.41858071      -0.99386159       0.04272236       0.00413663      -0.00044045       0.00285362
H       -5.45938809       3.07151691      -2.47897227       0.04250236       0.00074653      -0.00249414      -0.00536418
H       -7.19301679       1.42497700      -3.10929330       0.04288179      -0.00259728      -0.00682904      -0.00261414
H       -1.27338396      -0.92443972       1.65652968       0.04043611       0.00044656      -0.00487581       0.00467422
C       -3.72675651      -0.67519288       1.39216960      -0.01126200       0.00080297      -0.00056668      -0.00356379
H       -3.61510620      -1.76065615       1.31741637       0.03718273       0.00192606       0.00146987       0.00381282
H       -3.18484299      -0.32723820       2.26850007       0.04391132      -0.00467464      -0.00140945      -0.00452743
H       -4.77720965      -0.45363842       1.55118360       0.04449102       0.00284257       0.00021307      -0.00294986
