34
Properties=species:S:1:pos:R:3:charge:R:1:forces:R:3 28_adduct=T (SP=-938.842670639807,U=-938.51666358,H=-938.51571937,G=-938.57495332) energy=-25528.18831636255 pbc="F F F"
N       -3.01749093       0.34589884      -0.10469185      -0.11151485       0.00014194      -0.00027760      -0.00399799
C       -3.02181008       0.38539792       1.24458151       0.16688657      -0.00107429       0.00314806      -0.00098342
C       -2.09358474      -0.62476746       1.88353580      -0.04766804       0.00291517       0.00114246      -0.00181866
H       -2.30300799      -0.63302694       2.95004007       0.03684143      -0.00430799       0.00201016       0.00106824
C       -0.62402020      -0.33652622       1.61539825       0.02149252      -0.00131594       0.00418432      -0.00291201
O       -3.70910432       1.15552358       1.91302854      -0.31225854       0.00372319      -0.00546807       0.00029906
S       -0.36761153      -1.56706420      -0.38617023      -0.19750850       0.00097823       0.00099927       0.00144280
C        1.26909659      -0.85232432      -0.58325496      -0.09600677       0.00219952       0.00069788       0.00006456
H       -2.31476614      -1.61544372       1.48977202       0.03222498      -0.00383758      -0.00247738      -0.00061158
H       -0.40118839       0.57677148       1.07176127       0.02907367       0.00243023       0.00354083       0.00383268
C        0.35592054      -0.64923314       2.53653212      -0.01759669       0.00273402       0.00102796      -0.00082047
H        1.23337341       0.23774774      -0.55941137       0.03189427       0.00332054      -0.00267551      -0.00271501
H        1.94625600      -1.21000133       0.19135289       0.03295865       0.00231584       0.00021184       0.00057513
H        1.66166474      -1.15292614      -1.54976161       0.04164324       0.00035832      -0.00510174       0.00074525
C       -3.78223800       1.27386518      -0.90675231      -0.00971339      -0.00277372      -0.00393419       0.00031787
H       -2.30756987      -0.22255170      -0.55870001       0.10115308      -0.00112858       0.00261627       0.00131996
H        1.39041386      -0.46951321       2.29819366       0.03324213      -0.00025039       0.00387137      -0.00271258
H        0.18531619      -1.41037651       3.28757735       0.03456398       0.00022128      -0.00456269       0.00061578
N        0.71918485       1.01184539       4.14068515      -0.06626471      -0.00122142       0.00191338       0.00141720
C        1.43357308       1.95975183       3.32103311      -0.01865685       0.00010791       0.00024311      -0.00208951
C        1.46630415       0.56090516       5.29173636      -0.01769054      -0.00025776      -0.00024430       0.00106687
H        0.92465295      -0.24686415       5.77987845       0.02943779       0.00104724      -0.00131304      -0.00010230
H        1.64536163       1.35388110       6.03444324       0.02205092      -0.00191097       0.00087232       0.00428896
H        2.43110605       0.17460293       4.97039810       0.02910251      -0.00109826      -0.00160593      -0.00474037
H        0.91110010       2.09503146       2.37622832       0.02763192      -0.00754063      -0.00592010       0.00182017
H        2.42973960       1.57770925       3.10245846       0.02987185       0.00217521       0.00125523      -0.00174598
H        1.55129502       2.94127480       3.80366426       0.02624993      -0.00351148       0.00072754      -0.00241292
H       -3.14635537       2.05012824      -1.33831194       0.03439391       0.00055639      -0.00308483      -0.00242139
H       -4.28418614       0.74821378      -1.71856041       0.03829300       0.00277863       0.00321517       0.00536666
H       -4.52580957       1.74659001      -0.27319963       0.03672522      -0.00210451       0.00437588      -0.00062327
C       -0.62096816       1.43334386       4.45921744      -0.02213694       0.00026567       0.00116994       0.00269939
H       -1.19273053       1.60340934       3.54855935       0.02793712      -0.00140734      -0.00024695       0.00484378
H       -1.12447273       0.64336238       5.01281160       0.02775158       0.00199318      -0.00100366      -0.00112489
H       -0.64840553       2.35046837       5.06859106       0.02559554       0.00347879       0.00069261       0.00004827
