29
Properties=species:S:1:pos:R:3:charge:R:1:forces:R:3 29_adduct_anti=T (SP=-956.83571103077,U=-956.57709941,H=-956.5761552,G=-956.63268513) energy=-26016.138844187346 pbc="F F F"
N       -2.97116839       0.21503768       0.13308922      -0.08996285      -0.00356669      -0.00003718       0.00452176
C       -1.95623784       1.00874152       0.58357694       0.17665055      -0.00109266      -0.00058220      -0.00484609
C       -1.04142489       0.34845027       1.61446634      -0.01442487      -0.00314296       0.00339056      -0.00439577
C        0.37389566       0.31295620       1.05697383      -0.02980869      -0.00430794       0.00287194       0.00162153
O       -1.76320785       2.16160808       0.22547077      -0.28460810      -0.00430910      -0.00212048       0.00395231
S        0.48454247      -0.84572805      -0.35782148      -0.08878539       0.00227150       0.00281828       0.00077971
C        2.21045175      -0.54640439      -0.85076103      -0.06721103      -0.00181781      -0.00114837       0.00028068
H       -2.92939875      -0.74438001       0.42990505       0.13374616       0.00152128      -0.00064031      -0.00134287
H        0.64872102       1.31202554       0.72530597       0.03302291       0.00262134      -0.00066507       0.00292805
H        1.07630471      -0.00862660       1.82415417       0.03596657      -0.00106763      -0.00177628      -0.00496466
H        2.36196093       0.49281565      -1.13297045       0.03839037       0.00158820      -0.00048380      -0.00035666
H        2.90566480      -0.81750676      -0.05942486       0.03758510       0.00031922      -0.00159041       0.00144572
H        2.40272023      -1.17434023      -1.71629981       0.04129998       0.00218270      -0.00206543      -0.00085632
C       -4.00218280       0.50224427      -0.77275260       0.04686321       0.00122787      -0.00085951      -0.00047472
C       -4.86032252      -0.54474149      -1.11418787      -0.05000709      -0.00050126       0.00051500       0.00469022
C       -5.91157675      -0.33516501      -1.98746058      -0.03919541       0.00028125      -0.00110670       0.00358316
C       -6.12361247       0.92193223      -2.53485933      -0.04920137       0.00050625      -0.00274019       0.00029682
C       -5.26679309       1.95968090      -2.19846972      -0.03982934       0.00013747      -0.00182909      -0.00188536
C       -4.20774848       1.76523585      -1.32539336      -0.04471877      -0.00238140       0.00033455       0.00251230
H       -4.70283570      -1.52948470      -0.69022583       0.03952415      -0.00000858      -0.00084836      -0.00154693
H       -6.56758887      -1.15811834      -2.23955265       0.04064278       0.00037373       0.00347407       0.00037469
H       -3.54163186       2.57192719      -1.07153291       0.03641565      -0.00102638       0.00252807      -0.00073190
H       -5.41936524       2.94368329      -2.62163777       0.03920454      -0.00213069       0.00125527       0.00125113
H       -6.94731435       1.08820796      -3.21483560       0.04028875       0.00476874       0.00047714      -0.00438377
H       -1.36134898      -0.67975431       1.81180576       0.03373688       0.00575954       0.00419904      -0.00057768
C       -1.09959713       1.14416428       2.91323753      -0.07174025      -0.00033193       0.00102242      -0.00049859
H       -0.42715193       0.71155760       3.65269131       0.03304935      -0.00048120      -0.00404785       0.00144091
H       -0.81016735       2.17719288       2.73718977       0.03094150       0.00478542       0.00141058      -0.00114423
H       -2.10515020       1.14396511       3.32965746       0.03216472      -0.00217899      -0.00175603      -0.00167401
