26
Properties=species:S:1:pos:R:3:charge:R:1:forces:R:3 5=T (SP=-649.439246115871,U=-649.22247365,H=-649.22152944,G=-649.27401524) energy=-17650.999697990694 pbc="F F F"
C        0.50511934       0.37552364      -0.06871019       0.01799840       0.00253205      -0.00098727       0.00097367
C       -0.48192514      -0.55448418      -0.08260268      -0.00176591       0.00046746      -0.00286532       0.00378002
C       -1.91417119      -0.39451167      -0.03374142       0.00068228      -0.00360209      -0.00296707       0.00073566
C       -2.69475550      -1.45125004      -0.52961243      -0.03257722      -0.00493980      -0.00414390       0.00501050
C       -2.56906673       0.71840356       0.51184691      -0.03058596      -0.00164843       0.00107339      -0.00472183
C       -4.07448566      -1.39002716      -0.50627111      -0.03499487      -0.00394851       0.00310937       0.00045643
H       -2.20115025      -2.32055931      -0.94444234       0.04457900       0.00316453       0.00255222      -0.00088665
C       -3.94955198       0.76831139       0.54279427      -0.03382460      -0.00080078       0.00009981      -0.00247895
H       -2.00261867       1.53485684       0.93056735       0.04242649      -0.00096466      -0.00074168      -0.00024931
C       -4.70706517      -0.27805629       0.03178456      -0.03479367      -0.00235267       0.00412977      -0.00295116
H       -4.66193820      -2.20531530      -0.90595182       0.04772104       0.00347426       0.00013059       0.00456563
H       -4.44019010       1.63143236       0.97092137       0.04692246       0.00001958      -0.00184989      -0.00294853
H       -5.78683986      -0.22796402       0.05454946       0.04662604       0.00011425       0.00482087       0.00142774
C        1.92954714       0.01074538       0.00563724       0.01476197       0.00419022      -0.00044920       0.00077404
C        2.35834881      -1.18372835       0.58973792      -0.03897037       0.00371981      -0.00223423      -0.00317390
C        2.91758352       0.84360343      -0.51826574      -0.03741200      -0.00016651       0.00353910       0.00156919
C        3.71016731      -1.47961617       0.61109399       0.03523963       0.00131283      -0.00238441      -0.00185676
H        1.66077150      -1.86133913       1.06110277       0.04922270       0.00424094       0.00045346      -0.00198384
C        4.24488505       0.44589182      -0.45896624       0.03698384      -0.00251644       0.00250258       0.00340567
H        2.65986429       1.78872062      -0.97342219       0.05193029       0.00004405      -0.00064779      -0.00489413
N        4.65698807      -0.69454985       0.09285359      -0.18786265      -0.00423982       0.00049104      -0.00293311
H        4.05656182      -2.39842028       1.06980416       0.04918649       0.00208095      -0.00078895      -0.00041614
H        5.01810448       1.07996192      -0.87709366       0.04938364      -0.00213498      -0.00124526       0.00621348
H       -0.16192208      -1.58253570      -0.19320010       0.03853103       0.00587402      -0.00557035      -0.00011630
C        0.21712746       1.75767521      -0.20553728       0.08196147      -0.00053830       0.00262986      -0.00390315
N        0.02050579       2.89581538      -0.32182662      -0.22136952      -0.00338214       0.00134349       0.00460187
