17
Properties=species:S:1:pos:R:3:charge:R:1:forces:R:3 12=T (SP=-402.176835701162,U=-402.0347386,H=-402.03379439,G=-402.07646735) energy=-10930.610829003026 pbc="F F F"
C        2.06043577       0.46620886       0.00216090      -0.01239858      -0.00219406       0.00184198      -0.00130539
C        1.06782817      -0.44193279      -0.00297332       0.00176839      -0.00191836      -0.00301156       0.00060417
C       -0.35580476      -0.18427967      -0.00153326       0.00176629      -0.00436797       0.00116248      -0.00269690
C       -1.22999674      -1.27873137      -0.00258721      -0.03225261      -0.00491277      -0.00360190       0.00059421
C       -0.90967095       1.10147401      -0.00090281      -0.03146401       0.00060056       0.00057812       0.00378839
C       -2.60111926      -1.09943837      -0.00185907      -0.03422935      -0.00318901       0.00419473      -0.00299454
H       -0.81993818      -2.28004850      -0.00430587       0.04485184      -0.00068342      -0.00210963       0.00067968
C       -2.28003042       1.28043815       0.00057319      -0.03462281       0.00200494      -0.00272198      -0.00333490
H       -0.26849894       1.97155475      -0.00225232       0.04181684       0.00389413       0.00452237       0.00120391
C       -3.13187572       0.18224034      -0.00015491      -0.03435527      -0.00263632      -0.00125102       0.00072685
H       -3.25803902      -1.95886347      -0.00371164       0.04762474      -0.00109113       0.00556678       0.00248548
H       -2.68986047       2.28144239       0.00138238       0.04718420       0.00553019      -0.00722666       0.00023254
H       -4.20342456       0.32653548       0.00015653       0.04663903      -0.00219223      -0.00126284       0.00072438
C        3.42022761       0.09654658      -0.00717113       0.07622921       0.00333704      -0.00435097       0.00190627
N        4.54384891      -0.19989063      -0.01530935      -0.22706711       0.00724763       0.00572538       0.00071864
H        1.34551156      -1.48932577      -0.00873018       0.04501956       0.00275758      -0.00517030      -0.00205816
H        1.86589846       1.52998844       0.01394225       0.05348967      -0.00218675       0.00711505      -0.00127463
