15
Properties=species:S:1:pos:R:3:charge:R:1:forces:R:3 14_carbanion=T (SP=-685.756648113416,U=-685.62731239,H=-685.62636818,G=-685.66817038) energy=-18644.752375047996 pbc="F F F"
N       -3.01870868      -0.58343281      -0.29915060      -0.16887286       0.00290463      -0.00390732       0.00573643
C       -1.91419063       0.17730195       0.01314770       0.13625470       0.00149450       0.00363353       0.00204438
C       -0.88340943      -0.51079053       0.75837336      -0.02921461      -0.00202271      -0.00074514       0.00179475
C        0.38461852       0.12578468       0.99162102      -0.01720393      -0.00372925      -0.00081236       0.00483540
O       -1.83872911       1.37068164      -0.28790040      -0.32441977       0.00305211       0.00455668      -0.00373793
S        1.58694336      -0.54720055      -0.34727430      -0.05984133      -0.00187908       0.00557384      -0.00231187
C        3.13130815       0.30079703       0.13806934      -0.06053603       0.00562567      -0.00028528       0.00004141
H       -1.02731571      -1.52742811       1.09908944       0.03903052      -0.00529883      -0.00434451      -0.00516733
H        0.31287208       1.19893083       0.84973919       0.04297177      -0.00172236      -0.00196139      -0.00235767
H        0.84062433      -0.13029470       1.94223972       0.04663895      -0.00415573       0.00147458       0.00469242
H        3.01624626       1.38205878       0.08792636       0.04074245      -0.00096437      -0.00061374      -0.00196499
H        3.43751292       0.01399681       1.14257923       0.04084468       0.00114799      -0.00136876       0.00272489
H        3.90721798      -0.00039539      -0.56367985       0.04505886       0.00309270      -0.00033117      -0.00528592
H       -3.63952430      -0.17818163      -0.97781309       0.13096152       0.00142928      -0.00671561      -0.00016126
H       -2.91193848      -1.58133388      -0.35097299       0.13758509       0.00102488       0.00584644      -0.00088257
