16
Properties=species:S:1:pos:R:3:charge:R:1:forces:R:3 8_carbanion=T (SP=-669.700847520365,U=-669.56039951,H=-669.5594553,G=-669.60135735) energy=-18207.91204250929 pbc="F F F"
C       -3.11270938      -0.60515856      -0.32912511      -0.07627983      -0.00110341       0.00141806      -0.00068739
C       -1.87185289       0.18084026       0.01403649       0.10640147      -0.00232591       0.00000498       0.00100242
C       -0.84624580      -0.45988732       0.78845865      -0.01886968       0.00038762       0.00188744      -0.00045535
C        0.42633884       0.19569901       1.00589830      -0.01603743       0.00325656      -0.00083330       0.00148950
O       -1.73977407       1.35157752      -0.37333196      -0.28038967       0.00652739      -0.00454442      -0.00350952
S        1.58965729      -0.58065791      -0.28622199      -0.04711961       0.00404253       0.00304962       0.00305872
C        3.15387248       0.25701700       0.13699086      -0.05940137       0.00202496       0.00213622      -0.00086309
H       -0.98072658      -1.46652963       1.15872284       0.04097652      -0.00299989       0.00398454      -0.00429269
H       -3.98991558      -0.06394221       0.02268023       0.04289835       0.00048307      -0.00480382       0.00241319
H       -3.19549098      -0.67731713      -1.41314579       0.04325416      -0.00069317      -0.00162911       0.00074455
H       -3.11300398      -1.60620996       0.09272736       0.04197161      -0.00059193       0.00344525      -0.00267775
H        0.35258266       1.25812877       0.79288361       0.04293955      -0.00424644      -0.00104919       0.00439431
H        0.87649254       0.00641448       1.97696496       0.04795275      -0.00375612       0.00022883       0.00728831
H        3.06742105       1.33467252       0.01068164       0.04222792       0.00122702       0.00095914      -0.00324471
H        3.45251736       0.03418401       1.15995775       0.04228085       0.00143732      -0.00273545      -0.00245240
H        3.91989619      -0.11490017      -0.54120879       0.04719441      -0.00366993      -0.00151853      -0.00220810
