35
Properties=species:S:1:pos:R:3:charge:R:1:forces:R:3 16=T (SP=-837.937875935117,U=-837.63245502,H=-837.63151081,G=-837.6914148) energy=-22801.028307761353 pbc="F F F"
N       -3.65790877       0.00087964       0.00418322      -0.35092500      -0.00134945      -0.00211192       0.00298413
C       -2.65829948       0.74504162       0.58000924       0.43781662       0.00720249      -0.00048970      -0.00517250
C       -1.87451350      -0.00461474       1.59630220      -0.18807796       0.00742250      -0.00187248       0.00349174
C       -0.88455428       0.59020710       2.24973912      -0.08081275      -0.00332116       0.00432821       0.00271783
O       -2.42357228       1.90242670       0.29415520      -0.44804358      -0.00662135      -0.00021818       0.00384529
H       -2.13418216      -1.04079805       1.78489066       0.11524443       0.00659750       0.00300870      -0.00638692
H       -0.68827684       1.63663102       2.06007186       0.14253749      -0.00268023      -0.00639723       0.00032889
C       -0.02765611      -0.10581983       3.26017884      -0.02654690       0.00123762      -0.00103859       0.00084878
C       -4.60149036       0.35980528      -0.97424753       0.10474666      -0.00089194      -0.00249833       0.00216982
C       -5.48511080      -0.60551710      -1.38201283      -0.20262885       0.00175457      -0.00264254       0.00440791
C       -6.45961186      -0.31366602      -2.35389410       0.09949105       0.00091283       0.00401515       0.00184899
C       -6.53083997       0.97486928      -2.91199655       0.27355859      -0.00029195       0.00275787       0.00001316
C       -5.60671510       1.95237091      -2.47555651      -0.15725549      -0.00450807       0.00077573       0.00285541
C       -4.66327435       1.66327135      -1.53300834      -0.11842258       0.00076992      -0.00294475      -0.00077989
H       -5.43693398      -1.59940357      -0.95558248       0.12306680       0.00293102      -0.00441521       0.00241081
H       -3.96320066       2.41037858      -1.20475058       0.13563558      -0.00431609       0.00077278      -0.00310609
H       -3.73367391      -0.94589923       0.32649693       0.26518035      -0.00136698      -0.00469843       0.00300089
H        0.53807908      -0.90636967       2.75592933       0.06839097      -0.00002670      -0.00139944       0.00014447
H       -0.67574130      -0.61177691       3.97869828       0.08409670       0.00277586       0.00348055       0.00127270
N        0.86326204       0.80167904       3.96211309      -0.25407028      -0.00325086      -0.00206493       0.00175709
C        1.94663744       1.25065358       3.10898262      -0.14451227      -0.00771132      -0.00260719      -0.00027305
C        1.36862919       0.19396302       5.17513124      -0.14970398       0.00118061       0.00041599      -0.00024446
H        0.53448095      -0.05795552       5.82585385       0.08174154      -0.00079628       0.00540131      -0.00154313
H        2.01339926       0.89643830       5.69797161       0.08568360      -0.00193734       0.00512155      -0.00287729
H        1.94458894      -0.72429464       4.98323519       0.06448346      -0.00049003       0.00116293      -0.00410423
H        1.55466859       1.71061138       2.20548115       0.07910886      -0.00104112       0.00256818      -0.00410656
H        2.60303805       0.42409956       2.80253314       0.06885315       0.00080785       0.00041185       0.00151413
H        2.54362965       1.99191969       3.63539871       0.08716602      -0.00321764      -0.00602593      -0.00303376
N       -7.46833185       1.28099755      -3.85251348      -0.41152889       0.00178887       0.00594464      -0.00323237
C       -8.28173091       0.32351076      -4.19961756       0.25932044       0.00379894       0.00092449      -0.00110594
N       -8.30491871      -0.95378707      -3.73095698      -0.40195382      -0.00354988       0.00301625       0.00016209
H       -9.03040865       0.55612632      -4.94620916       0.06326527       0.00659961       0.00388394       0.00448052
C       -7.40881101      -1.25000882      -2.82932993       0.08533853       0.00128164      -0.00248180      -0.00470831
H       -7.40831191      -2.26333601      -2.44112674       0.08344232      -0.00415728      -0.00139126      -0.00066279
H       -5.66899910       2.93957528      -2.90934099       0.12631372       0.00446334      -0.00269272       0.00108322
