17
Properties=species:S:1:pos:R:3:charge:R:1:forces:R:3 4_adduct=T (SP=-778.56307982802,U=-778.41876069,H=-778.41781648,G=-778.46385626) energy=-21186.650033471164 pbc="F F F"
C        2.24467508      -1.02869339      -0.41317746      -0.20347503       0.00216085       0.00057750      -0.00181009
H        2.53282233       0.01332939      -0.30574338       0.09685834       0.00452167       0.00659355      -0.00258978
H        2.11161342      -1.26685268      -1.46476457       0.09728776      -0.00436272       0.00238666      -0.00639931
S        0.75034448      -1.39326585       0.52919322      -0.16698232       0.00109074      -0.00304413       0.00829086
C       -2.39300215      -1.73300923      -0.05587405       0.43061367       0.00280112       0.00549276      -0.00163858
O       -2.36064434      -2.13058384      -1.19634476      -0.43597898       0.00499942      -0.00028596       0.00339675
C       -1.75795987      -0.39338277       0.34319130      -0.01612000       0.00690071       0.00426744       0.00123893
H       -1.65821685      -0.32847455       1.42602527       0.10031227      -0.00442950      -0.00133968       0.00323905
C       -0.37738099      -0.25153293      -0.29700624      -0.11697935       0.00749567      -0.00419087       0.00325684
H       -0.43821412      -0.49545794      -1.35396538       0.11560724      -0.00564195       0.00052474       0.00201892
H       -0.02716128       0.76979347      -0.17425204       0.10197529      -0.00808238       0.00023467      -0.00041670
C       -2.65364136       0.68792286      -0.07910505       0.25258338      -0.00084621      -0.00162725      -0.00104792
N       -3.36547109       1.52853674      -0.39680056      -0.40494609      -0.00052577      -0.00455591      -0.00220958
N       -2.98205698      -2.40344338       0.96237872      -0.63705075       0.00151887       0.00152427       0.00042909
H       -3.43441343      -3.27486658       0.75396009       0.34774363      -0.00202697      -0.00332632      -0.00494845
H       -2.94520054      -2.08048127       1.90947277       0.31695530      -0.00710298       0.00459216       0.00062709
H        3.03354668      -1.65445286      -0.00734702       0.12159569       0.00152921      -0.00782414      -0.00143727
