30
Properties=species:S:1:pos:R:3:charge:R:1:forces:R:3 7_adduct_anti=T (SP=-1066.119220897813,U=-1065.86473789,H=-1065.86379368,G=-1065.92288341) energy=-29011.383668014834 pbc="F F F"
C       -1.31930712       2.19590683      -0.17687417      -0.19737673      -0.00013958      -0.00147840      -0.00082850
H       -2.23114875       1.65494608       0.04965274       0.08376227       0.00159220      -0.00224563      -0.00044614
H       -1.17639150       2.26302481      -1.25141121       0.09383246       0.00032014       0.00201091      -0.00068096
S        0.09357216       1.41732311       0.62981645      -0.15026233      -0.00153617       0.00025951       0.00151924
C        1.17664717      -1.07326904       0.29936895       0.06834360       0.00511842       0.00029532       0.00281883
H        1.06860879      -1.21257485       1.37225721       0.11266460       0.00042069      -0.00288459       0.00116189
C        0.01137485      -0.19696194      -0.21222762      -0.05610346       0.00475854       0.00043539       0.00182396
H        0.17408764      -0.02561711      -1.27558121       0.09307068      -0.00102962       0.00188260       0.00175992
C       -1.31319874      -0.89472264      -0.03081793       0.05232225       0.00255166       0.00215941       0.00196068
C       -1.96812808      -1.44220632      -1.12924000      -0.12656789       0.00205652       0.00185183       0.00049426
C       -1.89048747      -1.00527515       1.23095505      -0.11880504      -0.00244602       0.00032738       0.00011005
C       -3.19382085      -2.07457099      -0.97064195      -0.13211705       0.00252429       0.00055641      -0.00280197
H       -1.51246405      -1.38287646      -2.10867467       0.12715764      -0.00158821      -0.00127840      -0.00023078
C       -3.11062175      -1.63943716       1.39026040      -0.13505282      -0.00206822      -0.00156970       0.00162774
H       -1.37867832      -0.58481927       2.08482828       0.11923732       0.00095689       0.00096524      -0.00053884
C       -3.76484641      -2.17516057       0.28874464      -0.14310513      -0.00074322       0.00127152      -0.00318994
H       -3.69323589      -2.49863171      -1.82979785       0.13924026       0.00028418      -0.00381759      -0.00078415
H       -3.54879399      -1.72206091       2.37411760       0.13975327      -0.00069321      -0.00007260       0.00525718
H       -4.71408231      -2.67552615       0.41330117       0.14054324      -0.00083307       0.00330399      -0.00049575
C        1.15276272      -2.39244783      -0.35565644       0.25451916      -0.00026654       0.00210902       0.00345201
N        1.09291450      -3.40593176      -0.88774273      -0.39785436      -0.00076833      -0.00014459      -0.00383063
N        2.47262049      -0.45366927       0.10498626       0.14486265       0.00293631       0.00104803       0.00168979
C        3.17890865      -0.32084162      -1.04474580      -0.10673584       0.00089821       0.00117479      -0.00133024
C        4.22257659       0.59043058       0.66581282      -0.01492150       0.00024841      -0.00305943      -0.00051810
C        4.32785921       0.35650965      -0.72184515      -0.23817931      -0.00186862       0.00033408      -0.00008155
H        2.84053357      -0.72976561      -1.97809785       0.14922197      -0.00323624      -0.00044106      -0.00803798
H        4.91807942       1.09338987       1.31541754       0.14588740      -0.00685108      -0.00078955      -0.00164525
H        5.12357409       0.63509913      -1.38791238       0.16362418      -0.00064493      -0.00002901       0.00084932
N        3.09784374       0.10229345       1.15772552      -0.33769086       0.00281276      -0.00119853       0.00412783
H       -1.38552070       3.19994647       0.23029616       0.12672934      -0.00276646      -0.00097571      -0.00321141
