23
 
C           -3.89245009338442       -0.87072983177420        0.21718899057083
C           -3.19804904201013       -0.51480776620759       -0.85115808225689
C           -2.10082237758278        0.49105377562550       -0.86269284847890
O           -1.90863109646201        1.22392253951274       -1.81336391358707
N           -1.35848389359486        0.54071950544697        0.26932195784411
C           -0.20251166728838        1.40530518719344        0.40339727289460
C            1.07406483812447        0.60862880011035        0.32471199854128
C            1.79216366885768        0.29108887485245        1.46915607123571
C            2.94010664915197       -0.47818375386258        1.38531372995368
C            3.37543725834311       -0.94173534720542        0.15612117037148
C            2.66042852054804       -0.63348478754943       -0.98967295850799
C            1.51493464203279        0.13667188920311       -0.90591123672087
H           -3.69649786067432       -0.46634668945092        1.19755243171276
H           -4.70946714080234       -1.57016003047631        0.15280723514458
H           -3.45170076210539       -0.89209567964323       -1.83182314936947
H           -1.48332466287350       -0.17244306564378        0.96953182249780
H           -0.26542131468160        1.94193074781930        1.35547406314149
H           -0.26103801627133        2.11995481227211       -0.42181187557540
H            1.45573171496250        0.65358058573995        2.43076701246473
H            3.49423092356682       -0.71685385012440        2.28140043983806
H            4.27057544207363       -1.54251631196292        0.09087414643036
H            2.99794048940876       -0.99344246094948       -1.95042582957299
H            0.95278378066127        0.37994285707420       -1.79554740553333