26
 
C           -3.05575201841350       -0.96353837816789        1.67041213612240
C           -3.67819597551619        0.18327025609007        2.13566540451347
C           -3.11434963405313        1.42038340687140        1.87500574571795
H           -3.59369901526556        2.31870128168625        2.23509083000679
C           -1.93782433641193        1.52460938355515        1.15516556784483
C           -1.31108048340787        0.37291326000223        0.68972492462357
N           -0.12399287570038        0.39478859106552       -0.04922566692910
C            0.68325737307830        1.44607132730188       -0.33629410824669
O            0.47370977447611        2.60009342097920       -0.03352985698989
C            1.92566864099042        1.04419780295501       -1.13228836834703
C            2.79093928380989       -0.00638414724843       -0.44304173965364
S            2.17518884135180       -1.72145034417482       -0.59594895675181
C            2.59642416517905       -2.05640301602256       -2.32955556980888
C           -1.87976874788844       -0.87249036207718        0.95191937500216
H           -3.48719508759518       -1.93373859197959        1.86886703173575
H           -4.59669887289640        0.11116798085458        2.69857826310738
H           -1.49900177108647        2.48738110303907        0.95472539278972
H            0.21858465930684       -0.52509498875661       -0.31255110971657
H            2.51727576577963        1.95167205889796       -1.26982438279278
H            1.61303745008554        0.69569784538250       -2.11981448121733
H            3.80064221090209       -0.00389525290709       -0.85522745488648
H            2.84948493994583        0.18281250270308        0.62859790408974
H            2.32616768312584       -3.08991011187015       -2.51925769693912
H            2.03259723049254       -1.40160232114368       -2.98813178377866
H            3.66478376492832       -1.91844808800755       -2.47165058416049
H           -1.39020296525248       -1.76729424507517        0.59258918443119