19
 
C            3.54352268641253        0.70741892529778       -0.73019374936541
C            3.08018273970506       -0.45416483701195       -0.29545489581101
C            1.71065185346230       -0.70378266546914        0.22622161368526
O            1.49718242003905       -1.55526723692721        1.06369351018191
N            0.74590665068914        0.09722332937845       -0.31940514943766
C           -0.61611507385917        0.13494357824590       -0.05329289392630
C           -1.24464270029673       -0.65411164683854        0.91024394081595
C           -2.60973658421502       -0.50820380847311        1.06811459303868
C           -3.29723878846398        0.40287059280915        0.27755364963958
C           -2.57381973452572        1.13642252644518       -0.64720088777264
N           -1.26897084957327        1.01091141395792       -0.81279105909110
H            2.94216856399307        1.60183046954789       -0.77003776294440
H            4.56768627254866        0.81899377055004       -1.04514344271239
H            3.72945450546365       -1.31473018271265       -0.21320744027892
H            1.01497413596869        0.74438316032519       -1.04879209402851
H           -0.67210445537222       -1.34898528491910        1.50000192096581
H           -3.13401824120314       -1.10107607076428        1.80337802679809
H           -4.36236706797933        0.53864907334526        0.37752810094859
H           -3.05271633279331        1.86235350276300       -1.29121598070535