24
 
C            2.60432084474656        1.27464662067838        0.30080978578813
C            1.92694573892987        1.09784517963945       -0.93474561856070
C            0.63866058044997        0.59184451598078       -1.12742593984178
O            0.04099503249179        0.54768949435930       -2.21257824177806
N           -0.00390827074841        0.11642753939477        0.05991046826101
C           -1.28972487844230       -0.24514996797128        0.26368442453872
C           -2.28539547771871       -0.16998935603431       -0.73203264280397
C           -3.56621039917909       -0.54434440282016       -0.41133898932158
C           -3.85297316277224       -0.98785416238663        0.87980869524072
C           -2.80975868817160       -1.02950131544309        1.78441368325792
N           -1.56874357364892       -0.67455905648337        1.50598514963474
H            1.99588412496627        1.45603242937591        1.18047953844177
H            3.44670665794042        1.95628415391619        0.26037778093943
H            2.46649291437448        1.33472087951607       -1.84237851573797
H            0.59065428941485       -0.00738191081894        0.86731592374303
H           -2.00408171786129        0.17191792082563       -1.71385632415360
H           -4.35102818093686       -0.49579149243093       -1.15667456546980
H           -4.85137411590355       -1.28886741621329        1.16417741194466
H           -2.97068925688545       -1.36626428993454        2.80436854876435
S            3.61333371228603       -0.39143986706012        0.98197244163872
C            3.13330990523876       -1.56668026653607       -0.28988748127317
H            4.02189189514703       -1.95288940076506       -0.78457958135312
H            2.56688501215467       -2.38141265804200        0.15569344194699
H            2.50780701412348       -1.01552794922896       -1.00349939383819