20
 
C            4.19854106838569        0.45848006954151       -0.22580060502637
C            3.07791551786866       -0.24560905677037       -0.28403349470683
C            1.76106330957567        0.40340896238749       -0.05171657722851
O            1.64557384001238        1.58532305344579        0.19783181392899
N            0.71595706880772       -0.47427543089776       -0.15104789312255
C           -0.65303592138367       -0.23965589244328        0.00082989994332
C           -1.51643914338096       -1.32375824179269       -0.15436501812421
C           -2.88034314685518       -1.15620641492936       -0.01653827142232
C           -3.40184534841353        0.09280749690554        0.27754241350311
H           -4.46805989760576        0.22323015176341        0.38517305968207
C           -2.54627132999270        1.17023069708455        0.43197201398176
C           -1.17878416259670        1.01490749391907        0.29636399961972
H            5.16915604285322        0.02237693149015       -0.38845260102038
H            4.15534714125237        1.51324539931463       -0.00767679911507
H            3.08398044717852       -1.30550165416337       -0.50040621768375
H            0.94787845495445       -1.43507412402643       -0.36440124454692
H           -1.11231746083626       -2.30082113868761       -0.38412381632405
H           -3.53776470037864       -2.00441790733953       -0.13934138771198
H           -2.94532655805232        2.14711896563782        0.66130946712432
H           -0.51522522139283        1.85419063956060        0.41688125824979