32
 
C            3.07768122455949       -1.24193441619406        1.79520345616269
C            2.81862681466045       -0.66804385028616        0.43967931978549
C            3.66379488523182       -0.76955585577844       -0.57740196999848
C            1.53992092781609        0.11222585198424        0.34581910579371
O            1.13473785915671        0.80077930494341        1.26156555462024
N            0.88620398386131       -0.02648706833710       -0.82962856317753
C           -0.38021880599870        0.64336420779546       -1.12496728331041
C           -0.11784500725791        2.15044234725808       -1.20621403201493
C           -0.88028339321818        0.12762691687380       -2.47790081949041
C           -1.39487060940686        0.26402442319201       -0.05600843703213
C           -2.28967965969625        1.17273911986544        0.48977157609307
C           -3.21512214406195        0.76846099813874        1.43697757000854
C           -3.26298387403215       -0.54920285219078        1.85324387055128
C           -2.37686640254354       -1.46463947188901        1.31257592213504
C           -1.45605543997796       -1.06056929533188        0.36490099813926
H            2.93786070009207       -0.45912588965657        2.53930248529613
H            4.08262855130154       -1.64895501375212        1.86979129956729
H            2.35401761678133       -2.02815384705991        2.01198120370379
H            3.48275625687128       -0.30905321735508       -1.53463475677491
H            4.59726246466158       -1.29952877241358       -0.48024330053473
H            1.27745357989489       -0.62445600247793       -1.53858536755104
H            0.70212451646533        2.33510191539134       -1.89805558340285
H           -0.99515968822589        2.68055666401142       -1.56524534602989
H            0.16279506767323        2.52618954264755       -0.22638831835850
H           -1.83493351079010        0.58924469733452       -2.71593739029184
H           -0.17019085661205        0.37369943139184       -3.26542232211470
H           -1.02167885775569       -0.95062328095904       -2.44991840472458
H           -2.27108597810530        2.20783222408361        0.18964986416088
H           -3.90031900633478        1.49196586058254        1.85462047670873
H           -3.98273118378485       -0.86131001216628        2.59561006643989
H           -2.40188537216346       -2.49718333489335        1.63038584323532
H           -0.76595465906352       -1.78543132475141       -0.04452671759206