31
 
C            2.48510989274610       -1.45372464433405       -0.66594676896419
C            2.30035655573074       -0.31201403640854        0.33082789554980
C            1.09092685388672        0.50932138622972       -0.01015866188168
C           -0.15964676976386       -0.04216416889572        0.00911920655968
O           -0.48277617333304       -1.22039323377528        0.28433704642379
N           -1.19060907373681        0.91351917273731       -0.34914146008328
C           -2.53995982603434        0.79304104640712       -0.37529192504185
C           -3.20751788170800       -0.40174372611285       -0.05652836667647
C           -4.58103984386649       -0.46876631011199       -0.09751829992239
C           -5.34588175708676        0.63486077679613       -0.45475460672629
C           -4.70112003078272        1.81956176364705       -0.77375036054771
C           -3.32609962065346        1.90319128967020       -0.73631457095499
C            2.20107723907868       -0.86525866213850        1.74999232331491
H            1.54767148823047       -2.00639138107441       -0.68082080217453
H            2.67907660442226       -1.06065262539035       -1.66289493151699
H            3.29218139699577       -2.13138029533952       -0.38114825105462
H            1.24893190305240        1.54635150756346       -0.26681628573420
H           -0.82904635200657        1.82801575936920       -0.57964630768768
H           -2.60285495817506       -1.25091528180582        0.21807200810069
H           -5.07467242039661       -1.39994390293488        0.15408913948899
H           -6.42621902275340        0.57265990218553       -0.48375526951389
H           -5.28158811144001        2.69134524360964       -1.05490729325126
H           -2.83340380160216        2.83609868177021       -0.98673462692347
H            3.00500160499945       -1.56538057800474        1.98455590470184
H            2.20540312896852       -0.05330099036877        2.47566447441947
H            1.24783141854871       -1.38744936737933        1.81014429410452
S            3.73875224084684        0.85906308270005        0.21321585700979
C            5.17015947193308       -0.18235465563788        0.64161342255432
H            6.04019666149081        0.46637657396951        0.61473446779799
H            5.04671683198038       -0.59139624514558        1.64028556970505
H            5.28304235042915       -0.98017608179757       -0.08714063900700