71
 
C           -3.52726009201086       -2.17868125058306       -3.48668819345127
N           -2.33068326242415       -2.68972525554368       -3.54061327397554
C           -1.47359379170376       -2.40730811217294       -2.53508131699609
C           -0.18910511834311       -2.98432180720425       -2.57422708522771
C            0.69100511100814       -2.80858927151985       -1.53831970776788
O            1.96699156531790       -3.28210969489233       -1.49933215316581
C            2.45533859779158       -3.98751292390489       -2.61345947258793
C            0.27589583674450       -2.09661126164065       -0.37488968320462
N            1.20224065008396       -1.98279281598758        0.66195806685208
C            1.06049414343153       -1.28334218368046        1.81048257218825
O            0.01840319467202       -0.85584924454699        2.25924214050148
C            2.41588206092604       -1.03674912400117        2.51098666870878
N            3.27839103019241       -0.28360135674120        1.60657294784037
C            4.05155486543438       -0.91606605266830        0.71345189127680
O            4.07586076254766       -2.13870596140552        0.64161217980256
C            4.83854039263309       -0.07681519838787       -0.27738509179011
C            4.12969212916798       -0.19062404163734       -1.62580164871454
S            2.50105723779772        0.63349412427207       -1.64478313930316
C            3.03280951268837        2.32998889296863       -2.03442259650616
C            3.18327015427678        1.14320108043455        1.86054525181319
C            2.18452323997683        1.26462172344153        3.01508923311448
C            2.24702781081707       -0.09988763341042        3.69915530306429
C           -0.96559825631744       -1.51827371458027       -0.33621050822276
C           -1.83446154909281       -1.58843674651252       -1.43828391556482
C           -3.08725857074765       -0.90243593363220       -1.48977365616397
N           -3.43719456691549        0.02836180464673       -0.57118755548472
C           -2.61590271585509        0.91655179907809        0.12267985039342
C           -1.40220000754920        1.36833108613491       -0.39591218024657
C           -0.63943171929459        2.25963994883730        0.33072289516104
C           -1.07445137721245        2.72600155710553        1.55924082914087
C           -2.29353511958430        2.30610025246990        2.07515350252949
C           -2.80142468413348        2.84496793631537        3.38186857374320
C           -3.69360634606771        4.06525573062429        3.14653871495847
C           -3.05892997108741        1.41040733190245        1.34575614365706
C           -3.97979864188846       -1.25544606906893       -2.52455749399474
C           -5.32522864946394       -0.66024344476893       -2.58582691885150
O           -5.85087830053476       -0.07877764278993       -1.63943550419205
N           -5.99938805832264       -0.76940830816976       -3.75546309896047
H           -4.18920653628363       -2.51835216520789       -4.27462889453564
H            0.05622716324915       -3.56750921983809       -3.44612950382158
H            3.48690004566812       -4.23758687246007       -2.36971181122531
H            2.42791238317633       -3.37211256980045       -3.51855929725924
H            1.88810339280103       -4.90737846556616       -2.78429344660683
H            2.11925210087422       -2.37064692854023        0.44806093326215
H            2.88736801378687       -1.99404714585327        2.75219927912837
H            5.83387146173784       -0.51619852617086       -0.37312130798403
H            4.93499433623531        0.96237496999841        0.03025650346498
H            3.92867900478681       -1.23981978784328       -1.84113996729526
H            4.72472404602108        0.23919671948321       -2.43124771785631
H            2.13548153292056        2.93856801087000       -2.07073705652094
H            3.70244833163403        2.70289539974571       -1.26409046501360
H            3.52411320765666        2.34196601062918       -3.00337088662920
H            4.16580855550171        1.53551858655630        2.14866066526050
H            2.82839741595808        1.67313642860893        0.97380685530506
H            1.17888678777507        1.41810028551296        2.62463853250336
H            2.43482421884456        2.08462877009852        3.68508624033646
H            1.33469578282864       -0.32168459244609        4.24724328938428
H            3.10579495095600       -0.17048210395777        4.36732382652627
H           -1.27077356723385       -1.00981239682489        0.56076407696286
H           -4.44098941673941        0.22861086915344       -0.56704222713267
H           -1.05492468261155        1.01379348387166       -1.35431646499212
H            0.30549410614524        2.59543524846098       -0.07181850111656
H           -0.46844604957402        3.42395436320931        2.11966977554155
H           -1.95999367075475        3.12942676997356        4.01668869391218
H           -3.37456838848030        2.07437176362464        3.90032786550556
H           -4.06299341118912        4.45662783133669        4.09179175344446
H           -3.13557072858130        4.84961023153956        2.63961074724987
H           -4.54472060377626        3.79647167990738        2.52520483102530
H           -4.00835713634003        1.07077672801455        1.73417820377987
H           -5.60265622099231       -1.16895328269294       -4.58470281303410
H           -6.91982392301090       -0.36548831215177       -3.79944675087812