40
 
I           -5.33441298476750        3.41454119673599       -2.19728315830541
C           -5.21322673007840        1.45979900479688       -1.41503913710883
C           -6.29469915982460        0.60138662662073       -1.47902133429437
C           -6.18310620224365       -0.67002784176751       -0.93141595132473
C           -5.00633488380129       -1.08861225014924       -0.34025545538159
C           -3.88346526066718       -0.23358095940747       -0.31307574271195
C           -4.02255217160245        1.04635749812386       -0.83933811044378
N           -2.72135508079302       -0.66445082657504        0.29036630448888
C           -1.48218847682617        0.05927044144282        0.22373243608738
C           -0.37107998458429       -0.92198519225453        0.58791814724150
O           -0.61571360659895       -2.10924134213579        0.72391403611738
N            0.86484626091443       -0.41279317598674        0.73607660192404
C            1.96692425770895       -1.31024324328473        1.02649843701227
C            3.14494048539763       -1.02644335413067        0.10084158123030
N            3.56855817534375        0.35259124781328        0.24964614372906
C            2.65195407389425        1.22716301330397        0.94970163579903
C            1.21809499880730        0.97458729321317        0.49896431312092
C            4.72693741702249        0.88128003956843       -0.23808352878194
O            5.01224391168709        2.04914820568705       -0.03943741684536
C            5.60432581734190       -0.02729958205014       -1.01551129491764
C            6.86280099847072        0.31158977380046       -1.25426998585530
O           -4.97697649014816       -2.34042210600104        0.19560918172651
Cl          -7.78242939251353        1.08064628599634       -2.20416437454050
H           -7.01996394788393       -1.34834475181881       -0.95178996203106
H           -3.19480408613655        1.73528556090312       -0.80298791536945
H           -2.53702751290973       -1.66532772361249        0.27794251892917
H           -1.49824916625874        0.89660683149775        0.93080125275528
H           -1.27710117053525        0.45870948937963       -0.78228557628380
H            1.60417643583135       -2.32948096661327        0.87730392465983
H            2.27291562041048       -1.20326289073758        2.07236741691419
H            3.96252494761983       -1.70550574830299        0.36010160085216
H            2.83981029828228       -1.22294438733781       -0.93639262801554
H            2.73574417487658        1.08575611644235        2.03365209882851
H            2.94902148627887        2.25323185086195        0.71894266489498
H            0.55029002044316        1.63783007081397        1.05630237065374
H            1.12428224351072        1.20985071777856       -0.56907519182950
H            5.18645028281676       -0.94440131909781       -1.39982816538418
H            7.53019482608650       -0.30797730463929       -1.82817528178070
H            7.25276272276601        1.23902825067841       -0.86789858081913
H           -4.21511314733532       -2.44231454955485        0.77893253866616