45
 
I           -4.25125897038168       -4.66283749217113       -2.28004597550580
C           -4.48246330517348       -2.73350249213687       -1.45980776776201
C           -5.52523194238138       -2.45098621809324       -0.59406431977443
C           -5.65154779511785       -1.17930127201741       -0.05885756592053
C           -4.75265562567493       -0.17616227794991       -0.39518326415378
C           -3.73130129033604       -0.44792918784251       -1.32890690073112
C           -3.59535861831981       -1.73766564112007       -1.82482542027658
N           -2.92336994924384        0.58060002058517       -1.82749398988518
C           -1.52188713337793        0.61167740094493       -1.46446830486352
C           -1.32788949180822        1.41130511274082       -0.16898893683510
O           -2.31309254372290        1.90764548863873        0.38919648251383
N           -0.08934874722384        1.56429815712453        0.27910605310787
C            1.09120391217936        1.02092957663275       -0.36693629133540
C            2.33322448910376        1.72700609795097        0.20008041197884
N            2.50304177376597        1.45421830826102        1.60485847363320
C            1.24451190284278        1.55292890220623        2.33067334138958
C            0.14308909388644        2.24901666243623        1.54194994109516
C            3.14874475577140        0.11785272544261        1.79766079145407
O            2.42347470376995       -0.84453129308631        2.11370180955995
C            4.50731881998378        0.18356810551377        1.61954681666526
C            5.36395379801836       -0.98083272181930        1.65685848528526
O           -4.88313327672361        1.03938893437936        0.17326434632237
Cl          -6.66931099437267       -3.66324247805985       -0.14937204154164
H           -6.43859081575174       -0.95938172878167        0.64419924363467
H           -2.80073057772728       -1.94694687829105       -2.52399854483080
H           -3.33552731638579        1.48795526923057       -1.61674205354674
H           -1.14390575042164       -0.40395585799796       -1.33412082357576
H           -0.96355081359217        1.09339218534696       -2.27532375746556
H            1.17810377086468       -0.05057958898077       -0.14841539761526
H            1.02937807908677        1.16238987518605       -1.44981553994442
H            2.24527975288020        2.80976511142787        0.03189995691959
H            3.22088322275446        1.37521163099245       -0.32934730672597
H            1.42150961093381        2.10913726046152        3.25998121100084
H            0.92303694609698        0.53185598527085        2.59548558364838
H           -0.79417279805704        2.23791498832381        2.10278486533722
H            0.41230556678051        3.29375648750820        1.34554082454991
H            4.94842476507090        1.13595839443758        1.36283018472462
H            6.34505088967277       -0.81675023496237        2.09908267621319
H            4.86961887773775       -1.84510025440736        2.09425267445535
H           -3.99140690523723        1.46906938363029        0.24912806079309
S            5.88747758395182       -1.61753766265588       -0.09987180248234
C            4.22666481594985       -1.87248329191862       -0.76483781165530
H            3.56522092321872       -1.19840737339813       -0.22450668509929
H            4.23287724221108       -1.63329434140220       -1.82517484954145
H            3.92133936446897       -2.90541377761128       -0.61309100732462