36
 
C            3.95731044680079       -0.14023488948028       -1.55504084836034
C            4.80019415902744        0.46175894282288       -0.63349677160043
C            4.33204599907598        0.70436991917735        0.64924049413579
C            3.04812219408820        0.35966422115986        1.01522586709063
C            2.18921187115420       -0.25074598157196        0.09230547385947
C            2.67213892104680       -0.49283319754603       -1.20255500306310
N            0.89814942184475       -0.58246297054610        0.38291745006247
C            0.23074286188760       -0.61180680831165        1.62982054222024
O            0.85174925807945       -0.49817790635803        2.69106718053585
C           -1.15941432576270       -0.85206508439409        1.52114943539898
C           -1.94991088994928       -0.74484889634044        0.36520444826501
C           -1.83004868576724        0.44302870674616       -0.56671366670055
N           -2.38429315118093        1.65353941534790        0.03651833091115
C           -1.89599674961829        2.83880472157053       -0.62820673246354
C           -3.82725632084461        1.63992929219103        0.07267981509987
H            4.98290402488202        1.17323744489294        1.37674721063858
H            2.68579235440092        0.53733852830634        2.01430488298966
H            2.01685120256826       -0.96192503958893       -1.92502144836903
H            0.37744585484454       -1.02589996823496       -0.36880599345120
H           -1.62857829938298       -1.22564397050876        2.42263631694867
H           -2.98646689775436       -1.03413897037246        0.52292989331626
H           -2.33151688063549        0.21078151046417       -1.52384972780661
H           -0.78141131655453        0.64710991791275       -0.77663498639853
H           -2.28879852227475        3.72204282441006       -0.12143789951367
H           -2.19028004719846        2.88975364881526       -1.69263010216986
H           -0.80887165834074        2.86080687074645       -0.56814703183878
H           -4.27923513604549        1.60001747672921       -0.93576038344725
H           -4.16550631630865        0.77477317552821        0.63734430826838
H           -4.18272816352019        2.54061877756744        0.57621453718969
H            5.80905218171714        0.73671598697343       -0.91210102159283
H            4.30908076706241       -0.33642785536225       -2.56057202531397
S           -1.48289236955845       -2.31741020664755       -1.07973281510234
C           -0.84348516320344       -3.51317165211315        0.10114733541111
H           -1.56632561848978       -4.31388497002693        0.25199264099959
H           -0.67192779396703       -2.97012107837466        1.03900623099698
H            0.09415278787794       -3.92249193558312       -0.26851176541465