44
 
Cl          -5.78808623719122        2.00750403312077       -4.27025665437656
C           -4.63461077048192        1.11974125242493       -3.32113438723090
C           -3.44555793474013        0.71114681475780       -3.89920121110627
C           -2.53214434982247        0.01474683318586       -3.13382689161632
C           -2.78312958393511       -0.28788708618000       -1.79402297941010
C           -3.99337291233338        0.13591861204930       -1.24480889553362
C           -4.91773752413464        0.83335221662096       -1.99766255521420
C           -1.78813083118373       -1.03539414926722       -1.02024191883173
C           -1.71595519336598       -0.97242282679248        0.36045519660230
S           -0.26708017824772       -1.33761003398269        1.19619321327568
O           -0.48836870430000       -2.04418496926921        2.44040428201044
O            0.78843335307466       -1.84610381531823        0.34306149995672
N            0.24584232716792        0.24230470549675        1.72188738214324
C            0.57894528058143        1.05814512601947        0.56557418376979
C            1.68683968003039        2.05121678334049        0.88986122837848
N            2.89202364145778        1.33722485852279        1.26790180515898
C            2.68878764543490        0.09796174473045        1.99739594598149
C            1.32091595382879        0.14524503484339        2.67950286504576
C            4.09220773275747        1.82975144370521        0.89971239953152
O            4.21175294682487        2.92312350459929        0.36208074921814
C            5.27139069591091        0.96199193221895        1.17474480124296
C            6.46523180199843        1.48521062680064        1.40167089713692
H           -3.24065225097740        0.93701727829508       -4.93519877498554
H           -1.60876230598327       -0.31950171325644       -3.58167716941287
H           -4.21985074338455       -0.09591787228447       -0.21663432777995
H           -5.85331313202643        1.15349313225453       -1.56311206431090
H           -0.82809278081610       -1.15650266139078       -1.50579779045168
H           -2.54178335116977       -0.83823895216220        1.02811250884081
H           -0.32418222454738        1.58737028873890        0.24708468487517
H            0.90674559979126        0.40974282040039       -0.25847452325339
H            1.36855152768392        2.71787599397918        1.70056827342863
H            1.92718730237929        2.66448747309503        0.01790749565739
H            3.47451031079863       -0.02424873096853        2.74802211486003
H            2.69107168473978       -0.76113434654440        1.31441405759768
H            1.27492103507146        0.99388430307266        3.37384026949928
H            1.14613722494825       -0.77477782881661        3.23949749040514
H            5.11924571022686       -0.10609162863226        1.12888636561737
H            6.59273284882711        2.55510666378154        1.42604993703233
H            7.34207267598061        0.88125700827068        1.56777503210078
S           -2.52904820767333       -3.04285632222336       -1.74386223611593
C           -2.20015002494153       -3.93051768814867       -0.22652023883038
H           -1.47084277966955       -4.71661940545037       -0.40935433213822
H           -3.12452313641813       -4.35594083987354        0.16210276745543
H           -1.79017182213159       -3.20886961381047        0.49429532472806