29
 
O           -4.10267176247240       -0.18418042867602       -0.02154899184061
C           -2.75298011227232       -0.46226049399862       -0.32413687964076
H           -2.38773214868967       -1.32234751904836        0.24557245417848
C           -1.89433392090344        0.76649187390902        0.03398891793969
N           -0.52130593315962        0.52825531651602       -0.41135483782750
C            0.26230395304098       -0.50330415543443       -0.03250084392412
O           -0.09454169823032       -1.39961194020193        0.70209714934161
C            1.66751351107116       -0.42758501810733       -0.62616497692910
C            2.44357551847100       -1.70329204149057       -0.34394963707581
S            4.15138552808556       -1.63157621968971       -0.97135447235825
C            4.92121063190159       -0.62216137221170        0.32723984743734
C           -1.92450516455196        0.99294823791426        1.54642220174294
C           -2.42023111212987        1.99293757170581       -0.70602640437178
H           -4.60471495573506       -1.00137970317270       -0.09137642472963
H           -2.63534538347735       -0.67667759301878       -1.39747449190814
H           -0.11915097493266        1.24052444282617       -0.99913139261889
H            1.60325138078824       -0.26250146015069       -1.70368028863480
H            2.17643750910721        0.43121974576804       -0.18001844375180
H            1.97859230052823       -2.54944775348521       -0.84738994338777
H            2.47837532917063       -1.91074178133374        0.72480992484529
H            4.76293563837500       -1.09589680236304        1.29194249242853
H            5.98132359636303       -0.58177846390216        0.10172580509698
H            4.50617515395294        0.38175424889821        0.31946103521202
H           -1.47835166428853        0.14169379231030        2.05262599356690
H           -1.37123960890143        1.89173511065102        1.80770010994449
H           -2.95490484963775        1.09854057237412        1.87034891154756
H           -2.35387991016599        1.84693047822363       -1.78227733035946
H           -3.46254904252847        2.14194927409191       -0.44316289509936
H           -1.85464180877813        2.87976208109630       -0.42936343502565