63
 
C           -0.55864529041803        2.53804762791072       -4.05070277773868
N            0.74216777840069        2.41569916918476       -4.27240713350231
C            1.53088814211159        1.96554116779165       -3.29695315864116
N            2.84425880071118        1.84053198913081       -3.58079858462086
C            0.96608383260203        1.66692543349910       -2.03925156005045
C            1.32283150925504        1.16231167048914       -0.75394225907131
C            2.64016094300925        0.82911310240012       -0.23032283976449
C            2.79215074591249       -0.28190021962348        0.59709656186333
C            4.03161313522124       -0.63364110359439        1.08932808385270
C            5.15104809836822        0.12639200121259        0.75943401809144
O            6.40328284226326       -0.12923451706644        1.24552767807214
C            6.80104859146895       -1.41560229875167        1.50861684117914
C            6.41208870797680       -2.50286361594116        0.73347373225029
C            6.90651881004486       -3.76163577490485        1.02275727044464
C            7.79142980698910       -3.94592232589177        2.07119359287273
C            8.19202467742772       -2.85847735228010        2.82989975511133
C            7.70113168156202       -1.59667830389466        2.55398428241178
C            5.00142110056012        1.26192875819967       -0.03266973344123
C            3.75773666677889        1.61020667155402       -0.51953600462132
N            0.23827235451581        1.00025636155616       -0.02153816014296
N           -0.82173846468190        1.37884898949620       -0.75142649499670
C           -2.15817551798490        1.32568037447640       -0.22480514090795
C           -2.43596641293222       -0.07138307609548        0.33463297829445
N           -3.82564242927855       -0.17553709159309        0.73344766580431
C           -4.50112681116933       -1.30617551110680        0.41665551065107
O           -3.94327445635786       -2.26386426304425       -0.08120220310251
C           -5.98858733903634       -1.31814428252090        0.75649983884800
C           -6.69556164715383       -2.44996391890887        0.02205663454995
S           -7.22443320241532       -1.96398656229654       -1.65228763064591
C           -8.77326639257377       -1.10439830432480       -1.23682923998652
C           -4.41206064294204        0.99987481211571        1.34633725274604
C           -3.31686573933808        1.87134358405400        1.95315689230551
C           -2.35783623735967        2.38298345920330        0.87621088965145
C           -0.44330736177892        1.79458795017542       -1.97559992693384
N           -1.22931530932538        2.23750078462354       -2.96054361224138
H           -1.13994393100569        2.91544220554752       -4.88163413748533
H            3.11058433450554        1.96366327444779       -4.54284686385183
H            3.44487061083930        1.32180503144436       -2.96410505123848
H            1.92042319467883       -0.86535161365500        0.84816738795903
H            4.13645339646219       -1.49161931112056        1.73710565124589
H            5.73381248909617       -2.35940118468533       -0.09525596618487
H            6.59969014317537       -4.60234298690537        0.41830767370046
H            8.17121491930276       -4.93174873959613        2.29233352046088
H            8.88815663575948       -2.99316970994952        3.64423564890273
H            8.00375901086023       -0.73862590731922        3.13377754803350
H            5.87074966942743        1.86388689709483       -0.24735484657550
H            3.64698913955112        2.51314411823423       -1.10236105348550
H           -2.81982285830300        1.51885065476271       -1.07545803528883
H           -2.25761791184849       -0.83747094314520       -0.42409107342735
H           -1.76303665445024       -0.26273276681178        1.17744262964097
H           -6.43841448551597       -0.35925246779696        0.49682824505210
H           -6.08538792243300       -1.46300297663662        1.83681034205224
H           -7.58012319380258       -2.79493576753394        0.55570068208213
H           -6.00216388257217       -3.27878014840429       -0.12130667297908
H           -8.57310396092174       -0.26006704098642       -0.58280130642650
H           -9.45897269596512       -1.80069644793177       -0.76173312980379
H           -9.19348246459414       -0.75214421309028       -2.17250027368525
H           -5.10454307499031        0.69351591265371        2.13533019982617
H           -4.97203068395631        1.58291688872645        0.60128360156200
H           -3.77607161814310        2.71266211436874        2.47302124448289
H           -2.77217620115219        1.28271303176913        2.69196873761582
H           -2.74021692264788        3.30217956150375        0.43073075682864
H           -1.38995005181084        2.60343686070020        1.32891152241314