31
 
S           -0.29796619891968        1.58987909780675       -0.85610816107265
C           -0.24152251352725       -0.08969801909668       -0.35265158572180
N            0.89005569465947       -0.51302518838601        0.10347472738607
C            1.83679495199598        0.48780754767064        0.08805564276490
C            1.37884218390905        1.67864555264178       -0.39057690091405
C            3.17356020251025        0.18095254389768        0.56731076662970
C            4.20905422990753        1.11802177599500        0.54148196569676
C            5.46770185927081        0.79132477416186        1.00603241016437
C            5.72612744862400       -0.47480802662703        1.50681602323048
C            4.70760979487078       -1.41467326292545        1.53687352708140
C            3.44867179330199       -1.09239166748299        1.07344440642703
N           -1.35898085413281       -0.82058433431316       -0.46340121994629
C           -2.54399597437991       -0.24495163497077       -1.02482121091517
O           -2.45190212738244        0.96996115952567       -1.33809651358194
C           -3.59821116913352       -1.10136853417388       -1.19181188492460
C           -4.87931241177347       -0.65292783331282       -1.71488648179019
H            1.91943463240159        2.59773939341560       -0.49715823799029
H            4.02473095052053        2.10847364244491        0.15255040562239
H            6.25857500532655        1.53011640971521        0.97816345995646
H            6.71372806240165       -0.72597331193926        1.86994186912443
H            4.90190976151829       -2.40578763966571        1.92603373138225
H            2.64660735228325       -1.81376291903732        1.09003571362106
H           -1.33629402036748       -1.79428479636169       -0.20829112878022
H           -3.51302849690802       -2.12276916954613       -0.84851950001872
H           -4.79663301361315        0.32456163391788       -2.18558654614671
H           -5.37116496057966       -1.36663428368163       -2.37495415454948
S           -6.21684760824373       -0.40901001895663       -0.37402823055902
C           -5.30852862036322        0.75349563561162        0.66741218456136
H           -4.27876563893598        0.40612541257157        0.72615809603829
H           -5.34052817740444        1.74532928593546        0.22317791067076
H           -5.76972213784091        0.76021677516295        1.65063822936012