26
 
C           -3.85659506059262       -1.08345402074171        0.41092799695527
C           -2.50980282487027       -0.80347543143930        0.54661174415447
C           -1.90068890653636        0.11786004731013       -0.30216909736407
N           -0.54307293848618        0.44381330181171       -0.21726838848774
C            0.40526738791413       -0.03263036330424        0.64253941833106
O            0.20513294855317       -0.85523085558976        1.50448198096107
C            1.77154590301879        0.59034832018625        0.38097601044402
C            2.78048330287699        0.15060311230336        1.43034198568901
S            4.42578476968042        0.87834176886616        1.14930956486144
C            5.03298585200516       -0.21545180767432       -0.16728642514660
C           -2.65818106720222        0.75304712780970       -1.28603011702508
C           -4.00384173572586        0.47704746972614       -1.42631994648143
C           -4.58667815047750       -0.44156802505021       -0.57206858313331
F           -5.90222258309289       -0.71574130395900       -0.70462223114575
H           -4.34137812287963       -1.79393460848380        1.06109662267742
H           -1.92568924070582       -1.29361620784888        1.30671208012050
H           -0.23993285318194        1.13274444617951       -0.89251403711406
H            1.68587693272619        1.67962189200962        0.38893854520588
H            2.10255920297289        0.28254684754982       -0.61501802331299
H            2.88156311727380       -0.93374324273423        1.44926456529986
H            2.46994424260568        0.48873347515199        2.41773588944248
H            5.02122770481496       -1.24333273973024        0.18405765996781
H            4.42238013492448       -0.10640884834010       -1.05907384189801
H            6.05072779563240        0.09263805240330       -0.38108379855691
H           -2.18875065548047        1.46881904969380       -1.94609362253488
H           -4.59864515576707        0.96242254389438       -2.18348263648214