28
Properties=species:S:1:pos:R:3:charge:R:1:forces:R:3 energy=-25999.863540074464 pbc="F F F"
C       -0.43632056      -0.32709773       2.14197073      -0.02964097      -0.00263555      -0.00341407       0.00359349
N       -0.37163253       0.07278438       0.75952620      -0.09862895      -0.00156198       0.00264000       0.00584609
C       -1.51905446       0.39827639       0.08595427       0.04089539      -0.00010444      -0.00039857      -0.00103486
C       -1.52535903       0.55680306      -1.31842748      -0.07182947      -0.00177184       0.00362431      -0.00284814
C       -2.68725787       0.87342358      -1.99103671      -0.06717334      -0.00302962       0.00273146       0.00004247
C       -3.89304315       1.05963071      -1.31757199      -0.10279781      -0.00094525      -0.00454480       0.00109605
C       -3.89905536       0.91173751       0.06174398      -0.07091306      -0.00083027      -0.00262706       0.00073404
C       -2.74568311       0.58434228       0.75906948      -0.09130276       0.00035049       0.00195431      -0.00135180
C        0.91248391      -0.16201502       0.04431987       0.09530343      -0.00071212      -0.00581212      -0.00756822
O        1.32287878       0.75519196      -0.70074223      -0.36174485       0.00330514       0.00091233       0.00041161
C        1.51567811      -1.38116270       0.29800268      -0.20594040       0.00213334      -0.00172887      -0.00149482
C        2.84718400      -1.66652811      -0.20158537      -0.04781283      -0.00041777      -0.00183784       0.00140618
H       -0.86257079       0.46410811       2.76554849       0.02417664       0.00452536      -0.00064882      -0.00453571
H        0.57819523      -0.51577121       2.48388994       0.02608361      -0.00349685      -0.00242551      -0.00223413
H       -1.02148285      -1.24337936       2.31014281       0.01739518      -0.00031591       0.00295464       0.00011307
H       -0.59346417       0.44339119      -1.84473821       0.02119293       0.00156545       0.00410836       0.00020710
H       -2.64924910       0.97935962      -3.06983825       0.01266047       0.00092356       0.00294199      -0.00289333
H       -4.79915113       1.31179678      -1.85399702       0.01540039       0.00117016      -0.00175785       0.00452228
H       -4.82170875       1.05200970       0.61461068       0.01368869       0.00079173      -0.00343114       0.00272307
H       -2.80234641       0.47503066       1.83238272       0.01833353       0.00017426       0.00548141      -0.00268466
H        1.04486779      -2.11582879       0.94171021       0.01446215       0.00209225       0.00127355      -0.00110697
H        3.01101317      -2.70760532      -0.47066161       0.01387676      -0.00021206      -0.00002837       0.00514674
H        3.10932781      -1.02864366      -1.04206515       0.02134894      -0.00291162      -0.00391255       0.00196071
S        4.27664700      -1.40537200       1.06211343      -0.17495474       0.00166225       0.00210860      -0.00092664
C        4.03903650       0.37833635       1.30646792      -0.07631311       0.00037292       0.00323282      -0.00109908
H        4.25429481       0.93194975       0.39433812       0.02107113       0.00148565       0.00121485      -0.00118373
H        4.71019770       0.71086563       2.09963119       0.01827689      -0.00041086      -0.00075426       0.00546116
H        3.00509927       0.57256047       1.58120206       0.02488613      -0.00119647      -0.00185700      -0.00230205
