25
Properties=species:S:1:pos:R:3:charge:R:1:forces:R:3 energy=-27630.692407963976 pbc="F F F"
C        2.64204694      -1.02854497      -2.11347051      -0.05122242       0.00302308      -0.00277442       0.00062700
C        1.47438933      -0.21882559      -1.84422807      -0.21519202       0.00028836      -0.00033515      -0.00356977
C        0.62738979      -0.50499191      -0.77931810       0.09043675       0.00249831      -0.00547591       0.00153433
O        0.69840424      -1.47333018       0.01325920      -0.35854670      -0.00083513      -0.00283592       0.00786003
N       -0.43740741       0.45678690      -0.59906865      -0.12602234      -0.00134492       0.00525482       0.00224873
C       -1.49531350       0.44501148       0.25809881       0.04526389      -0.00458899       0.00288392      -0.00003880
C       -1.77882960      -0.61195670       1.15242049      -0.07659520       0.00519722       0.00193383       0.00401538
C       -2.88062606      -0.54038602       1.98242225      -0.06694345      -0.00085054      -0.00266656      -0.00171903
C       -3.74890050       0.55083116       1.98348655      -0.11398049       0.00062648      -0.00230701       0.00059319
C       -3.45158689       1.57461492       1.10319158       0.07574889      -0.00384706      -0.00038285       0.00196336
C       -2.37141540       1.55302631       0.25466246      -0.10184934      -0.00233409       0.00354899       0.00482159
F       -4.27218465       2.67235787       1.06941208      -0.14760779      -0.00151965      -0.00251443      -0.00636228
H        2.55404233      -2.01165123      -1.66065947       0.02130432      -0.00290334      -0.00514537      -0.00225570
H        2.89609204      -1.12771473      -3.16637038       0.01526272       0.00114377       0.00548385       0.00039574
H        1.34615005       0.69712311      -2.41404779       0.01104966      -0.00000323       0.00500394      -0.00449203
H       -0.40412629       1.24324207      -1.22555977       0.11360838      -0.00523860       0.00645378      -0.00070963
H       -1.10954735      -1.45396379       1.16089069       0.01912544       0.00257448      -0.00199225       0.00101251
H       -3.07606841      -1.36470293       2.65827002       0.01400410       0.00191778       0.00025762      -0.00205610
H       -4.61167992       0.60872203       2.63072908       0.02166450       0.00428991       0.00153370       0.00096131
H       -2.20208181       2.39380728      -0.40625973       0.02280840       0.00321865      -0.00166703      -0.00361577
S        4.33253710      -0.36589059      -1.42052971      -0.18162149       0.00225323      -0.00099347       0.00478311
C        3.88151677      -0.37784691       0.33992505      -0.07932927      -0.00058758      -0.00136180       0.00261245
H        4.71032190       0.04127340       0.91184398       0.01903302      -0.00488063      -0.00322916      -0.00052675
H        2.98437020       0.21533845       0.49902636       0.02713733       0.00342440      -0.00058337      -0.00699108
H        3.67932110      -1.38990964       0.68351557       0.02246310      -0.00152225       0.00191087      -0.00109147
