23
Properties=species:S:1:pos:R:3:charge:R:1:forces:R:3 energy=-14079.605076318132 pbc="F F F"
C       -4.10495111      -0.09719007      -0.65606675      -0.07514866       0.00026106      -0.00007714       0.00124041
C       -2.63020874      -0.11108201      -0.40210131      -0.00051950       0.00123502       0.00259131       0.00528586
C       -1.79058442      -0.98261421      -1.08847388      -0.04221832      -0.00191669      -0.00303365       0.00436855
C       -0.42456874      -0.97283060      -0.88168360      -0.05284427      -0.00035068       0.00131751       0.00065069
C        0.15286252      -0.08559771       0.02704466       0.04496853       0.00273533      -0.00147834      -0.00149830
C       -0.67534405       0.79055158       0.72828976      -0.04646782       0.00187757      -0.00444371       0.00164165
C       -2.04221100       0.76391360       0.50468503      -0.04451200       0.00189548       0.00306407       0.00396888
N        1.54839324      -0.12078029       0.16536725      -0.09869127       0.00069904       0.00109852      -0.00274407
C        2.34393191       0.53555485       1.06792489       0.17493717      -0.00264862      -0.00180170      -0.00032275
O        1.92133993       1.26776738       1.95333207      -0.30210009      -0.00278306      -0.00175399       0.00043667
C        3.80663973       0.29443970       0.93065505      -0.03033634      -0.00371166       0.00090777       0.00056722
C        4.45622300      -0.01714198      -0.18486934      -0.05969745      -0.00330585      -0.00011677       0.00502389
H       -4.66000705       0.20371577       0.23045298       0.03661855       0.00708406       0.00169083       0.00136635
H       -4.36029777       0.60648214      -1.45099004       0.03588941       0.00155746      -0.00088940      -0.00068256
H       -4.46250360      -1.07738742      -0.96540724       0.03635700      -0.00343657      -0.00050351      -0.00080344
H       -2.21354539      -1.68507066      -1.79506433       0.04057444       0.00133459      -0.00136591      -0.00736656
H        0.20152940      -1.66419051      -1.43257074       0.04319889       0.00746153       0.00221648       0.00219675
H       -0.24891931       1.47415795       1.44186083       0.03910187      -0.00734049      -0.00029178      -0.00470446
H       -2.66980696       1.44836619       1.06133744       0.03943654      -0.00190199       0.00417530      -0.00107705
H        2.00757965      -0.80943031      -0.40559741       0.13458617      -0.00402719      -0.00295992      -0.00182810
H        4.34646369       0.46281665       1.85369084       0.04195016       0.00184519       0.00116814      -0.00267509
H        5.52959107      -0.14823791      -0.19124009       0.04466046      -0.00071728      -0.00213129      -0.00440063
H        3.96201820      -0.11305442      -1.14417287       0.04025650       0.00415301       0.00261645       0.00135600
