32
Properties=species:S:1:pos:R:3:charge:R:1:forces:R:3 energy=-17287.383272827625 pbc="F F F"
C        4.38085197       0.70941103       0.35716067      -0.06780417      -0.00005453       0.00096677      -0.00247189
C        3.06130424       0.88557995       0.34653439       0.00063785       0.00004628       0.00241615      -0.00179930
C        2.43888330       2.24271795       0.48386742      -0.07492679      -0.00070236       0.00315555       0.00067008
C        2.19843780      -0.33494906       0.18682198       0.16495241      -0.00185524       0.00032963       0.00514499
O        2.67289666      -1.45630898       0.01988318      -0.31477377      -0.00426601       0.00054201      -0.00296155
N        0.86075110      -0.09416062       0.24283068      -0.11860690      -0.00025437      -0.00403502      -0.00144405
C       -0.21258248      -1.08699694       0.06297805       0.07589365      -0.00004759      -0.00210435       0.00052699
C       -0.05867400      -1.80105567      -1.28307811      -0.08471469       0.00407594       0.00184293      -0.00004698
C       -0.13772230      -2.11456737       1.18794124      -0.08300674      -0.00008362      -0.00050195       0.00052310
C       -1.51987218      -0.29630119       0.05811203       0.00005421       0.00198945       0.00220129       0.00233835
C       -2.60859675      -0.64516171       0.85061606      -0.04112814      -0.00105068       0.00010001      -0.00336187
C       -3.79018565       0.08285102       0.80326873      -0.03615608      -0.00091258      -0.00076411      -0.00281099
C       -3.90830074       1.17528200      -0.04068975      -0.03202767      -0.00235487      -0.00255253      -0.00101660
C       -2.83172295       1.53486519      -0.84041989      -0.03442798      -0.00353342      -0.00608470      -0.00172521
C       -1.65672788       0.80408711      -0.79205043      -0.04146226       0.00103001       0.00253281       0.00369825
H        4.79817896      -0.28055347       0.25201892       0.03697673      -0.00296046      -0.00204030      -0.00089106
H        5.05573249       1.54740932       0.46760266       0.03744105       0.00082767       0.00131471      -0.00009822
H        3.20863758       3.00967826       0.51376586       0.03996358       0.00499720      -0.00086502       0.00124128
H        1.77719349       2.47299278      -0.35332953       0.03532006      -0.00386407      -0.00220365       0.00081129
H        1.85639514       2.33479707       1.40317692       0.03831645      -0.00357760      -0.00297506       0.00071958
H        0.55397080       0.82768883       0.49926819       0.11913519       0.00488562      -0.00515688       0.00210627
H       -0.89581758      -2.47972307      -1.43267359       0.03111526       0.00670137      -0.00014556       0.00556606
H        0.86693890      -2.36504742      -1.30235739       0.02916428       0.00214239      -0.00129759      -0.00209581
H       -0.04495103      -1.08830392      -2.10377221       0.02926694       0.00258595      -0.00263407      -0.00491469
H       -0.89393368      -2.88599591       1.05757376       0.03379574       0.00093864       0.00020437      -0.00096672
H       -0.27717096      -1.64214548       2.15820628       0.03071656       0.00073237       0.00595518      -0.00306457
H        0.83801760      -2.58801069       1.17562429       0.03092017      -0.00080138      -0.00039877       0.00032147
H       -2.54374061      -1.49000770       1.51931646       0.03670724      -0.00395466       0.00529585      -0.00142179
H       -4.62113080      -0.21122251       1.43105792       0.04073642       0.00100921       0.00494043      -0.00143479
H       -4.83016762       1.73979360      -0.08020253       0.04127795       0.00103168       0.00406641       0.00491417
H       -2.91012481       2.38179629      -1.50979830       0.04115148      -0.00294311      -0.00153502       0.00424230
H       -0.83434974       1.08520585      -1.43810735       0.03549199       0.00022321      -0.00057031      -0.00029803
