29
Properties=species:S:1:pos:R:3:charge:R:1:forces:R:3 energy=-26016.202624990467 pbc="F F F"
C        4.03057119       1.50355980      -0.28604359      -0.04953137      -0.00484925       0.00708425       0.00231508
C        3.08470557       1.51627570      -1.30026868      -0.04129313      -0.00015104      -0.00296377      -0.00666716
C        1.89548016       0.81338101      -1.18544689      -0.04537778      -0.00216939      -0.00090571      -0.00104972
C        1.64369085       0.08153549      -0.02647547       0.04668454      -0.00514425       0.00522985       0.00125622
N        0.46546160      -0.64944196       0.18448701      -0.09189871      -0.00220107       0.00080335       0.00168800
C       -0.64707407      -0.75851148      -0.60094816       0.17987980       0.00037762      -0.00003781       0.00092020
O       -0.77716115      -0.22166222      -1.69265724      -0.28529960       0.00229740       0.00106111      -0.00278161
C       -1.77603614      -1.57924224       0.01147224      -0.01380375       0.00035404       0.00256196       0.00184196
C       -2.20379393      -2.67600838      -0.95516540      -0.06970859       0.00309689       0.00094594       0.00161919
C       -2.93573022      -0.63341818       0.31820254      -0.02496816      -0.00370181       0.00082426      -0.00048808
S       -2.59146260       0.65545142       1.57682788      -0.09531428       0.00034267       0.00121044       0.00102513
C       -2.03995177       2.06648798       0.56581139      -0.06529422      -0.00063036      -0.00090018      -0.00176259
C        2.59447052       0.06813826       0.99614324      -0.05030958       0.00094135      -0.00455174      -0.00035535
C        3.77696666       0.77260287       0.86560551      -0.03986170      -0.00063476       0.00162390       0.00216077
H        4.95307156       2.05724970      -0.38949536       0.04037938       0.00398511      -0.00360148       0.00137912
H        3.26939871       2.08233013      -2.20355051       0.03936053       0.00385355      -0.00012960      -0.00351937
H        1.16639128       0.82586595      -1.97720183       0.03548082      -0.00105104      -0.00413438      -0.00139866
H        0.38297603      -1.05636466       1.10087035       0.13282697       0.00259251      -0.00050743       0.00015623
H       -1.45040342      -2.03619842       0.95004211       0.03412066       0.00456560      -0.00320870      -0.00207537
H       -3.03492000      -3.24921369      -0.54516373       0.03320058       0.00334659       0.00163564       0.00034015
H       -2.50900614      -2.24498247      -1.90561600       0.03089816      -0.00505262      -0.00069761       0.00531464
H       -1.38357895      -3.36432332      -1.14993868       0.03191928       0.00379990       0.00257598      -0.00424670
H       -3.25735667      -0.15320716      -0.60227446       0.03513232      -0.00180922      -0.00033267      -0.00230996
H       -3.77746065      -1.19264724       0.71915933       0.03841622      -0.00196202       0.00016572      -0.00081199
H       -1.09081630       1.86482796       0.07877983       0.03399200      -0.00392426       0.00045057      -0.00106623
H       -1.91772873       2.90015572       1.25239593       0.04262930      -0.00140348       0.00014854       0.00425315
H       -2.78701330       2.32982270      -0.17903993       0.03781043       0.00477904      -0.00160610       0.00106000
H        2.40556057      -0.49937788       1.89966559       0.03918311      -0.00186871      -0.00126764       0.00072473
H        4.50219766       0.75008436       1.66820453       0.04074682       0.00222076      -0.00147666       0.00247827
