22
Properties=species:S:1:pos:R:3:charge:R:1:forces:R:3 energy=-14516.012463443478 pbc="F F F"
C        4.70391133      -0.59443783      -0.07319440      -0.05876978       0.00249147       0.00056196      -0.00068835
C        3.59352862       0.01478518       0.32244856      -0.04614601      -0.00147266      -0.00070384      -0.00047647
C        2.25613044      -0.42309189      -0.16022100       0.17328461      -0.00301515       0.00324366      -0.00406014
O        2.10400573      -1.35844779      -0.93652548      -0.30319870       0.00092297      -0.00237940      -0.00187995
N        1.22249625       0.32242697       0.34749843      -0.09769198      -0.00279032       0.00731404       0.00055148
C       -0.15824125       0.20507535       0.11980599       0.03714669      -0.00401102      -0.00609827       0.00609978
C       -1.00365113       1.11642836       0.75345074      -0.05279766       0.00067045      -0.00266827      -0.00184092
C       -2.37289549       1.05832770       0.58756957      -0.05776472       0.00114904      -0.00307581       0.00256710
C       -2.95326173       0.08427289      -0.22671425       0.03809379       0.00038643      -0.00118214       0.00005317
C       -2.10341984      -0.82822525      -0.85254472      -0.05824377      -0.00309484       0.00296081      -0.00344042
C       -0.73124705      -0.77425480      -0.69273103      -0.04635540      -0.00401525      -0.00682001       0.00386199
N       -4.33751101      -0.01857834      -0.34687754      -0.19509971       0.00217643       0.00173719      -0.00000711
H        4.64722176      -1.42813211      -0.75984376       0.03932516       0.00063973      -0.00371635      -0.00283995
H        5.68103467      -0.28303523       0.27069316       0.04038655       0.00687777       0.00394802       0.00601352
H        3.65042713       0.85094782       1.01143984       0.04037882       0.00087302       0.00061556       0.00068004
H        1.48159710       1.06323071       0.97624562       0.13580957       0.00446216       0.00628265      -0.00105682
H       -0.58720680       1.88718603       1.39097307       0.04218519       0.00137684      -0.00642771      -0.00060982
H       -3.00365422       1.77205587       1.10252368       0.04081245       0.00193378       0.00002816      -0.00555047
H       -2.52494430      -1.60587491      -1.47761953       0.03961225      -0.00494176       0.00303829      -0.00126785
H       -0.09815254      -1.48824179      -1.19120579       0.03819018      -0.00059744       0.00156120       0.00349358
H       -4.82722367       0.85053393      -0.21228076       0.12545197      -0.00054365       0.00078374       0.00093535
H       -4.64459964      -0.46982737      -1.19281498       0.12539053       0.00052166       0.00099582      -0.00053762
