59
Properties=species:S:1:pos:R:3:charge:R:1:forces:R:3 energy=-63450.90952537531 pbc="F F F"
F       -2.29496588       2.94491286       1.68222978      -0.10907140       0.00136979      -0.00269627      -0.00400824
C       -3.60888731       3.21740878       1.45648388       0.07835960       0.00107998       0.00541530       0.00300767
C       -4.17160316       4.35955993       1.99040838       0.01820631       0.00113126       0.00538345      -0.00068867
C       -5.50873118       4.65332586       1.76174822      -0.06343855       0.00163912       0.00094660       0.00242419
C       -6.25155910       3.77118262       0.99014542      -0.05823968       0.00227469       0.00324188       0.00091764
C       -5.70012510       2.62081869       0.45276790      -0.05366921      -0.00186978      -0.00025199       0.00339559
C       -4.35267788       2.31525768       0.68012279       0.04116160       0.00070748       0.00363503       0.00449604
N       -3.68726971       1.19823579       0.20467186      -0.09637775       0.00214549       0.00097126      -0.00212895
C       -4.12347074       0.12441958      -0.53956435       0.12143697      -0.00212733      -0.00548886       0.00014852
N       -5.38705729       0.08933694      -0.95476048      -0.22203885      -0.00447950       0.00213325      -0.00145293
C       -5.75586212      -0.97184248      -1.68648603       0.05721705      -0.00215789      -0.00229568       0.00106294
N       -5.01865497      -1.99713788      -2.05219287      -0.23675567       0.00508049       0.00345815      -0.00202660
C       -3.71643976      -1.97893245      -1.63130031       0.04013105       0.00322055      -0.00486796       0.00021048
C       -3.19662142      -0.91537742      -0.84041377      -0.03948284       0.00244669      -0.00534577      -0.00343470
C       -1.84893341      -0.97473776      -0.42922529      -0.07822586       0.00025573      -0.00305014       0.00427143
C       -1.03161459      -2.02240916      -0.79040558       0.04045790       0.00051952       0.00254614      -0.00513458
C       -1.55882116      -3.07879028      -1.58845064       0.05176195      -0.00301765       0.00086311       0.00059476
C       -2.87503298      -3.04106037      -1.99075906      -0.08208057       0.00155781      -0.00120231      -0.00007855
O       -0.68612228      -4.06936497      -1.89205664      -0.14791918      -0.00670935       0.00290237      -0.00217534
C       -1.17450001      -5.13696568      -2.68029732       0.01568940      -0.00171738       0.00093144      -0.00070909
O        0.26799583      -2.16725252      -0.45939762      -0.13708617      -0.00099693      -0.00213498      -0.00223235
C        0.89977927      -1.22604317       0.43251706       0.08415876       0.00107853      -0.00082457      -0.00009343
C        1.33830291       0.01737996      -0.33785632      -0.04350197      -0.00196769      -0.00081967      -0.00150590
C        2.59486794       0.63119558       0.25852915       0.00682872      -0.00345858      -0.00087019      -0.00041965
N        3.70395158      -0.29988885       0.22260617      -0.10625386      -0.00171320      -0.00010531       0.00475419
C        3.34906068      -1.70529954       0.21821276      -0.00423037       0.00590551       0.00071052      -0.00463400
C        2.09397341      -1.94148407       1.04852788      -0.04664518       0.00617172       0.00043168      -0.00212447
C        4.98729348       0.06708485       0.70974694       0.09804797      -0.00369754      -0.00199627       0.00783062
O        5.85670830      -0.83423841       0.79545833      -0.35441768      -0.00054969      -0.00081543       0.00535813
C        5.21527026       1.42996365       1.05480902      -0.18287730      -0.00065519       0.00064459      -0.00236403
C        6.50663626       1.87172427       1.48814952      -0.04190516       0.00509895       0.00290768      -0.00410422
Cl      -3.18518669       5.43338035       2.95865208      -0.10842273      -0.00303654      -0.00533636      -0.00704719
H       -5.94414120       5.54792191       2.17978825       0.03239728       0.00102388      -0.00120136      -0.00026032
H       -7.29457168       3.98938583       0.80296984       0.02960975       0.00161117      -0.00009764       0.00213215
H       -6.28681695       1.94293674      -0.14331498       0.02766615      -0.00097378      -0.00299222      -0.00198227
H       -2.71773506       1.16837779       0.46132093       0.11853014       0.00320449       0.00201848       0.00042439
H       -6.79207188      -0.97543974      -2.01188019       0.02596946      -0.00286896      -0.00039510      -0.00305242
H       -1.41874019      -0.20241505       0.19060158       0.04008120      -0.00281380      -0.00006058       0.00352303
H       -3.30990356      -3.82253078      -2.59445760       0.03204165       0.00463661      -0.00011305       0.00338617
H       -1.99300880      -5.66294776      -2.18240649       0.02810612      -0.00041474      -0.00111057      -0.00191149
H       -0.33954513      -5.81637072      -2.81428629       0.03139364      -0.00338402      -0.00204562      -0.00079438
H       -1.51973969      -4.79109666      -3.65775404       0.02815064      -0.00028739       0.00182167      -0.00033875
H        0.18747314      -0.95946742       1.21783230       0.02885505       0.00256304       0.00210346       0.00461105
H        0.54331260       0.76372525      -0.35593163       0.03607739      -0.00053754       0.00107847       0.00374282
H        1.52877728      -0.26576339      -1.37292527       0.02624144      -0.00102568       0.00025469      -0.00176160
H        2.85730821       1.52398715      -0.30675189       0.02837680      -0.00225089      -0.00291476      -0.00081363
H        2.38622529       0.96672847       1.28674741       0.01768291       0.00199244      -0.00038913       0.00005279
H        3.17613430      -2.06052314      -0.80690334       0.02180334       0.00318204      -0.00412519      -0.00487882
H        4.21091252      -2.23763723       0.60609061       0.02736081       0.00120131      -0.00161115       0.00548646
H        2.27056634      -1.55736744       2.05522547       0.02660031       0.00019700       0.00558610      -0.00008650
H        1.86181204      -3.00202742       1.13275702       0.03166854       0.00154734      -0.00039835      -0.00168986
H        4.46602419       2.19397457       0.87799565       0.02343716       0.00013858       0.00534303       0.00164109
H        7.14224259       1.06989084       1.84428013       0.03107225      -0.00168248      -0.00395850       0.00056075
H        6.51109258       2.71077625       2.17509666       0.02764275      -0.00461796       0.00325945       0.00123823
S        7.63566188       2.71237815       0.06899546      -0.17335273       0.00319149      -0.00127236       0.00251444
C        7.77200274       1.29461493      -1.05358014      -0.08187599      -0.00070684       0.00000741      -0.00079017
H        8.21004248       1.64390323      -1.98904204       0.03149118      -0.00103168      -0.00240946      -0.00127793
H        6.78798161       0.87430606      -1.25067067       0.03244270      -0.00257214       0.00616273      -0.00143168
H        8.40368901       0.51209422      -0.63585137       0.02971270      -0.00285072      -0.00156154      -0.00035351
