41
Properties=species:S:1:pos:R:3:charge:R:1:forces:R:3 energy=-25922.551686176157 pbc="F F F"
N        3.81595159       0.43463445       0.50069533      -0.08104213      -0.00207894      -0.00029262       0.00129379
C        3.43826942       1.38790137       1.53383752       0.01343460       0.00291461       0.00243880      -0.00170948
C        2.20186823       0.90141437       2.27115885      -0.04058050       0.00597360       0.00052898       0.00058762
C        1.13062798       0.54947350       1.28966180      -0.02475578       0.00074853       0.00062605       0.00277456
C        1.43110190       0.22792998      -0.03276305       0.07098386      -0.00028393       0.00397732       0.00216104
N        0.50128520      -0.09604748      -0.92178158      -0.20449337       0.00089689       0.00576250      -0.00112833
C       -0.77825297      -0.09492865      -0.49366150       0.15867348       0.00018250      -0.00538741      -0.00457217
N       -1.18427984       0.21442736       0.75150993      -0.19590074      -0.00051058       0.00254724      -0.00663771
C       -0.22144020       0.52754793       1.60820427       0.04687271      -0.00274219      -0.00015024      -0.00242031
N       -1.69660408      -0.44175252      -1.42213811      -0.11581565      -0.00488039       0.00682810      -0.00367465
C       -3.14037077      -0.38021611      -1.29647741       0.04397001      -0.00539414       0.00038509       0.00050249
C       -3.70226124      -1.32799126      -0.24463983      -0.05412230      -0.00058242      -0.00539663       0.00232235
C       -5.22687755      -1.37522964      -0.38882489       0.03637957      -0.00150423      -0.00000813       0.00056390
O       -5.77822484      -0.18548464      -0.95147520      -0.19446138       0.00385920       0.00087645      -0.00296525
C       -5.09230790       0.96626566      -0.48094490       0.03379463       0.00198592       0.00149083      -0.00004774
C       -3.67091594       1.03457738      -1.03472071      -0.05855298      -0.00186839       0.00150776      -0.00052430
C        2.83868161       0.25775820      -0.55510468       0.00925839       0.00085644      -0.00186965       0.00080855
C        4.80400722      -0.47711781       0.76685149       0.16626635      -0.00070249       0.00230082       0.00096022
O        5.29162366      -0.61800287       1.88598606      -0.31695014      -0.00405640      -0.00104023      -0.00138964
C        5.31116382      -1.30559488      -0.35842601      -0.03103183      -0.00437979      -0.00356863       0.00324546
C        5.60428526      -0.85387294      -1.57200464      -0.05534609      -0.00295818       0.00070528       0.00341136
H        3.23431083       2.35007324       1.05935348       0.03569556       0.00044113       0.00183629      -0.00009288
H        4.28129649       1.50196734       2.20676705       0.04036999      -0.00172075       0.00503264       0.00251773
H        1.84854759       1.66966519       2.95892237       0.04341709       0.00474751      -0.00056883      -0.00089591
H        2.47041557       0.03217429       2.87536619       0.03764020      -0.00011146      -0.00281208       0.00086608
H       -0.54381845       0.78210232       2.61361171       0.04201414      -0.00167769      -0.00304089      -0.00017216
H       -1.31624598      -0.63929586      -2.33068602       0.12411235      -0.00293936      -0.00050720       0.00033612
H       -3.51159595      -0.71056608      -2.26759640       0.03154597      -0.00169307       0.00007018      -0.00109328
H       -3.27855470      -2.32205565      -0.37453586       0.03384330       0.00661568      -0.00498218      -0.00106931
H       -3.41278801      -0.98092529       0.74406180       0.02739154       0.00276989       0.00010166       0.00116439
H       -5.53224679      -2.17666381      -1.06048335       0.02871021       0.00017906      -0.00185551       0.00065738
H       -5.68616633      -1.56479464       0.58738771       0.02746763       0.00498509      -0.00144573       0.00254038
H       -5.68504432       1.82263653      -0.79333403       0.03270760       0.00096719       0.00078089       0.00293288
H       -5.06615012       0.96294648       0.61626991       0.02447977       0.00113027       0.00185620      -0.00181678
H       -3.02400724       1.52644686      -0.31102386       0.03197522      -0.00049907      -0.00197829       0.00046562
H       -3.63085378       1.61335264      -1.95783142       0.03373232      -0.00301540       0.00194387       0.00070008
H        3.02185569      -0.66538808      -1.09534518       0.03925478       0.00429930      -0.00193615      -0.00039963
H        2.91748926       1.06335038      -1.28936038       0.03790327       0.00356736      -0.00248960       0.00185713
H        5.55664788      -2.31691293      -0.05824715       0.04167447      -0.00039942      -0.00541433       0.00238895
H        5.37925087       0.16113872      -1.87355657       0.03823948       0.00001823      -0.00020359      -0.00500246
H        6.09058641      -1.47679501      -2.30953229       0.04124437      -0.00314005       0.00335085       0.00055374
