46
Properties=species:S:1:pos:R:3:charge:R:1:forces:R:3 energy=-37843.132116285036 pbc="F F F"
N        2.95996706      -2.22137305       0.03648353      -0.12218727      -0.00096763       0.00045317      -0.00010545
C        2.73629431      -2.27060730       1.46145008       0.00164221       0.00234455      -0.00074123      -0.00134565
C        2.02093907      -1.02182589       1.97150010      -0.05234209      -0.00089242      -0.00133386      -0.00137252
C        0.79458599      -0.77874618       1.14682834      -0.04230562      -0.00438403      -0.00461372      -0.00012795
C        0.64695692      -1.35070415      -0.12313702       0.05191818      -0.00100388       0.00033482      -0.00138311
N       -0.46615992      -1.17523879      -0.83544354      -0.23574454       0.00210264      -0.00283005       0.00595364
C       -1.43290590      -0.42517665      -0.28766245       0.13981085       0.00263290      -0.00144853      -0.00100863
N       -1.39311694       0.18892187       0.90265100      -0.23540537      -0.00290709      -0.00529622      -0.00353529
C       -0.26574510      -0.01448646       1.59354637       0.01370732      -0.00082740      -0.00093967      -0.00322856
N       -2.56813283      -0.31469002      -1.03657534      -0.13551858       0.00272425      -0.00370160       0.00367871
C       -3.68859899       0.53015980      -0.70631221       0.04348988      -0.00072944      -0.00050126      -0.00328156
C       -3.69756811       1.84555721      -1.49347904      -0.05310192      -0.00010161       0.00202376      -0.00096721
C       -5.10025151       2.46156848      -1.49921476       0.03500535       0.00001336      -0.00071618      -0.00227750
O       -5.86394859       2.04442588      -0.37460423      -0.19784606       0.00471513       0.00528898       0.00452084
C       -6.18022721       0.65499574      -0.45071756       0.03490351      -0.00335440       0.00613557       0.00229028
C       -5.00309384      -0.20420034      -0.92979233      -0.05104247      -0.00459967       0.00194667      -0.00093870
C        1.72179149      -2.23406657      -0.70495609      -0.00729424      -0.00325682      -0.00056013      -0.00167908
C        3.96621574      -1.31665310      -0.49808181       0.08398719       0.00472574      -0.00054057       0.00331342
O        3.84861930      -1.02761487      -1.71710103      -0.35245323      -0.00372534       0.00069870       0.00117778
C        5.00057993      -0.87238019       0.33888433      -0.20853464       0.00587881       0.00146190       0.00344187
C        6.00416127       0.03647186      -0.15416457      -0.04464729      -0.00476748       0.00175590       0.00137372
H        3.67555399      -2.42767528       1.97962561       0.02573964      -0.00080247       0.00464272       0.00300843
H        2.11809512      -3.15043138       1.67453414       0.02216894       0.00892097       0.00045449       0.00107896
H        2.69737006      -0.16738313       1.90059682       0.02825569       0.00251525      -0.00139390      -0.00446973
H        1.75238227      -1.13282402       3.02462286       0.02757779      -0.00108198      -0.00156197      -0.00088673
H       -0.20959004       0.46705016       2.56665766       0.02110409      -0.00284278      -0.00587880      -0.00164298
H       -2.46124265      -0.65437455      -1.97819666       0.10690890       0.00188436      -0.00060816       0.00054759
H       -3.59051154       0.75813579       0.35291792       0.02026746      -0.00804685      -0.00155436      -0.00400689
H       -3.37864833       1.65139710      -2.52137913       0.02251252      -0.00027387      -0.00264767       0.00168434
H       -2.96547898       2.52657166      -1.06123573       0.02408119       0.00039005       0.00102641      -0.00004210
H       -5.63415098       2.19696351      -2.42323511       0.01254295       0.00078762       0.00604692      -0.00662287
H       -5.05675732       3.54771854      -1.45177410       0.01752837       0.00341050      -0.00598066       0.00378738
H       -7.04714207       0.50859346      -1.10798435       0.01307252      -0.00600951      -0.00113605       0.00251952
H       -6.47712026       0.37296853       0.55772118       0.01588644       0.00236854       0.00452619       0.00177093
H       -5.10819851      -0.44042294      -1.99328072       0.02183374      -0.00359076       0.00115938      -0.00017760
H       -4.97533951      -1.15129530      -0.39125343       0.02433147      -0.00390440      -0.00027638      -0.00045883
H        1.31911029      -3.25448405      -0.75957557       0.01634214       0.00351340      -0.00120516      -0.00271813
H        1.96429037      -1.91937905      -1.71904393       0.02397130       0.00189591      -0.00318513       0.00273712
H        5.02488811      -1.10533814       1.39703019       0.02193740      -0.00098924       0.00534778       0.00233902
H        6.05821297       0.05498194      -1.23813990       0.02569486      -0.00140067       0.00191609      -0.00272587
H        6.99622382      -0.08155477       0.27503461       0.02114735       0.00035132      -0.00128335      -0.00062403
S        5.72316761       1.93409795       0.31473924      -0.17856352       0.00325787       0.00205108      -0.00582677
C        4.12229877       2.18548551      -0.50360648      -0.07957964      -0.00255185       0.00369811      -0.00036956
H        3.46084036       1.35163532      -0.27444110       0.02834456       0.00716797       0.00416613       0.00128675
H        4.23473424       2.24585927      -1.58461117       0.02541710       0.00124454      -0.00291089       0.00875067
H        3.68276930       3.10913248      -0.12831247       0.02543557       0.00016654      -0.00228979      -0.00343811
