37
Properties=species:S:1:pos:R:3:charge:R:1:forces:R:3 energy=-22448.315160440834 pbc="F F F"
N        1.88712177       0.09040037       0.05321995      -0.14183429      -0.00460732       0.00265645      -0.00466377
C        1.47703420       0.18785117      -1.35594750       0.06605811      -0.00077991       0.00339286      -0.00235623
C        0.27550568       1.17525862      -1.37428510       0.05959220       0.00369777       0.00096040      -0.00334073
O       -0.23270345       1.20305050      -2.70163638      -0.22123873      -0.00041764      -0.00329505      -0.00031570
C       -0.79789269       0.84687961      -0.36697518       0.00013092       0.00246978       0.00191444      -0.00263225
C       -1.78750472      -0.07404031      -0.66749942      -0.04989928       0.00196616       0.00076471       0.00296136
C       -2.74450908      -0.42417289       0.28451344       0.07977684      -0.00049016      -0.00248768      -0.00196745
C       -2.72167121       0.17285867       1.54350041      -0.05878640       0.00187751      -0.00130363      -0.00407172
C       -1.75206846       1.12596406       1.82539964      -0.03560118       0.00007147       0.00024446       0.00104716
C       -0.79969313       1.47035014       0.88259750      -0.04633942      -0.00478434       0.00514986      -0.00512972
O       -3.65204799      -1.35262676      -0.11286049      -0.14075793      -0.00465484      -0.00049114       0.00380901
C       -4.65244088      -1.74408197       0.81333149       0.02259786      -0.00425663       0.00107133       0.00247582
C        2.59680165       0.79919774      -2.19392364      -0.08698618      -0.00344205      -0.00159562       0.00276903
C        1.10148274      -1.19125165      -1.89340468      -0.08956677       0.00283427       0.00371902      -0.00088336
C        2.97585174      -0.59772866       0.50174453       0.17559111      -0.00032229       0.00276549      -0.00858409
O        3.76519558      -1.20239095      -0.22089526      -0.31731951       0.00868573      -0.00009090       0.00335416
C        3.18802307      -0.58147054       1.97278609      -0.02775292      -0.00132335      -0.00057760      -0.00565678
C        2.63365137       0.24825787       2.84946830      -0.05977724      -0.00356446      -0.00221348      -0.00011006
H        1.12409551       0.17935324       0.71150051       0.11413056      -0.00184002      -0.00223353       0.00294549
H        0.68559471       2.15913528      -1.11523705       0.02652195       0.00051930       0.00192432       0.00277361
H       -1.07727500       1.66599722      -2.66763467       0.15814340      -0.00130193      -0.00471561       0.00043446
H       -1.83671088      -0.54187535      -1.64021989       0.04060118       0.00545009       0.00367257       0.00590484
H       -3.44921102      -0.08412408       2.29773715       0.04071436       0.00178947      -0.00005555      -0.00795466
H       -1.75580057       1.60727649       2.79389813       0.04287359       0.00449665       0.00788526       0.00194575
H       -0.07535823       2.24466077       1.10094761       0.04118880       0.00414269      -0.00489328       0.00177600
H       -5.27549013      -0.89759359       1.10738764       0.03593754      -0.00339288       0.00021577       0.00507220
H       -5.26536394      -2.47653176       0.29951147       0.04208333       0.00592974      -0.00517970       0.00290615
H       -4.21514172      -2.19931197       1.70387757       0.03599547      -0.00636087      -0.00270456      -0.00287722
H        2.91434044       1.75254263      -1.77310152       0.02787834      -0.00042588      -0.00535539      -0.00360161
H        3.45221370       0.13451507      -2.22259397       0.02937365      -0.00069210       0.00743177       0.00128706
H        2.24053237       0.97060303      -3.20696634       0.03071165       0.00024541      -0.00567706       0.00473464
H        1.98594813      -1.81843455      -1.91720373       0.03105299      -0.00007784      -0.00034052       0.00339224
H        0.69919948      -1.10378801      -2.89767155       0.02856623      -0.00197269       0.00289643       0.00111820
H        0.35882207      -1.67622271      -1.26416676       0.02656591       0.00555765       0.00335009      -0.00004114
H        3.91212256      -1.31722109       2.29597390       0.03971282       0.00078586      -0.00730070      -0.00185283
H        1.94826330       1.03061382       2.55490330       0.03658533      -0.00214879       0.00678634      -0.00131895
H        2.86530446       0.19029424       3.90352534       0.04347573      -0.00366366      -0.00629033       0.00665112
