31
Properties=species:S:1:pos:R:3:charge:R:1:forces:R:3 energy=-31590.77404636872 pbc="F F F"
N        1.41343868       0.46252049      -0.79273421      -0.11851057       0.00186037      -0.00187217       0.00190510
C        0.23745887      -0.03653578      -0.38812154       0.10222016       0.00114573      -0.00145946      -0.00447694
O        0.12788459      -1.31657570       0.04277205      -0.08459792       0.00037621       0.00290992       0.00044577
N       -1.21809877      -1.57097170       0.38432864      -0.18134224       0.00003822       0.00340384      -0.00281793
C       -1.86215030      -0.43541544       0.14791578       0.01676078       0.00205962       0.00287083      -0.00503216
C       -1.00099672       0.56682504      -0.33437160      -0.12498754       0.00293348       0.00291450      -0.00250098
C       -3.30084423      -0.35385054       0.38669708      -0.00505663       0.00406884       0.00151905       0.00467352
C       -4.00698630      -1.46952884       0.85357942      -0.04224036       0.00192000      -0.00279936      -0.00674996
C       -5.36911129      -1.40758444       1.07413232      -0.05952859       0.00083707      -0.00049896       0.00187345
C       -6.06899125      -0.22778041       0.83733864      -0.06893184       0.00164248       0.00234634       0.00631130
C       -5.38234681       0.88877857       0.37826805      -0.05643541       0.00052208      -0.00128365      -0.00684402
C       -4.01644299       0.82624707       0.15573070      -0.04914181       0.00199466      -0.00057558       0.00001803
C        2.74926795      -0.14411006      -0.86379161       0.10266913      -0.00176409       0.00306273      -0.00511877
O        2.89964632      -1.27691562      -0.38033322      -0.34825015      -0.00034009       0.00900827      -0.00044430
C        3.68835320       0.67876534      -1.48515886      -0.20772646       0.00112295      -0.00069680       0.00198016
C        5.07096588       0.27373284      -1.59179196      -0.04628313      -0.00227782      -0.00083733       0.00100406
H        1.34190373       1.39979126      -1.14619342       0.12732548      -0.00173998      -0.00570068       0.00161777
H       -1.23818033       1.57968599      -0.60225857       0.03890314       0.00162303       0.00172340      -0.00420678
H       -3.45932958      -2.38316929       1.03487327       0.02152661       0.00375528      -0.00201952       0.00268167
H       -5.89283471      -2.28501292       1.43360191       0.02026174      -0.00558049      -0.00082884       0.00124906
H       -7.13684292      -0.18026072       1.01030178       0.02157114      -0.00183399      -0.00186812       0.00126067
H       -5.91281842       1.81397566       0.19004276       0.02056421      -0.00110196      -0.00022063       0.00242706
H       -3.49473731       1.70304654      -0.20257008       0.02267463       0.00308318      -0.00237191       0.00070234
H        3.43912238       1.69660278      -1.77357984       0.01698148      -0.00019864      -0.00535257       0.00484075
H        5.58884887       0.62920833      -2.47897285       0.02211825      -0.00358305      -0.00002088       0.00278244
H        5.18961274      -0.80156395      -1.49753200       0.02672636      -0.00684065       0.00038085      -0.00623068
S        6.25742323       0.98132539      -0.21622304      -0.16923390      -0.00020254      -0.00180237      -0.00566700
C        5.45880063       0.20709364       1.21930037      -0.07938497      -0.00342104      -0.00288854       0.00574560
H        4.40147638       0.45828319       1.24244002       0.03005455      -0.00156531       0.00717589       0.00501194
H        5.54783493      -0.87650197       1.18170083       0.02605560       0.00116044      -0.00405985       0.00324353
H        5.94436797       0.57746188       2.12205952       0.02523823       0.00030658      -0.00015845       0.00031505
