31
Properties=species:S:1:pos:R:3:charge:R:1:forces:R:3 energy=-31591.082368125197 pbc="F F F"
N       -1.51617531       1.03004026       1.24620295      -0.11661427      -0.00075996       0.00096131      -0.00141356
C       -0.26655338       0.55408797       1.25813335       0.09619880      -0.00476120      -0.00722223       0.00032151
O        0.31400139       0.46967360       2.48768240      -0.09563642      -0.00416931       0.00048404      -0.00339016
N        1.62313965      -0.04639900       2.33525213      -0.18382064       0.00787789      -0.00000546       0.00333937
C        1.76113340      -0.24026440       1.02789142       0.01732776       0.00095087       0.00191131       0.00316502
C        0.60622980       0.11198784       0.29982309      -0.10377260       0.00421921       0.00622300       0.00255349
C        3.02185835      -0.75755815       0.50219055      -0.00774830      -0.00565763       0.00158069       0.00049654
C        4.07610835      -1.08820803       1.36245416      -0.04355478      -0.00415898       0.00136531      -0.00460056
C        5.27154873      -1.57003714       0.86390984      -0.06040231      -0.00057432       0.00173101       0.00206338
C        5.44935154      -1.73455248      -0.50628993      -0.07049718      -0.00590673      -0.00286365       0.00094971
C        4.41134181      -1.41123798      -1.37092148      -0.05750312      -0.00281285       0.00304983      -0.00212428
C        3.21195720      -0.92960962      -0.87290498      -0.04924502      -0.00001235       0.00247883       0.00274979
C       -2.31560335       1.27007225       0.05255783       0.09742480       0.00347268      -0.00002810       0.00530006
O       -1.82657155       0.89157440      -1.03565927      -0.34364641      -0.00165123       0.00327604       0.00369370
C       -3.53149253       1.89328760       0.30179732      -0.21151800       0.00347752      -0.00032435      -0.00126112
C       -4.46734217       2.17027785      -0.77081251      -0.04871505       0.00676542       0.00250111       0.00301701
H       -1.86972596       1.32899945       2.13962344       0.13048913      -0.00161777       0.00345882      -0.00306964
H        0.38254871       0.07508024      -0.74863323       0.04398467      -0.00030084       0.00162328       0.00718357
H        3.93539834      -0.95702277       2.42588147       0.02180035       0.00005800      -0.00010772      -0.00687312
H        6.07415985      -1.81929411       1.54731761       0.02021873       0.00539669      -0.00281062       0.00176845
H        6.38773344      -2.11145714      -0.89367608       0.02161835      -0.00445701       0.00181712      -0.00017662
H        4.53620936      -1.53295623      -2.43933995       0.02054791       0.00199988      -0.00477913      -0.00417165
H        2.40916123      -0.67832313      -1.55190177       0.02384068       0.00737201      -0.00491783       0.00047376
H       -3.86502388       2.07408800       1.32000003       0.01743017       0.00214632      -0.00308063      -0.00288609
H       -5.04457554       3.08328432      -0.64328056       0.02205712      -0.00417115      -0.00334582      -0.00331863
H       -3.97776187       2.17766824      -1.74088983       0.02664611       0.00267020       0.00123529       0.00091575
S       -5.89927279       0.89311024      -0.98424387      -0.16932862      -0.00566363      -0.00708815       0.00010819
C       -4.87627255      -0.56752799      -1.33517053      -0.07891113      -0.00357969       0.00478135       0.00221612
H       -4.32652440      -0.44908086      -2.26655905       0.02634639      -0.00350379      -0.00228238       0.00229939
H       -4.15835212      -0.71928594      -0.53326720       0.02988867       0.00514455      -0.00068015      -0.00463776
H       -5.53493568      -1.43285409      -1.40978878       0.02509422       0.00220690       0.00105847      -0.00469224
