32
Properties=species:S:1:pos:R:3:charge:R:1:forces:R:3 energy=-40395.68501048716 pbc="F F F"
C       -1.98751075      -1.46225917      -1.83816626      -0.07554279       0.00148058      -0.00058616       0.00168967
S       -0.51884552      -1.24698920      -2.74097913       0.05731413       0.00727718       0.00225815      -0.00225453
C        0.09786003      -0.36822877      -1.35008972       0.09594598       0.00228271      -0.00719779      -0.00108024
N        1.36638745       0.17078695      -1.31848718      -0.09210062       0.00098352      -0.00200824       0.00257761
C        2.26449105       0.06632108      -2.34045628       0.17699683      -0.00211590      -0.00069169       0.00027871
O        2.00649914      -0.56164318      -3.36053432      -0.27589381       0.00000611      -0.00240323      -0.00440459
C        3.59041094       0.75786231      -2.11600987      -0.03490474      -0.00223114       0.00121767      -0.00306536
C        4.36495873       0.25433071      -0.90232977      -0.02392224       0.00023628       0.00076488      -0.00048819
S        3.74485306       0.78198329       0.73293575      -0.05574952      -0.00149723      -0.00176997       0.00446165
C        4.11671239       2.55630406       0.66329703      -0.06178567      -0.00218905      -0.00226035      -0.00090098
N       -0.71287739      -0.25699825      -0.34528231      -0.21368773       0.00158269       0.00038781      -0.00408254
C       -1.91824897      -0.88257143      -0.60265779       0.03009729       0.00098163      -0.00403900       0.00443546
C       -2.95922259      -0.87057577       0.42497139      -0.00296560      -0.00530507       0.00325199       0.00351287
C       -4.14770305      -1.58946073       0.27310762      -0.04005481      -0.00219435      -0.00321328       0.00209875
C       -5.12054091      -1.56964314       1.25701626      -0.03716278      -0.00311389       0.00258970      -0.00039681
C       -4.93137479      -0.82873960       2.41520367      -0.04078276       0.00056728       0.00059980      -0.00330897
C       -3.75565846      -0.10986564       2.57753600      -0.04059585      -0.00251654       0.00120336       0.00191602
C       -2.77948794      -0.12957517       1.59718725      -0.03132159      -0.00134277      -0.00219089       0.00426925
H       -2.81302857      -1.99535375      -2.27474159       0.05292461      -0.00272957       0.00428563      -0.00011941
H        1.65419631       0.57135637      -0.42787336       0.12188932      -0.00445111       0.00272598       0.00296666
H        4.17504544       0.58655589      -3.01542190       0.04648888       0.00539201       0.00237334      -0.00028472
H        3.43651355       1.83317202      -2.02861948       0.04179530      -0.00292840       0.00231041       0.00361819
H        5.40169029       0.57411175      -0.97516390       0.04169994       0.00286369      -0.00131325       0.00062298
H        4.36286535      -0.83277398      -0.88333984       0.04163679      -0.00106069       0.00140974      -0.00158984
H        5.17741199       2.72905888       0.50176073       0.03899124      -0.00362404      -0.00085069      -0.00200101
H        3.83908136       2.96569326       1.62921432       0.04485463      -0.00071618      -0.00131364      -0.00248451
H        3.53853935       3.05884005      -0.10731470       0.03743352       0.00442599       0.00432370      -0.00110914
H       -4.31461729      -2.17762890      -0.61900597       0.03817105      -0.00008281       0.00049754       0.00067152
H       -6.03231892      -2.13591210       1.11942230       0.04159301       0.00160422      -0.00111498      -0.00275636
H       -5.69332525      -0.81285581       3.18322456       0.04190493       0.00483268       0.00095858      -0.00263404
H       -3.59712278       0.47112580       3.47690078       0.04132511       0.00419744       0.00152227      -0.00134396
H       -1.86321471       0.42721643       1.72503654       0.03540792      -0.00061497      -0.00172726       0.00118536
