23
Properties=species:S:1:pos:R:3:forces:R:3 charge=0 spin=1 energy=-144.86854553222656 free_energy=-144.86854553222656 stress="0.0 0.0 0.0 0.0 0.0 0.0 0.0 0.0 0.0" pbc="F F F"
C       -4.12088241      -0.63851158       0.07571520      -0.00558113      -0.00082659       0.00105783
C       -3.24148114      -0.57190396      -0.92655440       0.00382654       0.00014970      -0.00389357
C       -2.00345722       0.27067418      -0.85726812       0.00473155       0.00370511      -0.00563604
O       -1.58117349       0.85979774      -1.86038405      -0.00348939      -0.00178418       0.00512895
N       -1.41994949       0.39705209       0.37442642      -0.00092556      -0.00301781       0.00360982
C       -0.25540867       1.24767301       0.58666251      -0.00123766      -0.00252175       0.00195009
C        1.07282993       0.52914504       0.40934489      -0.00183511       0.00205891      -0.00000058
C        1.92067301       0.29732446       1.49600681       0.00102913      -0.00020104       0.00203440
C        3.13543682      -0.37520893       1.31883343      -0.00131655      -0.00003997      -0.00002590
C        3.51367824      -0.81793400       0.05096169       0.00347242      -0.00224276       0.00166195
C        2.66956944      -0.58565583      -1.03944956      -0.00000485       0.00015638       0.00088847
C        1.45376224       0.08325004      -0.86374071      -0.00281119      -0.00204437      -0.00072968
H       -3.96394792      -0.12438103       1.02458406       0.00334084       0.00149816       0.00320920
H       -5.05225150      -1.19661562      -0.02932019       0.00204250       0.00065111       0.00008225
H       -3.43317917      -1.00141687      -1.91038369      -0.00007861      -0.00023486      -0.00059387
H       -1.68549603      -0.24783877       1.11217993       0.00080113       0.00184215      -0.00411196
H       -0.30720195       1.67578730       1.59603227      -0.00135414       0.00215667       0.00000909
H       -0.32895564       2.05790785      -0.15492480      -0.00024974      -0.00173476      -0.00067525
H        1.63064412       0.64864090       2.48901803      -0.00071701      -0.00110871       0.00191116
H        3.78497115      -0.54804179       2.18074914       0.00017640      -0.00058585      -0.00238898
H        4.46221052      -1.34315214      -0.08689083       0.00127265       0.00085030      -0.00264391
H        2.95445581      -0.92533884      -2.03819429      -0.00137568       0.00113015      -0.00058979
H        0.78877849       0.27190587      -1.71082441       0.00028318       0.00214386      -0.00025377
