28
Properties=species:S:1:pos:R:3:forces:R:3 charge=-1 spin=1 energy=-168.01019287109375 free_energy=-168.01019287109375 stress="0.0 0.0 0.0 0.0 0.0 0.0 0.0 0.0 0.0" pbc="F F F"
C       -1.66685832      -1.82599811      -1.77766595       0.00167860      -0.00145474      -0.00234279
N       -0.96718734      -0.89577054      -0.89474349      -0.00250177       0.00040084       0.00505319
C       -1.64023470      -0.32314943       0.20150357      -0.00008492      -0.00390141      -0.00111317
C       -2.94743878       0.17319360       0.04733281      -0.00347504       0.00115013       0.00558101
C       -3.63254664       0.71599939       1.13302769      -0.00187770      -0.00256479      -0.00033466
C       -3.03036979       0.77637176       2.39268004       0.00125742       0.00285077       0.00250873
C       -1.73437154       0.27872267       2.55674272       0.00585295       0.00086959      -0.00125900
C       -1.04727976      -0.27443430       1.47745981      -0.00052792      -0.00197527      -0.00125262
C        0.36929625      -0.60034216      -1.25811767      -0.00235227       0.00943890      -0.00221375
O        0.91439068      -1.30293671      -2.14119391       0.00252398       0.00348467       0.00246789
C        1.02113287       0.50645754      -0.64095598       0.00317657      -0.00741657      -0.00109321
C        2.43162356       0.73679324      -0.96019921       0.00452515      -0.00057198       0.00028607
H       -1.01327760      -2.68881608      -1.96088445       0.00329965      -0.00215444       0.00116332
H       -2.60544687      -2.14178355      -1.30751719      -0.00532064      -0.00205226      -0.00197425
H       -1.88347354      -1.36521059      -2.75405654       0.00033556      -0.00195397      -0.00224118
H       -3.40284059       0.15751399      -0.94441644       0.00147450       0.00211101       0.00461999
H       -4.64473959       1.10042045       0.98855270      -0.00349617       0.00423393       0.00021444
H       -3.56946049       1.20851023       3.24044293       0.00094001       0.00104468      -0.00257921
H       -1.25166141       0.31443767       3.53601058      -0.00195478      -0.00125192      -0.00332671
H       -0.05064072      -0.69791898       1.60551932      -0.00007591      -0.00118814      -0.00420519
H        0.48831526       1.17882158       0.03044088      -0.00370409      -0.00471914       0.00177795
H        2.70730994       1.80022799      -0.99807564      -0.00195254       0.00406438      -0.00183533
H        2.72793695       0.19851780      -1.87386475      -0.00261846       0.00066201       0.00094935
S        3.33791332       0.01515648       0.47017734       0.00322211       0.00668040       0.00430108
C        5.00631612       0.64494531       0.20213610      -0.00205539      -0.00171814       0.00129581
H        5.41145763       0.31403918      -0.76333025       0.00443855      -0.00379686      -0.00354362
H        5.04211727       1.74145811       0.25582446       0.00120009       0.00210206      -0.00298484
H        5.62954043       0.23296840       1.00647655      -0.00192744      -0.00237377       0.00208061
