20
Properties=species:S:1:pos:R:3:forces:R:3 charge=0 spin=1 energy=-128.48379516601562 free_energy=-128.48379516601562 stress="0.0 0.0 0.0 0.0 0.0 0.0 0.0 0.0 0.0" pbc="F F F"
C       -3.70887776       0.00841266      -0.69117349       0.00231178      -0.00059024      -0.00495347
C       -3.15548353       0.06247151       0.52505212       0.00383264      -0.00124580       0.00620517
C       -1.69392838      -0.12920878       0.77983695       0.00048059      -0.00068933      -0.00423622
O       -1.27896672      -0.64475125       1.81746964       0.00217021       0.00047374       0.00217665
N       -0.85596620       0.27863998      -0.25015003       0.00428677       0.00477418       0.00163172
C        0.53965820       0.11494502      -0.31561723      -0.00208113      -0.00218672       0.00709667
C        1.22066475      -0.85362326       0.44020300       0.00534622       0.00518227       0.00071183
C        2.60295285      -0.98244174       0.29911503      -0.00160559      -0.00476807       0.00385696
C        3.31536024      -0.16696483      -0.58626600       0.00291839      -0.00010955       0.00380540
C        2.63387601       0.79248322      -1.33933754      -0.00214544       0.00409606      -0.00611010
C        1.25544806       0.93539543      -1.20641389       0.00071287      -0.00585626      -0.00115168
H       -4.79033892       0.07428794      -0.81669515      -0.00431484       0.00399461      -0.00041883
H       -3.12041480      -0.13417889      -1.59803626      -0.00208004      -0.00381891       0.00286195
H       -3.75414381       0.10479107       1.43571523      -0.00063625      -0.00174356      -0.00527227
H       -1.27584984       0.85056705      -0.97925698      -0.00189209      -0.00086938      -0.00120192
H        0.65160168      -1.47609464       1.13248161       0.00119939      -0.00143553      -0.00506350
H        3.12894360      -1.73545663       0.89054549      -0.00029242       0.00358331      -0.00122219
H        4.39895142      -0.28018353      -0.68993829      -0.00763145       0.00145194       0.00226370
H        3.17615520       1.43700442      -2.03492291      -0.00020260      -0.00388789       0.00066417
H        0.72145559       1.69076026      -1.78816570      -0.00037736       0.00364517      -0.00164424
