28
Properties=species:S:1:pos:R:3:forces:R:3 charge=-1 spin=1 energy=-168.38848876953125 free_energy=-168.38848876953125 stress="0.0 0.0 0.0 0.0 0.0 0.0 0.0 0.0 0.0" pbc="F F F"
C       -0.89214892       0.45811007      -2.13225637      -0.00004724      -0.00276460       0.00318280
C       -1.78537137       0.15238964      -0.95532155      -0.00029954       0.00096039      -0.00157237
C       -3.17310198       0.25741649      -1.06916813       0.00373486       0.00059202      -0.00112379
C       -4.02906897       0.01702944       0.00703665      -0.00599907       0.00127147       0.00448359
C       -3.48834717      -0.34161022       1.24542063       0.00264120       0.00061797      -0.00598377
C       -2.11229262      -0.46821433       1.39204737       0.00115629      -0.00300640       0.00239587
C       -1.23918578      -0.22958852       0.30576573      -0.00230445       0.00009103      -0.00193745
N        0.12574601      -0.39421460       0.44322239       0.00107124      -0.00124688      -0.00159361
C        0.85586279      -0.28907820       1.66703320       0.00248438      -0.00148579       0.00105584
O        0.29544366       0.12306953       2.70395394       0.00063526       0.00118525       0.00261563
C        2.21763630      -0.65455009       1.57092283       0.00256822       0.00232714       0.00315399
C        2.87915532      -1.26028791       0.40217773       0.00047633       0.00116479       0.00277007
H       -1.49001345       0.81444179      -2.97865416      -0.00045884      -0.00012371       0.00133172
H       -0.14729138       1.22768147      -1.88276491       0.00216168      -0.00059903      -0.00058635
H       -0.32519549      -0.42491215      -2.46378429      -0.00198641       0.00058314      -0.00252649
H       -3.58972375       0.54616614      -2.03605321      -0.00034693      -0.00050072       0.00061667
H       -5.11017751       0.11500212      -0.12589317       0.00113624      -0.00041504       0.00291294
H       -4.14085631      -0.52626866       2.10155759      -0.00293645       0.00038111      -0.00315619
H       -1.64678710      -0.73333864       2.34337592       0.00062501       0.00126064      -0.00133589
H        0.72090113      -0.41916548      -0.39505438      -0.00096308      -0.00104006      -0.00201023
H        2.79326278      -0.49176207       2.48095589      -0.00116253       0.00041344      -0.00105567
H        2.35500675      -2.14843481       0.01075974       0.00085747      -0.00074321      -0.00199316
H        3.91350269      -1.54191488       0.63734649      -0.00253063       0.00015070       0.00095376
S        2.94042432      -0.23026279      -1.17362649      -0.00026608       0.00083922      -0.00065739
C        3.43948966       1.35574232      -0.48810140       0.00405139      -0.00167932      -0.00376359
H        4.42574921       1.29120387      -0.01206325      -0.00010799      -0.00051157       0.00122475
H        2.70719057       1.71341093       0.24645297      -0.00304190       0.00171609       0.00270595
H        3.49971172       2.06013705      -1.32666489      -0.00114846       0.00056207      -0.00010707
