26
Properties=species:S:1:pos:R:3:forces:R:3 charge=0 spin=1 energy=-157.01795959472656 free_energy=-157.01795959472656 stress="0.0 0.0 0.0 0.0 0.0 0.0 0.0 0.0 0.0" pbc="F F F"
C       -4.01447168       0.27645403      -0.99939119       0.00025947      -0.00198414      -0.00145053
C       -3.48568911       1.44384178      -0.44065449       0.00428486       0.00091228       0.00268595
C       -2.20520763       1.45796724       0.11525973      -0.00316259       0.00250363      -0.00159547
C       -1.44180311       0.27824621       0.11766864       0.00350973      -0.00521402      -0.00343737
N       -0.13953709       0.20509789       0.64816827      -0.00185466       0.00223420      -0.00501075
C        0.49254247       1.13480873       1.44381631       0.00490445      -0.00077474       0.00653337
O       -0.01883060       2.18375209       1.83277382       0.00055344       0.00865233      -0.00187749
C        1.92020539       0.74366833       1.84605411       0.00074880       0.00371063       0.00434339
C        2.78862084       0.15345993       0.73717315       0.00452156      -0.00262538       0.00211123
S        2.48114415      -1.63140198       0.51380385       0.00125112      -0.00301970       0.00130361
C        3.29351050      -1.91002301      -1.07134236       0.00193698      -0.00421467      -0.00069880
C       -1.97229462      -0.89561047      -0.44985445      -0.00128284      -0.00019732      -0.00302351
C       -3.24875045      -0.89310341      -1.00364662       0.00183584      -0.00546941      -0.00161171
H       -5.01920985       0.27907594      -1.43352447       0.00393933       0.00161311      -0.00153166
H       -4.07477709       2.36369085      -0.43736283       0.00083137      -0.00089672       0.00184996
H       -1.78183116       2.36255510       0.55305851      -0.00129125       0.00186908       0.00281341
H        0.40414145      -0.65071717       0.44709176      -0.00174720       0.00385326       0.00504056
H        1.84762697       0.04269523       2.69573337      -0.00404962      -0.00223141       0.00025861
H        2.36540681       1.66972999       2.23171520       0.00124027      -0.00209898       0.00359368
H        2.59717818       0.66216486      -0.21887651      -0.00399674      -0.00100199      -0.00790547
H        3.85012822       0.29986445       0.98180247      -0.00690314      -0.00171024      -0.00155398
H        4.36371927      -1.67339180      -1.01237270      -0.00058399       0.00120406       0.00147919
H        2.82890663      -1.32428895      -1.87423816      -0.00495318       0.00221755      -0.00102398
H        3.18311309      -2.97662550      -1.30096541       0.00011458       0.00413989      -0.00223754
H       -1.37073753      -1.80766408      -0.44449821      -0.00064348      -0.00013280      -0.00087742
H       -3.64807038      -1.81095686      -1.44152943       0.00053696      -0.00133899       0.00182261
