25
Properties=species:S:1:pos:R:3:forces:R:3 charge=-1 spin=1 energy=-151.8434295654297 free_energy=-151.8434295654297 stress="0.0 0.0 0.0 0.0 0.0 0.0 0.0 0.0 0.0" pbc="F F F"
C       -2.06312258       1.97279376      -1.23902248      -0.00620497       0.00289616      -0.00242388
C       -1.10868122       2.32079284      -0.17293060      -0.00181098      -0.00147600      -0.00279027
C        0.02919316       1.56197126       0.20787087       0.00462788      -0.00429410       0.00057012
O        0.88625486       1.93948788       1.03251945      -0.00235111       0.00007957       0.00269908
N        0.11873124       0.28984900      -0.41599333      -0.00607255       0.00406019       0.00064970
C        1.16767477      -0.60909642      -0.31222168      -0.00028677      -0.00106602      -0.00070958
C        2.45764777      -0.22627733       0.11557683      -0.00128528      -0.00122958      -0.00360456
C        3.47829343      -1.17246424       0.16412054       0.00382018       0.00157925       0.00235888
C        3.24951922      -2.49995987      -0.21477937      -0.00311880       0.00862437      -0.00196208
C        1.97531288      -2.88279326      -0.64619923       0.00392382      -0.00248885      -0.00064131
C        0.94397801      -1.95232498      -0.69377271      -0.00112697      -0.00140458       0.00000443
H       -2.77994657       2.78629114      -1.41108166       0.00318843      -0.00321168       0.00083162
H       -1.57150285       1.72655924      -2.19448370      -0.00324652      -0.00031700       0.00089139
H       -1.22866709       3.25930980       0.36633906       0.00505623       0.00150427       0.00497878
H       -0.77356568      -0.05864953      -0.79787634       0.00389019       0.00113118      -0.00064701
H        2.60685435       0.81380023       0.41516935       0.00368411      -0.00127047       0.00030062
H        4.47164087      -0.86768251       0.50088728      -0.00073051      -0.00194553       0.00392687
H        4.06089702      -3.23298199      -0.17523268      -0.00089294      -0.00199804       0.00068985
H        1.78540072      -3.91583503      -0.94688610      -0.00254721       0.00642258       0.00101329
H       -0.05700353      -2.24084752      -1.02193099       0.00152814      -0.00643696      -0.00213625
S       -3.06506673       0.40029804      -0.99055749       0.00057410      -0.00023529      -0.00157966
C       -3.56410036       0.61942258       0.72408049       0.00671212      -0.00621613       0.00254497
H       -2.68933068       0.66873039       1.38481293      -0.00655778       0.00276347      -0.00483330
H       -4.16326735       1.52992478       0.84740555      -0.00050966       0.00275636       0.00256482
H       -4.18032893      -0.24790061       0.99073286      -0.00026312       0.00177282      -0.00269634
