25
Properties=species:S:1:pos:R:3:forces:R:3 charge=-1 spin=1 energy=-151.871826171875 free_energy=-151.871826171875 stress="0.0 0.0 0.0 0.0 0.0 0.0 0.0 0.0 0.0" pbc="F F F"
C        3.95207710       0.70395202      -1.05129768      -0.00104681      -0.00197914      -0.00760836
C        3.78658033       0.39956711       0.30497952       0.00056610       0.00106150       0.00962165
C        2.53631161       0.06210368       0.81693767       0.00076124       0.00620275      -0.00544763
C        1.41849662       0.01568450      -0.04266633       0.00003380      -0.00294414       0.00831644
C        1.59145865       0.32212172      -1.41074993       0.00212444       0.00252165      -0.00710452
C        2.84523201       0.66436086      -1.90489439       0.00424572      -0.00210063       0.00333464
N        0.14066073      -0.27556476       0.41734645       0.00232667       0.00124013      -0.00268304
C       -0.18773339      -0.95534893       1.61894517       0.00132149      -0.00398219       0.00198331
O        0.68920125      -1.45991121       2.34453873       0.00080152       0.00113543      -0.00088815
C       -1.58404734      -1.00911845       1.89333594      -0.00419466      -0.00328550       0.00588188
C       -2.60487342      -0.19830216       1.21076790      -0.00279334      -0.00406276       0.00252661
H        4.64806656       0.42567747       0.97629559       0.00201207       0.00060037      -0.00219619
H        2.38402998      -0.19220592       1.86831584       0.00156474       0.00258928       0.00143886
H        0.72431669       0.28135953      -2.07401310       0.00109076      -0.00221574       0.00190938
H        2.96233495       0.89707469      -2.96588654      -0.00132367       0.00096726       0.00172412
H       -0.62802645      -0.23517019      -0.26159893      -0.00088505      -0.00409264      -0.00215844
H       -1.86399136      -1.66305661       2.71885702       0.00214320       0.00054520      -0.00412914
H       -2.26662993       0.82024630       0.96340846      -0.00065830       0.00466129       0.00021143
H       -3.54716461      -0.15597200       1.77339986       0.00252882      -0.00204480      -0.00078070
H        4.93957186       0.96867465      -1.44110943      -0.00226223       0.00102722       0.00049332
S       -2.96205851      -1.00178785      -0.42761832      -0.00218323      -0.00330485      -0.00123908
C       -4.07281842       0.21303164      -1.17430005      -0.00549182      -0.00259440       0.00129523
H       -3.59480026       1.19618001      -1.26210057      -0.00242883       0.00318861      -0.00263831
H       -4.31563495      -0.15054695      -2.18003246      -0.00242636      -0.00101690      -0.00053121
H       -5.00374536       0.30936965      -0.60200968       0.00417396       0.00788284      -0.00133231
