25
Properties=species:S:1:pos:R:3:forces:R:3 charge=0 spin=1 energy=-151.97401428222656 free_energy=-151.97401428222656 stress="0.0 0.0 0.0 0.0 0.0 0.0 0.0 0.0 0.0" pbc="F F F"
C       -3.46474613       1.24658300       1.12094345      -0.00326461       0.00013012       0.00042608
N       -2.37705361       1.34731517       0.34298071      -0.00364414       0.00160170      -0.00321406
C       -1.49133650       0.35018642       0.37742282       0.00387833      -0.00030073      -0.00003275
N       -0.37674591       0.44413572      -0.46285234      -0.00368074      -0.00161533      -0.00037645
C        0.27136357       1.61782952      -0.80186498      -0.00093731      -0.00794595       0.00054283
O        0.02144921       2.71593765      -0.32580672      -0.00501826       0.00309272       0.00216222
C        1.41358731       1.40110391      -1.80550522       0.00219613       0.00033793       0.00379092
C        2.50463774       0.46266853      -1.28685439      -0.00022671       0.00086178       0.00103603
S        2.09700930      -1.29522414      -1.57493680       0.00393100      -0.00183722       0.00320823
C        3.14980322      -2.08057763      -0.34028142       0.00030240      -0.00053702      -0.00177185
C       -1.65776508      -0.80169851       1.17725563      -0.00059168       0.00644788       0.00021788
C       -2.79999154      -0.89398606       1.96944306       0.00127495      -0.00508878      -0.00164029
C       -3.73213082       0.15194126       1.95191682       0.00235716       0.00309822      -0.00371240
H       -4.15227915       2.09499217       1.05290026       0.00098342       0.00840211      -0.00126464
H        0.06574116      -0.43211640      -0.78082383       0.00193665       0.00268900      -0.00243755
H        0.99047321       1.03146370      -2.75292245      -0.00019693      -0.00288651      -0.00480267
H        1.83005989       2.39955299      -1.98586746      -0.00038581      -0.00049409       0.00292864
H        3.45987082       0.68883089      -1.77989368       0.00227228      -0.00152902       0.00324218
H        2.64794254       0.60389493      -0.20525954      -0.00182809      -0.00196587       0.00103061
H        4.21113652      -1.88883781      -0.54368863       0.00082667       0.00367167       0.00190637
H        2.96919459      -3.16020956      -0.40497941       0.00306619       0.00025839      -0.00740843
H        2.90235192      -1.74168973       0.67391620      -0.00037844      -0.00222041      -0.00068565
H       -0.89323753      -1.58174318       1.17263601      -0.00086793      -0.00437005      -0.00107539
H       -2.96004953      -1.77414554       2.59659219      -0.00151964       0.00302988       0.00243640
H       -4.64247229       0.12127203       2.56008252      -0.00048491      -0.00283064       0.00549382
