19
Properties=species:S:1:pos:R:3:forces:R:3 charge=0 spin=1 energy=-123.80512237548828 free_energy=-123.80512237548828 stress="0.0 0.0 0.0 0.0 0.0 0.0 0.0 0.0 0.0" pbc="F F F"
C        3.55283083       0.75614861      -0.65089517       0.00238231      -0.00055411       0.00009987
C        3.12140342      -0.46195685      -0.31038231       0.00033528       0.00393437      -0.00172392
C        1.72318997      -0.75823658       0.13311355      -0.00075334       0.00220481      -0.00080177
O        1.48299662      -1.65618328       0.94156915      -0.00033526      -0.00081680       0.00032896
N        0.74682809       0.07227006      -0.39063497      -0.00161707       0.00014009      -0.00200622
C       -0.61673670       0.10266475      -0.08136741      -0.00552024      -0.00428303       0.00689460
C       -1.23567137      -0.65668077       0.93190169       0.00637840      -0.00244240      -0.00468726
C       -2.60979071      -0.48493235       1.10492063      -0.00459746      -0.00110424       0.00541297
C       -3.31313823       0.41563255       0.28997697       0.00455068      -0.00252931      -0.00417513
C       -2.59457720       1.11789493      -0.67858402      -0.00140795      -0.00511509       0.00038096
N       -1.27308100       0.96942320      -0.86576237      -0.00500886       0.00343192       0.00056553
H        2.89697140       1.62597208      -0.68441211      -0.00000426      -0.00095314       0.00403142
H        4.60164955       0.92762964      -0.89528541       0.00558318      -0.00228098      -0.00011200
H        3.79813021      -1.30906016      -0.19492590      -0.00106950      -0.00019258       0.00064599
H        0.96815576       0.69955144      -1.16535229       0.00179371       0.00749856      -0.00256219
H       -0.63673399      -1.34594067       1.52786715       0.00360669      -0.00084995       0.00245933
H       -3.13380040      -1.05586634       1.87422721      -0.00126791      -0.00029081      -0.00051457
H       -4.39213901       0.56561073       0.40454544      -0.00381279       0.00275751      -0.00080142
H       -3.07229708       1.83528086      -1.35101990       0.00076464       0.00144526      -0.00343496
