21
Properties=species:S:1:pos:R:3:forces:R:3 charge=0 spin=1 energy=-141.07406616210938 free_energy=-141.07406616210938 stress="0.0 0.0 0.0 0.0 0.0 0.0 0.0 0.0 0.0" pbc="F F F"
C        3.95228757       0.17002544       0.59336286      -0.00331485      -0.00426663       0.00290748
C        3.47641169       0.50477424      -0.61089101       0.00684048      -0.00317830       0.00086235
C        2.02015587       0.64897369      -0.91757874      -0.00142959       0.00235000      -0.00239784
O        1.60511346       1.45297756      -1.75064031       0.00370049      -0.00165136       0.00003671
N        1.17915370      -0.16778866      -0.16970295       0.00174285       0.00502388      -0.00107753
C       -0.22382978      -0.16243886      -0.16719638      -0.00034676      -0.00512492       0.00143950
C       -0.97738153       0.92500831      -0.64132080      -0.00017038      -0.00036907      -0.00460540
C       -2.36840143       0.87547908      -0.58013537      -0.00713523      -0.00133944       0.00130157
C       -3.02604132      -0.24605198      -0.04350431       0.00144307      -0.00123093       0.00452258
C       -2.26675371      -1.32842050       0.43709199       0.00139526      -0.00278276       0.00056437
C       -0.88085245      -1.28602370       0.37269554      -0.00731768      -0.00072634       0.00105612
C       -4.45941817      -0.28552687       0.01864927       0.00796522       0.00586034      -0.00095594
N       -5.62600809      -0.31599617       0.07248358      -0.00886279      -0.00233924      -0.00089714
H        3.30527723      -0.06506136       1.43853664       0.00430764       0.00290316      -0.00337827
H        5.02648168       0.14407920       0.77945119       0.00003043       0.00081603       0.00240238
H        4.12938887       0.83277150      -1.42053611      -0.00702770       0.00075577       0.00010714
H        1.62455329      -0.91546175       0.35613970      -0.00119485       0.00037419       0.00022401
H       -0.45440599       1.78356121      -1.06218980       0.00091462      -0.00032118      -0.00440593
H       -2.96167037       1.71247208      -0.95371510       0.00270844       0.00127572      -0.00086574
H       -2.77634577      -2.20019577       0.85297584       0.00186811       0.00025046       0.00022280
H       -0.29140711      -2.13215863       0.73023020       0.00388317       0.00372042       0.00293640
