26
Properties=species:S:1:pos:R:3:forces:R:3 charge=0 spin=1 energy=-156.9877166748047 free_energy=-156.9877166748047 stress="0.0 0.0 0.0 0.0 0.0 0.0 0.0 0.0 0.0" pbc="F F F"
C       -3.89760314      -0.88814365      -0.54331764       0.00490743       0.00003275      -0.00023115
C       -2.50768582      -0.83849851      -0.41850685      -0.00093810      -0.00052923      -0.00047424
C       -1.92030552       0.21918154       0.29019096      -0.00036897      -0.00368481      -0.00090817
N       -0.52486688       0.35688805       0.43581239       0.00160836       0.00227061       0.00442169
C        0.44345145      -0.61201736       0.25966300      -0.00184713       0.00586295      -0.00081848
O        0.19322212      -1.77828183      -0.04773802       0.00853004       0.00227391       0.00438221
C        1.86005799      -0.10141794       0.50289540       0.00159195      -0.00541762      -0.00266574
C        2.90033538      -1.15519832       0.17214642      -0.00209611      -0.00613074       0.00176852
S        4.57937964      -0.71318286       0.67581316       0.00063595      -0.00397508       0.00111974
C        4.95591723       0.65670169      -0.43569251       0.00582849       0.00034592       0.00331014
C       -2.73063798       1.21692492       0.85906730      -0.00336567       0.00521569       0.00236769
C       -4.11437275       1.16009904       0.71967242      -0.00194827      -0.00102672       0.00318977
C       -4.70517606       0.10473018       0.01952580      -0.00625569       0.00088420      -0.00578044
H       -5.79346518       0.05768971      -0.08795339       0.00407732       0.00422068      -0.00211162
H       -4.35133202      -1.71524045      -1.09381658       0.00071687      -0.00025216       0.00021037
H       -1.86477518      -1.60551586      -0.85204405      -0.00172454       0.00119346      -0.00074223
H       -0.19984968       1.27374363       0.73236949      -0.00395418      -0.00397301      -0.00259537
H        2.00308494       0.81713766      -0.09002910      -0.00315258       0.00460680       0.00046429
H        1.94301711       0.19922507       1.56125328      -0.00111565      -0.00078809      -0.00424646
H        2.66561075      -2.07874248       0.71956834       0.00136904       0.00461990      -0.00196396
H        2.86445309      -1.41029056      -0.89697800       0.00089499       0.00266013       0.00417124
H        4.87555636       0.36552647      -1.49178086       0.00058341      -0.00469527      -0.00467698
H        4.32299396       1.53618961      -0.25161355       0.00084169       0.00138384      -0.00117265
H        5.99653023       0.93902373      -0.23313363      -0.00372261      -0.00174502       0.00074983
H       -2.26645178       2.03151590       1.42071047       0.00054628       0.00138246      -0.00156948
H       -4.73205254       1.94524174       1.16209081      -0.00164255      -0.00473517       0.00380181
