65
Properties=species:S:1:pos:R:3:forces:R:3 charge=0 spin=1 energy=-401.9285583496094 free_energy=-401.9285583496094 stress="0.0 0.0 0.0 0.0 0.0 0.0 0.0 0.0 0.0" pbc="F F F"
C       -4.99642119       0.23864566       2.24852961       0.00048286       0.00143126      -0.00041896
N       -5.02692291      -0.88395584       1.50384176      -0.00376672      -0.00478282      -0.00099620
C       -3.96350488      -1.14870667       0.73969110       0.00736704       0.00177531       0.00048742
N       -3.93456490      -2.28986686      -0.02050520      -0.00790354      -0.00018008       0.00055953
C       -4.86603684      -3.32666014      -0.15661891      -0.00058821       0.00056672       0.00541733
C       -6.11713198      -3.35044383       0.47475345       0.00033736      -0.00168693      -0.00608000
C       -6.97435986      -4.43529254       0.27351493       0.00370938       0.00021361      -0.00038388
C       -6.58472368      -5.48723839      -0.55152177      -0.00193438       0.00078052      -0.00190814
F       -7.42035756      -6.53882949      -0.74106365      -0.00062640       0.00206673      -0.00137145
C       -5.33602392      -5.47828619      -1.19218121       0.00115956      -0.00507759       0.00045213
Cl      -4.88763161      -6.79773291      -2.20474818       0.00038020       0.00101215       0.00131002
C       -4.48462339      -4.40059921      -0.99271490      -0.00310773       0.00349952      -0.00005104
C       -2.81773345      -0.26581693       0.69521646       0.00256798       0.00138435      -0.00426258
C       -1.65240185      -0.43383002      -0.08859229       0.00067867      -0.00624087      -0.00090007
C       -0.60629076       0.47345950      -0.02147796       0.00223200       0.00439608      -0.00326161
N        0.56532233       0.38048829      -0.78377771      -0.00639540       0.00172135       0.00098923
C        0.96450921      -0.66235167      -1.58759007      -0.00219315      -0.00028336      -0.00125381
O        0.29653522      -1.68677793      -1.75601513      -0.00027718       0.00055959       0.00277681
C        2.31776508      -0.45381563      -2.26834945       0.00039827      -0.00014973      -0.00364366
C        3.55692703      -0.62280298      -1.37121923       0.00275046      -0.00063418       0.00331030
S        3.40808484      -1.99545858      -0.17234186       0.00112734      -0.00120540      -0.00281631
C        3.14076752      -3.40682196      -1.26065207      -0.00016557      -0.00002302      -0.00199176
C        3.91470484       0.64565364      -0.57996561      -0.00153197      -0.00113595       0.00220105
N        5.26238574       0.62014272      -0.02572565       0.00011501      -0.00135750       0.00049618
C        5.40824256       1.46429076       1.15415652       0.00292283       0.00294278      -0.00085935
C        6.30028171       0.88823765      -1.01381306       0.00138898      -0.00164813       0.00019258
C       -0.70100479       1.60100644       0.85818628      -0.00701718       0.00446650       0.00432985
O        0.41936962       2.39103196       0.85748237       0.00445980      -0.00508088      -0.00588717
C        0.40880931       3.64827781       1.58140996       0.00015381      -0.00290829      -0.00118324
C       -0.40796492       4.71417935       0.84229837      -0.00773183      -0.00407121       0.00149778
O        0.45841223       5.24429549      -0.17665101      -0.00259537       0.00032195      -0.00036383
C        1.82556921       4.85039459       0.09650150       0.00410639      -0.00060682       0.00208483
C        1.81849140       4.22109866       1.48960714       0.00018807      -0.00237828      -0.00141013
C       -1.83679241       1.79969864       1.61455349       0.00023705       0.00279793       0.00390533
C       -2.91613648       0.87780302       1.55085957       0.00650599       0.00095370      -0.00048211
N       -4.00598675       1.12371161       2.31796892      -0.00147185      -0.00059810       0.00476497
H       -5.87463296       0.44691623       2.86568098      -0.00197810      -0.00099179       0.00093615
H       -3.08809068      -2.42032729      -0.56605522       0.00757639       0.00064023       0.00264235
H       -6.39889746      -2.51447331       1.11813100      -0.00379715       0.00605670      -0.00118375
H       -7.95296664      -4.47248478       0.75412514       0.00463641      -0.00157008      -0.00022723
H       -3.51316267      -4.39754878      -1.48998663      -0.00308964      -0.00186677      -0.00216508
H       -1.51733212      -1.26829234      -0.77756784      -0.00066067       0.00030997       0.00668949
H        1.17280421       1.19243374      -0.69496491       0.00162430      -0.00124263      -0.00173297
H        2.34238517       0.54114561      -2.74108376      -0.00107780       0.00008276      -0.00367309
H        2.34478965      -1.19671542      -3.07339601      -0.00300639      -0.00045615       0.00099498
H        4.40287654      -0.85258024      -2.03985999      -0.00192703       0.00100100      -0.00096778
H        3.97030839      -3.53987339      -1.96688325       0.00101442       0.00008201      -0.00011586
H        3.09951969      -4.28454008      -0.60371865       0.00048368       0.00048012       0.00319949
H        2.18660139      -3.32149218      -1.79508439       0.00153501       0.00037281       0.00240394
H        3.76813632       1.52328043      -1.24598803      -0.00041681       0.00632226       0.00203858
H        3.20536603       0.75859861       0.25526533       0.00181976      -0.00277768       0.00400586
H        4.68805780       1.16040733       1.92469696      -0.00272942       0.00009846      -0.00086084
H        6.41812402       1.35670530       1.57141016      -0.00257814       0.00109456      -0.00101888
H        5.24483889       2.53902558       0.93984854       0.00068709      -0.00066027       0.00128112
H        6.27417919       1.92639156      -1.39687533      -0.00134361      -0.00090290       0.00285695
H        6.20317187       0.21518859      -1.87517749       0.00363447       0.00144050      -0.00061609
H        7.29080099       0.72156479      -0.57024708       0.00248346      -0.00141226      -0.00381253
H        0.06882778       3.49141273       2.61526252      -0.00080781      -0.00094195      -0.00065199
H       -0.69546195       5.51131804       1.54878052      -0.00023971      -0.00204389      -0.00379700
H       -1.31211784       4.31342439       0.36471928       0.00324152       0.00376017       0.00220142
H        2.46889351       5.73626249       0.01494194      -0.00227462      -0.00240050      -0.00156999
H        2.13919081       4.12958751      -0.67680714       0.00117508       0.00223931      -0.00064018
H        2.59596867       3.46317464       1.63938236      -0.00084618       0.00494506       0.00077404
H        1.92865467       5.00120273       2.25800029      -0.00029747      -0.00289150       0.00028461
H       -1.95835959       2.63782512       2.29645987       0.00119604       0.00039151      -0.00252582
