40
Properties=species:S:1:pos:R:3:forces:R:3 charge=-1 spin=1 energy=-246.75009155273438 free_energy=-246.75009155273438 stress="0.0 0.0 0.0 0.0 0.0 0.0 0.0 0.0 0.0" pbc="F F F"
C        4.76596869      -1.80265189       1.29234851      -0.00469008      -0.00406249       0.00195891
N        6.01903079      -2.19431984       1.44747791       0.00426808       0.00135504      -0.00446863
C        6.88761440      -1.91948468       0.43920804       0.00195330      -0.00136888       0.00938115
N        6.57550699      -1.27977633      -0.68828333      -0.00431079       0.00586399      -0.00152259
C        5.30168599      -0.87036339      -0.86773336      -0.00308086       0.00037426      -0.00448197
C        4.29815486      -1.11431244       0.12621998       0.00292569       0.00071320       0.00118050
C        2.97017915      -0.69010234      -0.07856119      -0.00023535      -0.00341654      -0.00176200
C        2.62046094      -0.02095767      -1.26072425       0.00392261      -0.00358790      -0.00129015
C        3.62997176       0.22584632      -2.24678380       0.00210187       0.00164582      -0.00227699
C        4.92522806      -0.18309587      -2.05830102       0.00200288       0.00428747       0.00005627
N        1.34024448       0.40988550      -1.54407029      -0.00500796      -0.00044581      -0.00469375
C        0.18158727       0.34179009      -0.71367609      -0.00341600      -0.00102915       0.00271440
O        0.27454605      -0.10843489       0.45562427       0.00078637       0.00272635      -0.00152628
C       -0.98777441       0.82144379      -1.34162079       0.00147480      -0.00604114       0.00655434
C       -2.31407954       0.90793067      -0.71217125      -0.00797517      -0.00057606      -0.00257003
C       -2.48958456       0.10249931       0.58019897       0.00222890       0.00158823       0.00401136
N       -3.86969580       0.05864424       1.06007569       0.00766182      -0.00121945      -0.00022701
C       -3.96168300      -0.17856750       2.49767762       0.00105684       0.00316898      -0.00406940
C       -4.71425291      -0.85740953       0.30741075      -0.00280266       0.00389514       0.00026538
H        7.91837994      -2.25085824       0.56953152      -0.00033754       0.00213949      -0.00031178
H        2.18999156      -0.86735018       0.66535013      -0.00269677       0.00032277       0.00504248
H        5.70965889      -0.00648806      -2.79612126       0.00087771      -0.00568695      -0.00185409
H        1.19398274       0.82399763      -2.46005705      -0.00118527       0.00286062      -0.00084342
H       -0.89775954       1.18997606      -2.36555421       0.00382403       0.00102035      -0.00438748
H       -3.10699073       0.64198733      -1.43470515       0.00189853      -0.00002272       0.00036450
H       -2.07555923      -0.90875361       0.38795719      -0.00179665      -0.00132684      -0.00061272
H       -1.83918095       0.54154169       1.34995337      -0.00265774      -0.00258585      -0.00191154
H       -5.00984936      -0.12381640       2.82158276      -0.00414239       0.00074207       0.00269629
H       -3.39448094       0.58649604       3.04254275      -0.00380674       0.00165257      -0.00542264
H       -3.56817554      -1.16699761       2.80403522       0.00134239      -0.00215414       0.00228244
H       -5.76564274      -0.74026107       0.60386649      -0.00064126      -0.00246850       0.00111162
H       -4.44462538      -1.92100943       0.45281500       0.00001756      -0.00185403       0.00115476
H       -4.64415336      -0.64766799      -0.76793151       0.00110092       0.00087951      -0.00335884
H        4.06689941      -2.02439051       2.10551136       0.00493273      -0.00113821      -0.00313696
H        3.34142219       0.75003527      -3.16039640       0.00160289       0.00070217       0.00286257
S       -2.57183468       2.73648255      -0.45273822      -0.00723314       0.00185884       0.00410260
C       -4.37097042       2.89120811      -0.43633090       0.00580460      -0.00133867      -0.00111573
H       -4.80146753       2.24935058       0.34269335       0.00098376      -0.00156570       0.00286145
H       -4.81001188       2.64133781      -1.41128813       0.00126785       0.00087289       0.00586081
H       -4.59038844       3.94385528      -0.21482824       0.00198032       0.00321932      -0.00261762
