38
Properties=species:S:1:pos:R:3:forces:R:3 charge=0 spin=1 energy=-222.8317413330078 free_energy=-222.8317413330078 stress="0.0 0.0 0.0 0.0 0.0 0.0 0.0 0.0 0.0" pbc="F F F"
C       -2.95992355       0.08053292       3.14784756       0.00093134       0.00274269       0.00022686
C       -1.99187658       1.00209123       2.74549459      -0.00090165      -0.00069192       0.00405224
C       -1.51144932       0.98746178       1.43359392       0.00130549      -0.00451925       0.00048351
C       -1.97349917       0.05192038       0.49480957      -0.00025691       0.00093042      -0.00040056
C       -1.42281814       0.10309858      -0.94745972      -0.00303686       0.00185043       0.00412738
N        0.05650288       0.05366246      -0.83657222       0.00072369      -0.00189100       0.00336784
C        0.90019904       0.14783492      -1.89972886       0.00345461      -0.00012260      -0.00093743
O        0.53046433       0.36550209      -3.06107280      -0.00142045      -0.00274449      -0.00102933
C        2.39737560       0.02713574      -1.55474985       0.00059326      -0.00042015       0.00621336
C        2.85784923       1.29527790      -0.83236014      -0.00068319      -0.00041652      -0.00269755
C        2.78233543      -1.28025915      -0.84413894      -0.00097439       0.00065165      -0.00758618
S        2.26781383      -1.54693325       0.88689978      -0.00382471       0.00181267       0.00048186
C        3.57769672      -0.75605835       1.84285337      -0.00197417       0.00131290      -0.00057615
C       -1.87476596       1.42379384      -1.60026003       0.00012382      -0.00067529       0.00373910
C       -1.92494253      -1.06380472      -1.80724508       0.00276481       0.00112292      -0.00343329
C       -2.94425344      -0.86944250       0.91299799       0.00345826       0.00200537       0.00678200
C       -3.43384871      -0.85196079       2.22657699      -0.00279310       0.00120166      -0.00003950
H       -3.34162742       0.09046958       4.17182421       0.00078872      -0.00134132       0.00436732
H       -1.60206120       1.74367843       3.44715173      -0.00345264      -0.00266206       0.00115177
H       -0.75748171       1.71820962       1.13452238       0.00245723       0.00119209      -0.00244404
H        0.46710930      -0.24919353       0.05529493       0.00065565       0.00122562       0.00111628
H        2.87094239      -0.01146029      -2.54782660       0.00073877       0.00110049      -0.00671172
H        3.94334854       1.27964057      -0.66827469       0.00005624       0.00096324      -0.00264926
H        2.35895115       1.40540167       0.13990087      -0.00029979       0.00225972       0.00209744
H        2.62354568       2.18557619      -1.42871196       0.00082780       0.00172007       0.00000226
H        2.33809197      -2.12819536      -1.38550996      -0.00047938      -0.00211605      -0.00253437
H        3.87303842      -1.41031208      -0.89879170      -0.00359386       0.00246643       0.00303916
H        3.60787341       0.32932970       1.70038764      -0.00004950       0.00169773       0.00241727
H        3.35166419      -0.96505082       2.89558919       0.00106289      -0.00214871       0.00136389
H        4.55971609      -1.18666623       1.60977835       0.00104792      -0.00295458       0.00050659
H       -2.97189020       1.45449974      -1.62305331       0.00177564       0.00036664       0.00035318
H       -1.52338929       2.28862387      -1.02509304       0.00140373       0.00119810      -0.00343247
H       -1.47826300       1.49220732      -2.61924363       0.00273090      -0.00410562      -0.00272831
H       -1.46064659      -0.99140182      -2.79684422       0.00173818      -0.00271215      -0.00241072
H       -3.01567413      -1.01910790      -1.91589363      -0.00288930       0.00281521      -0.00289189
H       -1.65551630      -2.02819927      -1.35966261       0.00018948       0.00054855       0.00028244
H       -3.33256759      -1.61201431       0.21750415      -0.00163215      -0.00294712      -0.00148013
H       -4.19206806      -1.58309137       2.51770747      -0.00056624       0.00128418      -0.00218894
