57
Properties=species:S:1:pos:R:3:forces:R:3 charge=-1 spin=1 energy=-366.77093505859375 free_energy=-366.77093505859375 stress="0.0 0.0 0.0 0.0 0.0 0.0 0.0 0.0 0.0" pbc="F F F"
N       -0.80553541       0.80233257       0.27123529      -0.00140660      -0.00394911      -0.00134639
N       -1.06151991       1.92922003       1.00557541       0.00150159      -0.00181621      -0.00311482
C        0.12255819       2.51137943       1.17235835       0.00005738       0.00212026       0.00003919
C        1.15461113       1.76872582       0.55365922      -0.00111637       0.00301559      -0.00130317
C        0.50316053       0.67058014      -0.01457097      -0.00121772       0.00000329       0.00037622
C        2.58036640       2.00074085       0.46728854       0.00208811      -0.00154471      -0.00102806
N        3.29460124       1.00208365      -0.13463367       0.00236207      -0.00189167       0.00167802
C        4.59967564       1.17834994      -0.23047783      -0.00073399       0.00045002       0.00052610
C        5.24612042       2.38469975       0.21635182      -0.00036391      -0.00065416      -0.00089174
N        4.54202035       3.34658782       0.81856626       0.00333647       0.00372159      -0.00041711
C        3.22168844       3.14468677       0.94961488       0.00192994       0.00208254       0.00518100
N        6.58411148       2.61394438       0.05298121      -0.00053928      -0.00276563       0.00011158
N        5.34081789       0.13991305      -0.83134088       0.00020907       0.00181913       0.00218487
N        4.85303397      -0.43941428      -2.02243356       0.00103599      -0.00256550      -0.00130361
N        5.63171929      -1.41693429      -2.35473208       0.00316888       0.00399065       0.00150740
C        6.64479082      -1.52711465      -1.41639001       0.00100458       0.00135407      -0.00364161
C        6.47327976      -0.54153651      -0.42212577      -0.00026661      -0.00436160      -0.00175160
C        7.34913868      -0.46223769       0.67715665      -0.00068805       0.00157360       0.00031814
C        8.39962922      -1.37284384       0.72838366       0.00320441       0.00156467      -0.00263433
C        8.58429293      -2.35279546      -0.27454152      -0.00190836      -0.00035024       0.00006253
C        7.71162782      -2.44271590      -1.35073331       0.00161998      -0.00308711       0.00288674
C       -1.93045917      -0.07415556      -0.10912407       0.00172007       0.00105058       0.00129925
C       -2.53092966      -0.74220349       1.14195139       0.00203114       0.00366202      -0.00316253
C       -3.92707965      -1.28725615       0.87437291       0.00253894      -0.00282566      -0.00772697
N       -4.83884231      -0.19541566       0.52422010       0.00085355      -0.00047740       0.00095742
C       -4.21172849       1.04489761       0.04031268       0.00092889       0.00301671      -0.00143729
C       -3.02699767       0.70581578      -0.86413896       0.00038747      -0.00152685      -0.00115383
C       -6.21259706      -0.30888737       0.48137515      -0.00655216      -0.00299859      -0.00129175
O       -6.93345087       0.65906979       0.13181337      -0.00263377      -0.00057133      -0.00057421
C       -6.80593911      -1.58908712       0.81247666      -0.00522327      -0.00294860       0.00552925
C       -8.26234768      -1.71718515       0.75463057       0.00579783       0.00492990      -0.00005196
H        0.19318487       3.44210358       1.73455864      -0.00230785      -0.00098738      -0.00120505
H        0.92683633      -0.14540850      -0.59112923      -0.00068617       0.00423526       0.00445130
H        2.66057479       3.94477528       1.44115730       0.00174546      -0.00113925      -0.00186375
H        7.13562226       2.05186194      -0.58463180       0.00680548      -0.00141139       0.00175122
H        6.87254093       3.56937003       0.23013518       0.00229777       0.00337603       0.00238793
H        7.20500781       0.28602213       1.45617860      -0.00251104      -0.00201869      -0.00155756
H        9.09985004      -1.33240015       1.56697092      -0.00019294       0.00097599      -0.00037429
H        9.42659968      -3.04478890      -0.19103139      -0.00378665       0.00015730      -0.00172484
H        7.81557261      -3.18872037      -2.14059485      -0.00101981       0.00074920      -0.00059763
H       -1.49429904      -0.83919636      -0.76939445      -0.00058167      -0.00130859       0.00060135
H       -1.87571884      -1.55881844       1.47335914       0.00072609      -0.00111800      -0.00077084
H       -2.55964065      -0.00140855       1.95681208      -0.00229927       0.00319840       0.00347680
H       -4.29564341      -1.79949312       1.77419601       0.00034586       0.00141896       0.00038373
H       -3.88886801      -2.05427688       0.07708441      -0.00037961       0.00084935       0.00119738
H       -4.98792627       1.60395351      -0.49516686      -0.00306083      -0.00188679       0.00572601
H       -3.87093431       1.67420361       0.88084475      -0.00018498      -0.00369830      -0.00247590
H       -2.59413344       1.62428564      -1.28329486       0.00362968       0.00391984       0.00018317
H       -3.38392818       0.09247142      -1.70605284      -0.00426480       0.00143887       0.00202844
H       -6.19304642      -2.45770644       1.05268315      -0.00298591       0.00034493       0.00246954
H       -8.68258817      -2.40015618       1.50357047      -0.00130472      -0.00181649      -0.00154462
H       -8.78538379      -0.75102883       0.74531741      -0.00018305      -0.00024804      -0.00100584
S       -8.46602216      -2.59775813      -0.84058826      -0.00349399      -0.00046606       0.00124875
C       -8.16920679      -1.29771559      -2.04774138       0.00124718       0.00585651       0.00773415
H       -8.53044868      -1.69749620      -3.00349154       0.00050198      -0.00407404      -0.00341421
H       -8.72400069      -0.38693609      -1.79335644       0.00098079      -0.00237754      -0.00790311
H       -7.10372990      -1.05328045      -2.13842339      -0.00216283      -0.00398907       0.00097162
