45
Properties=species:S:1:pos:R:3:forces:R:3 charge=-1 spin=1 energy=-281.38922119140625 free_energy=-281.38922119140625 stress="0.0 0.0 0.0 0.0 0.0 0.0 0.0 0.0 0.0" pbc="F F F"
N        0.32092294      -1.23971510      -0.14031097      -0.00229292      -0.00005142      -0.00031032
C        1.15856256      -1.41445742       1.04185069       0.00259799      -0.00219124       0.00054839
C        2.48902065      -2.02238179       0.61564477      -0.00152573       0.00069699       0.00005576
N        3.10966106      -1.22841739      -0.44876125       0.00086334      -0.00015745       0.00105041
C        2.26718462      -0.89476830      -1.59548795      -0.00036365      -0.00137385      -0.00065984
C        0.90199366      -1.55730246      -1.43554322      -0.00440520       0.00258437       0.00151947
C        4.41677101      -0.80366261      -0.28661006       0.00247948      -0.00172430       0.00131556
O        5.05982383      -1.07877413       0.75743614       0.00355520      -0.00094175      -0.00160007
C        5.00615028      -0.01411450      -1.34159890       0.00118911      -0.00300312      -0.00472373
C        6.36825637       0.49096493      -1.15582211      -0.00315383       0.00267406       0.00041851
C       -0.94973414      -0.78047759      -0.01644449      -0.00174248      -0.00507812       0.00119420
N       -1.68269746      -0.59329313      -1.14332504       0.00216940      -0.00398362       0.00043839
C       -2.92353737      -0.15113493      -0.98559035      -0.00094998       0.00204916       0.00300300
C       -3.51528870       0.11915508       0.26465870      -0.00008237      -0.00133213      -0.00231450
C       -2.65285929      -0.11432188       1.35510701       0.00278807      -0.00169361       0.00232267
N       -1.40137873      -0.54320021       1.23973461      -0.00428791       0.00503211      -0.00258142
C       -4.90043486       0.60482114       0.41853419       0.00301359      -0.00158474       0.00008368
C       -5.62716197       0.36305353       1.59955536      -0.00017129       0.00213335       0.00172308
C       -6.93522952       0.82624454       1.75277739       0.00155637       0.00078822       0.00399783
C       -7.54787251       1.54806418       0.72368614      -0.00339869       0.00238764      -0.00222168
C       -6.84366796       1.79855688      -0.45784827       0.00244324      -0.00384153      -0.00258049
C       -5.53684238       1.32940378      -0.60632162      -0.00239330       0.00529271      -0.00176489
H        1.31380333      -0.43935189       1.53351255      -0.00022607      -0.00016235       0.00051799
H        0.63578187      -2.04919618       1.77362617       0.00128190       0.00059205      -0.00130898
H        2.32742596      -3.06303694       0.28120913       0.00069909      -0.00275744      -0.00080939
H        3.20007943      -2.05123187       1.45220799       0.00127015      -0.00090912       0.00177929
H        2.13744218       0.19760059      -1.68091474      -0.00202685       0.00156836       0.00135037
H        2.72747224      -1.23308954      -2.53763280      -0.00195228       0.00192549       0.00103731
H        0.20097389      -1.21217704      -2.20780861      -0.00014161       0.00052781      -0.00136858
H        1.00916066      -2.65155591      -1.55105326       0.00113305       0.00186510      -0.00094338
H        4.45014715       0.23418121      -2.24519536       0.00207832       0.00323605       0.00138839
H        6.95841762       0.53824097      -2.07925880      -0.00162125       0.00330609      -0.00174803
H        6.91321719      -0.01986664      -0.35071589       0.00096846       0.00077865       0.00245917
H       -3.50345111      -0.01934298      -1.90451590       0.00118184       0.00074795       0.00004587
H       -2.99452792       0.08198297       2.37634897       0.00094606      -0.00248418       0.00127277
H       -5.16867019      -0.22615065       2.39809296       0.00142644       0.00217529      -0.00037897
H       -7.47773986       0.61869994       2.67755624       0.00075132       0.00135833       0.00264853
H       -8.57227325       1.91411700       0.84114819       0.00016955      -0.00089002      -0.00177670
H       -7.31019841       2.36497808      -1.26673278      -0.00098634      -0.00135356      -0.00299311
H       -4.98629218       1.55741156      -1.52286961      -0.00211422      -0.00144359       0.00014034
S        6.04006312       2.24357999      -0.72900319       0.00047930      -0.00368688      -0.00361364
C        5.45416317       2.13118485       0.96695414       0.00170457      -0.00091172       0.00572252
H        6.12415283       1.51907756       1.58244055      -0.00183118       0.00077644      -0.00173172
H        4.43687999       1.72506514       1.02774469       0.00062905       0.00363373       0.00017156
H        5.45299871       3.16223564       1.34304043      -0.00170824      -0.00457412      -0.00077629
