54
Properties=species:S:1:pos:R:3:forces:R:3 charge=0 spin=1 energy=-331.9383850097656 free_energy=-331.9383850097656 stress="0.0 0.0 0.0 0.0 0.0 0.0 0.0 0.0 0.0" pbc="F F F"
C        5.30522746      -2.12842305      -0.03083948      -0.00017628      -0.00512028       0.00041795
C        4.46955144      -1.04160653       0.23215633      -0.00228532      -0.00041281      -0.00021920
C        4.16571502      -0.67629566       1.55144881      -0.00089603       0.00548279       0.00343522
S        3.18963216       0.73584285       1.96519772       0.00217277      -0.00487784      -0.00043342
C        1.94901413       0.74480181       0.64457303       0.00127028       0.00408373       0.00344916
C        0.91545378       1.84108014       0.92676040      -0.00559854       0.00391283       0.00115951
N       -0.19425955       1.45130576       0.04789504       0.00016567       0.00532954      -0.00274095
C       -0.94320806       2.23694758      -0.76365496      -0.00233322       0.00482506       0.00208887
O       -1.78478382       1.75713117      -1.55580043      -0.00353435      -0.00077388      -0.00141780
C       -0.74183100       3.74815244      -0.76091719      -0.00043775      -0.00253308      -0.00481680
C       -0.01321599       4.17637947      -2.03953270       0.00090054       0.00264502       0.00166178
S        1.73882754       3.70888573      -2.13216878       0.00046288       0.00082652      -0.00393268
C        2.49795931       4.97615494      -1.09877173      -0.00320576       0.00048380      -0.00120544
C       -0.24716560      -0.02866896      -0.06945622      -0.00078775      -0.00134060      -0.00193961
C       -1.47910323      -0.61743150       0.66858061       0.00257754       0.00543568      -0.00377351
O       -1.36060716      -1.36043084       1.65220104      -0.00190940      -0.00348794       0.00276569
N       -2.65593975      -0.23870107       0.11894627      -0.00154247      -0.00523555       0.00363126
C       -3.93460749      -0.67926309       0.66843097      -0.00250700       0.00506383      -0.00051942
C       -4.48534570      -1.91601256      -0.01456230       0.00127470      -0.00706522       0.00242931
C       -3.83321606      -3.14580773       0.15542258      -0.00614139       0.00228110      -0.00688577
C       -4.30381854      -4.30283703      -0.46928792       0.00104836      -0.00431518       0.00330847
C       -5.44044608      -4.20515928      -1.27115067      -0.00216858       0.00234017      -0.00057068
F       -5.90794572      -5.32879906      -1.88545704       0.00136494       0.00299691       0.00094267
C       -6.11316241      -3.00300141      -1.46644363      -0.00104150      -0.00609130       0.00123300
C       -5.62074121      -1.85934117      -0.82839149      -0.00037560       0.00291875      -0.00034618
C        1.08594950      -0.51826873       0.50776804      -0.00543819       0.00028393       0.00026453
C        4.71572822      -1.41358329       2.61419695      -0.00472866      -0.00103952       0.00073263
C        5.55251124      -2.50136799       2.37200286      -0.00427260       0.00078821       0.00191602
C        5.82918032      -2.84026639       1.04776126      -0.00029090       0.00418285      -0.00378732
F        6.64376620      -3.90183980       0.79734394       0.00382591      -0.00143025      -0.00277642
H        5.55438857      -2.42009411      -1.05091963      -0.00304724       0.00173444      -0.00182384
H        4.08736927      -0.45414235      -0.60511159       0.00052707      -0.00163618       0.00413364
H        2.41807653       0.99235728      -0.32089772       0.00519061       0.00081549      -0.00099432
H        1.29556513       2.83530610       0.68440932      -0.00130856      -0.00516813       0.00063421
H        0.59795399       1.82793039       1.98031676       0.00256294      -0.00214928      -0.00243585
H       -1.75274192       4.17916867      -0.77876471       0.00201803       0.00132657       0.00319141
H       -0.23499889       4.10128175       0.14518846       0.00165339      -0.00078093       0.00123835
H       -0.49159894       3.68787747      -2.89995346       0.00138617      -0.00205570       0.00177264
H       -0.10794067       5.26070947      -2.18664809      -0.00275806       0.00327742       0.00162905
H        3.56154559       4.72146360      -1.01693488       0.00515947      -0.00043562       0.00234738
H        2.41200136       5.97702820      -1.54079672       0.00200879       0.00230189       0.00001442
H        2.06953355       4.99472493      -0.08708114       0.00228495       0.00062630      -0.00293459
H       -0.38226819      -0.27096951      -1.13399789      -0.00099935       0.00014600       0.00175305
H       -2.62178610       0.39353634      -0.69800027      -0.00021372       0.00219008      -0.00247698
H       -4.65396506       0.14613015       0.58415635      -0.00046039      -0.00312018       0.00379920
H       -3.76580309      -0.89994232       1.73285830       0.00657728      -0.00173239      -0.00256082
H       -2.94329196      -3.18739656       0.78898534       0.00450572       0.00067053       0.00214809
H       -3.80662814      -5.26514595      -0.34434328       0.00288624      -0.00106725      -0.00043000
H       -6.99816412      -2.96910951      -2.10279644       0.00175574       0.00132488      -0.00171283
H       -6.13407698      -0.90486123      -0.96790878       0.00361569      -0.00318924      -0.00062776
H        0.90660204      -0.98225465       1.48741719      -0.00031132       0.00501482      -0.00209959
H        1.54298152      -1.27343148      -0.14265031      -0.00149597      -0.00145540      -0.00275977
H        4.46930760      -1.12954327       3.64062803       0.00199056      -0.00221525      -0.00031424
H        5.98564733      -3.08440984       3.18593527       0.00107953      -0.00458026       0.00443834
