63
Properties=species:S:1:pos:R:3:forces:R:3 charge=-1 spin=1 energy=-398.9790344238281 free_energy=-398.9790344238281 stress="0.0 0.0 0.0 0.0 0.0 0.0 0.0 0.0 0.0" pbc="F F F"
Cl       4.49470105       2.20561933      -4.26200725       0.00289702       0.00110058       0.00120088
C        3.90598617       1.51379783      -2.77715789       0.00380588      -0.00160001      -0.00488549
C        4.73287791       1.03762261      -1.72436755      -0.00281847      -0.00042818       0.00583847
N        4.13471561       0.47138285      -0.64381181       0.00367379       0.00507140      -0.00234792
C        2.79796214       0.40400071      -0.59752226      -0.00696722      -0.00196440      -0.00311105
N        1.94509071       0.83139585      -1.54770234      -0.00035080      -0.00209207       0.00285429
C        2.52687785       1.37593036      -2.62746883      -0.00275972      -0.00262302       0.00484675
N        2.32712148      -0.16052133       0.57322780      -0.00129645       0.00018540      -0.00127141
C        1.03086558      -0.43026977       0.98358131      -0.00155471      -0.00075331       0.00452648
C        0.89462165      -0.95351046       2.30200293       0.00460103       0.00543353      -0.00046096
C       -0.36879504      -1.26941348       2.79739304      -0.00118411      -0.00029528      -0.00100958
C       -1.51046871      -1.08502613       2.01687819      -0.00313753       0.00080183      -0.00180939
C       -1.38824778      -0.56864650       0.71388659      -0.00120246      -0.00701149       0.00137988
C       -0.10948840      -0.24261911       0.20866719       0.00340542       0.00131521      -0.00293154
N       -2.47706000      -0.38095092      -0.12213777       0.00057483      -0.00103202       0.00084580
C       -3.85190408      -0.58542351       0.16154485      -0.00243722      -0.00063233      -0.00252613
O       -4.23037479      -0.90334665       1.32301199       0.00243361       0.00185737      -0.00492737
C       -4.71586719      -0.39830429      -0.93374374      -0.00049761       0.00165108      -0.00316128
C       -6.15887008      -0.65104119      -0.78916147      -0.00038265       0.00294607       0.00023584
C       -7.08002493       0.46518176      -1.32860987       0.00210561       0.00441701      -0.00115521
N       -7.32179803       1.52361678      -0.35671518      -0.00216550       0.00820792       0.00052738
C       -8.19051832       2.56283321      -0.89226458       0.00026983      -0.00516179      -0.00040821
C       -6.13448742       2.06151337       0.30108686       0.00240749      -0.00299663       0.00225534
O        2.07342153      -1.09485587       2.97706174       0.00183786      -0.00151886       0.00263338
C        2.04873114      -1.62716150       4.30814637      -0.00029172       0.00207562       0.00021906
C        6.17760958       1.10475750      -1.68653424       0.00092161       0.00142458      -0.00263964
C        6.99612744       0.42374148      -0.72775670      -0.00172308      -0.00565702      -0.00044987
N        8.29623936       0.79650782      -1.03561474       0.00424123      -0.00075607      -0.00107323
N        8.36860883       1.66327576      -2.10930097      -0.00343276      -0.00064546       0.00070387
C        7.10203568       1.83178062      -2.48179509      -0.00576229      -0.00172260       0.00042948
C        9.38780800       0.34382427      -0.35628670      -0.00437135      -0.00393502       0.00231656
C        9.21514581      -0.53034618       0.69009970      -0.00323357      -0.00022355      -0.00519198
C        7.90979938      -0.94741880       1.03873755      -0.00080057       0.00326547      -0.00156051
C        6.80991536      -0.47849181       0.33798172       0.00604962       0.00332101       0.00558180
H        1.86449198       1.72515429      -3.42165355       0.00006366      -0.00121078       0.00245064
H        3.06933080      -0.40291442       1.23052255       0.00363553      -0.00119734       0.00072180
H       -0.46190873      -1.66699970       3.80830553      -0.00048394      -0.00022222       0.00350243
H       -2.50921923      -1.32537142       2.38970146      -0.00199848      -0.00279746      -0.00086638
H        0.03355036       0.16814953      -0.79422947       0.00435195      -0.00052503       0.00088492
H       -2.26657849      -0.07254887      -1.06557126      -0.00183073      -0.00194697      -0.00199817
H       -4.31673323      -0.14825662      -1.91788194      -0.00004719      -0.00395956       0.00175592
H       -6.39551601      -0.84494737       0.27207167      -0.00274585      -0.00007394      -0.00115621
H       -8.05294904       0.01629620      -1.59314676      -0.00219516      -0.00077545      -0.00107807
H       -6.65052665       0.85275339      -2.27513032       0.00138066      -0.00371265       0.00100477
H       -8.47145190       3.26822695      -0.09968879       0.00084847       0.00378448       0.00263742
H       -7.72048458       3.14622533      -1.70868843      -0.00047850       0.00080751      -0.00012367
H       -9.11034820       2.11793435      -1.29436833      -0.00290942      -0.00238823      -0.00030893
H       -5.37213117       2.42781276      -0.41430802       0.00138639       0.00030585       0.00134478
H       -5.65207026       1.29983569       0.92897287       0.00206101       0.00029056       0.00049473
H       -6.42786313       2.90267052       0.94439822       0.00215716       0.00108595      -0.00056879
H        1.46992232      -0.98041346       4.98689372      -0.00034336      -0.00022782      -0.00161644
H        1.62391334      -2.64373354       4.32615789      -0.00013741       0.00107471      -0.00074839
H        3.09152875      -1.66374159       4.64351311       0.00166838      -0.00036964       0.00056930
H        6.88605893       2.48628635      -3.32231559       0.00155632       0.00161234       0.00076471
H       10.34076974       0.72508911      -0.71527871       0.00204456       0.00325336      -0.00138669
H       10.08658054      -0.89563308       1.23622190       0.00111458       0.00151938      -0.00067171
H        7.77466094      -1.64662361       1.86769200       0.00145928       0.00068024      -0.00265443
H        5.78954667      -0.77811825       0.57623787       0.00058955       0.00252734       0.00143655
S       -6.61751595      -2.18056647      -1.73743301      -0.00095040       0.00138177      -0.00052923
C       -5.55573649      -3.37352557      -0.91398018      -0.00780077      -0.00101161       0.00138107
H       -5.90712190      -4.37031264      -1.20791561       0.00105519      -0.00096673      -0.00222953
H       -4.50822370      -3.25233314      -1.21652491       0.00268035      -0.00025996       0.00211263
H       -5.62729461      -3.26824797       0.17570815       0.00101293       0.00129664      -0.00059921
