38
Properties=species:S:1:pos:R:3:forces:R:3 charge=-1 spin=1 energy=-220.41949462890625 free_energy=-220.41949462890625 stress="0.0 0.0 0.0 0.0 0.0 0.0 0.0 0.0 0.0" pbc="F F F"
Cl      -6.84164112      -0.38950008      -0.23898829       0.00008602      -0.00130800       0.00151958
C       -5.16935125      -0.09802394       0.06969983       0.00235161      -0.00395373       0.00675047
C       -4.55346677      -0.71055624       1.17093877       0.00007247       0.00170746      -0.00516382
C       -3.20075711      -0.48041238       1.40502104      -0.00246201       0.00441159      -0.00040343
C       -2.44124020       0.36050080       0.56703841      -0.00312011      -0.00356743      -0.00672409
C       -3.09055307       0.96128879      -0.52969913      -0.00043516       0.00450054       0.00365275
C       -4.44164399       0.73615963      -0.78781763      -0.00648670       0.00274807      -0.00615913
C       -1.00947040       0.62037808       0.75098332      -0.00762479       0.00246313      -0.00147724
C       -0.22984404       0.16018122       1.74995088       0.00091887      -0.00468466       0.00143811
S        1.48569947       0.57775727       1.86681716      -0.00592069       0.00428192       0.00582463
O        1.65365987       1.88820920       2.44944465       0.00315827      -0.00427617      -0.00398576
O        2.12875164      -0.57444910       2.47798978      -0.00153852       0.00152325      -0.00434395
N        1.91018528       0.73444307       0.25031488       0.00372142       0.00155649       0.00069407
C        1.97694135      -0.52829038      -0.51852882      -0.00574143      -0.00338612       0.00135335
C        3.44769341      -0.86596986      -0.85044272       0.00177122      -0.00193588       0.00157599
N        4.36717007      -0.46979972       0.21831481      -0.00194559       0.00030378      -0.00535480
C        4.38127738       0.98284071       0.44567748       0.00230821       0.00425239       0.00118950
C        3.05292118       1.63275523      -0.00973363       0.00682124       0.00332607       0.00130946
H       -5.13647551      -1.36215893       1.82189098      -0.00357336       0.00022471      -0.00003928
H       -2.72056733      -0.96922889       2.25608498       0.00141859      -0.00144717       0.00438574
H       -2.51055313       1.60056427      -1.20115998       0.00018358      -0.00099674      -0.00025791
H       -4.93566044       1.19605112      -1.64372985       0.00122046      -0.00108373       0.00281185
H       -0.54985974       1.24190517      -0.02378845       0.00031509      -0.00312614      -0.00231457
H       -0.55810237      -0.47123063       2.57425593       0.00219262       0.00464417      -0.00649253
H        1.36724565      -0.42715718      -1.43851507       0.00011753       0.00233037       0.00341296
H        1.53624272      -1.33143802       0.09151860       0.00112889       0.00024728       0.00280300
H        3.53279001      -1.94492405      -1.04400379       0.00283254      -0.00196239      -0.00042644
H        3.75049477      -0.35220204      -1.77963849       0.00022700       0.00611502       0.00167498
H        4.53821023       1.18405308       1.51777293      -0.00100751      -0.00173441      -0.00491394
H        5.21023978       1.46196096      -0.10177497      -0.00053352      -0.00496887       0.00182797
H        2.88622872       2.58765188       0.50525346       0.00493360       0.00040573       0.00333820
H        3.06488321       1.82427492      -1.09437542      -0.00315730       0.00194448       0.00145750
H        4.15072205      -0.96699320       1.08295934      -0.00160404      -0.00227903      -0.00396538
S       -0.79042252      -0.08795114      -2.85104898       0.00113451      -0.00356841       0.00117721
C       -1.45832531      -1.67950349      -2.38199899       0.00534353      -0.00132620      -0.00214589
H       -1.02608905      -2.02178525      -1.43048029       0.00037070      -0.00357130       0.00536215
H       -2.55004591      -1.61904596      -2.26496349       0.00166014       0.00193986      -0.00086109
H       -1.23133103      -2.42755846      -3.15300185       0.00086293       0.00025040       0.00146952
