26
Properties=species:S:1:pos:R:3:forces:R:3 charge=0 spin=1 energy=-156.98439025878906 free_energy=-156.98439025878906 stress="0.0 0.0 0.0 0.0 0.0 0.0 0.0 0.0 0.0" pbc="F F F"
C       -3.97056551      -0.10395873       0.78994200       0.00580522      -0.00489442       0.00118566
C       -2.58792473       0.08436967       0.75319866      -0.00012045       0.00242557      -0.00240549
C       -1.85764783      -0.40311077      -0.34002788      -0.00512081      -0.00510533       0.00115634
N       -0.45600967      -0.28260725      -0.42653279       0.00537163       0.00291881      -0.00278135
C        0.34249664       0.64297777       0.21485905       0.00477155      -0.00626898      -0.00062200
O       -0.09674249       1.51569844       0.96463640      -0.00492788       0.00687667       0.00530334
C        1.82520485       0.49465205      -0.10884734      -0.00033106       0.00279939       0.00136259
C        2.67391515       1.45336509       0.70536022      -0.00332630      -0.00494206      -0.00183411
S        4.40438721       1.52634349       0.18824474       0.00185069      -0.00018872      -0.00503154
C        4.99856898      -0.11751242       0.63238423      -0.00117087       0.00365508       0.00703324
C       -2.51836348      -1.07432265      -1.38280287      -0.00957766      -0.00030367       0.00231120
C       -3.89739781      -1.26011814      -1.33049399       0.00560123       0.00126362      -0.00726482
C       -4.63046853      -0.77483220      -0.24455158      -0.00925300       0.00101836       0.00097747
H       -5.71493117      -0.91802783      -0.20524445       0.00322172       0.00221603       0.00023619
H       -4.53609972       0.27932649       1.64222300      -0.00184488      -0.00084375       0.00015756
H       -2.05813785       0.60912566       1.54914250       0.00120938      -0.00158973       0.00461993
H        0.00777852      -0.92338087      -1.06498997       0.00190897      -0.00066271      -0.00548180
H        2.11219624      -0.55648995       0.06082094      -0.00088855      -0.00209130       0.00193321
H        1.96290828       0.68144915      -1.18697292       0.00092037      -0.00064517      -0.00483750
H        2.28805113       2.47405841       0.57702582       0.00074762       0.00372216       0.00092257
H        2.59241582       1.22388094       1.77743366       0.00177409      -0.00153738       0.00322908
H        4.51355308      -0.91180058       0.04794746       0.00191979      -0.00123687       0.00116761
H        6.07050373      -0.13118783       0.40027607       0.00250690       0.00176246       0.00005803
H        4.87374246      -0.32450977       1.70412168       0.00267548      -0.00040756      -0.00232403
H       -1.94639333      -1.43732170      -2.23991661       0.00059982       0.00132097      -0.00038749
H       -4.40000463      -1.78277550      -2.14782130      -0.00432318       0.00073850       0.00131637
