29
 
O           -0.23790841278943        0.61212186935555        1.92950659026977
C           -1.12452250584462        0.44136725091949        1.08005117187220
C           -2.50562411710770        0.50723011031948        1.31934226004865
C           -3.51123706573919        0.48402971167537        0.32612314241892
N           -0.79345837648439        0.14154139052330       -0.27058548656996
C            0.42424930721523        0.10278150329101       -0.87992958772921
C            0.52510248214080       -0.39551766401545       -2.18727111306069
C            1.74267500644131       -0.41830293716470       -2.83480634590348
C            2.88896908312648        0.04248901092655       -2.21109592786349
C            2.79207138256417        0.53408500921822       -0.91299444650865
S            4.30599376007513        1.10661081914577       -0.17031993801802
C            3.81107766833870        1.54675060280865        1.51936542299585
C            1.58437393211910        0.57536827433922       -0.25175499314421
H           -2.80590727635267        0.51781999470772        2.35837477167256
H           -4.51128659942733        0.70911679298840        0.67870330477313
H           -3.30084208019753        0.97338204109138       -0.61842072743096
H           -1.56036987701531       -0.24155108303962       -0.80781916368609
H           -0.36473998332600       -0.76236505539287       -2.68072231256406
H            1.80594260955526       -0.80443067363352       -3.84399675381756
H            3.84654676402528        0.02402682835421       -2.71007723954888
H            4.72478483377326        1.82806165618800        2.03525127219798
H            3.35336236218935        0.68885063834673        2.00239487516238
H            3.12093270985856        2.38506623559479        1.49539964125649
H            1.47927283808781        0.94195734314886        0.75411464593025
S           -3.86817475743847       -1.41753622478849       -0.48579855943681
C           -3.07730205967201       -2.39756764846920        0.79627306662753
H           -2.50569078202259       -1.69509750698988        1.41664276405055
H           -3.83013901956144       -2.90921017784182        1.39402340949616
H           -2.40815182653442       -3.12107811160459        0.33664005486376