26
 
C           -4.78667452850983       -0.24075222611078       -0.44435907814787
C           -4.37913251435469       -0.94513153078253        0.67634296217446
C           -3.04055593418639       -0.99995694880268        1.01268044168073
C           -2.09019908264443       -0.34825997404878        0.22882554207832
N           -0.74935924298243       -0.44191192046043        0.62308624744535
C            0.36033746892745        0.09370339873529        0.04148148639675
O            0.36292365606237        0.77071343523395       -0.96052234115223
C            1.63042283298275       -0.26071540233320        0.80838440032678
C            2.84988580624453        0.34813416269753        0.13926769083123
S            4.35680847288485       -0.08957223415037        1.07463480187472
C            5.57099513386967        0.76743328193579        0.03705416522314
C           -2.50025918879405        0.35903448594060       -0.89667241647828
H           -1.76897530844133        0.86374905362193       -1.50464000421206
C           -3.84349049329768        0.40687839267161       -1.22355938857840
H           -5.83284224516353       -0.19815186303624       -0.70685702462921
H           -5.10560404471208       -1.45450853615021        1.29213186405848
H           -2.72463032944218       -1.55075201001776        1.88849710084635
H           -0.60195185058952       -0.98876239741318        1.46094255859232
H            1.54886314694680        0.10927732444014        1.83363950165557
H            1.73642623649286       -1.34780174686488        0.84963124554885
H            2.95678010652602       -0.02903923303437       -0.87820495965553
H            2.76831294202699        1.43508341481368        0.11056320240809
H            5.53966420994236        0.35867546745443       -0.96920226336068
H            5.35011283202304        1.83124189408232        0.02527138616402
H            6.54545516755212        0.59329363393467        0.48064807216051
H           -4.15331324936327        0.95809807764399       -2.09884152561109