20
 
C           -4.21370440941160       -0.17547883610374        0.42675714817480
C           -3.07830228195805        0.35673936375103       -0.00048986343598
C           -1.77131743713791       -0.24973957776587        0.36457085258361
O           -1.67744316162333       -1.24161974450564        1.05731497596857
N           -0.70835310991298        0.43104630770387       -0.16371047137287
C            0.65849953043259        0.16775778931504       -0.04268097138244
C            1.54327797618848        1.02974007321129       -0.68996924331409
C            2.90627044421228        0.82266481510583       -0.60826625082571
C            3.40556811172360       -0.24522575290227        0.11891687578301
C            2.52875455565007       -1.10202126191350        0.76218632388994
C            1.16194766365831       -0.90497273985326        0.68770938211700
H            0.48184842296869       -1.57253617147215        1.18876343545658
H           -4.18989668127502       -1.05768073255925        1.04572936881597
H           -5.17782693284909        0.23629098905907        0.18252686246129
H           -3.06482801905068        1.24140861265715       -0.62290855157391
H           -0.92292349078551        1.24416901136207       -0.72516598114522
H            1.15653234310505        1.86492728915456       -1.25886770889390
H            3.58038722948643        1.49798108658760       -1.11448847605862
H            4.47108038305351       -0.40663799801951        0.18245883626770
H            2.91042886352546       -1.93681252281242        1.33104458937593