22
 
O            1.33723194847763        1.63704684857701       -1.59187039519912
C            1.89882248111189        0.87646837731751       -0.83762307049257
C            3.37423260220879        0.89671116605184       -0.65514836290650
C            4.01526911078954        0.62103011414806        0.47015563057803
N            1.25989665939377       -0.07670907246239       -0.08210156513619
C           -0.09969015654592       -0.35272092097370       -0.00336718473705
C           -0.50276374314267       -1.45629041993373        0.75463901511690
C           -1.83945178124152       -1.78761031663240        0.87490157751695
C           -2.80560177329730       -1.02727485452909        0.24184331289671
C           -2.40059267865337        0.07146509210981       -0.50476395449655
N           -3.40409221879521        0.87806143585049       -1.16149925579475
O           -4.54496440886904        0.46577821839455       -1.15064532461612
O           -3.05009866414834        1.91383520842875       -1.67712058489426
C           -1.06568952394988        0.42342915852667       -0.63772548357971
H            3.90720983675351        1.25587231096386       -1.52407468725846
H            5.08586359743212        0.71321093807718        0.54240580000025
H            3.51052666650888        0.32525840884698        1.37673248495152
H            1.85227574431132       -0.69328690270958        0.45633036027774
H            0.24425285727654       -2.05890620244141        1.25191147422988
H           -2.12787744563047       -2.64346113576907        1.46491771753874
H           -3.85505077924825       -1.26334000816721        0.31687831045770
H           -0.78970833074215        1.28143255632590       -1.23043150278510