26
 
C           -3.83268660590206       -1.26349284846558        0.24887527935935
C           -4.66573505547951       -0.22539292739231       -0.13153758810239
C           -4.12984932083565        1.03050381132474       -0.36328534644563
H           -4.76964478094993        1.84840450410859       -0.66019104508501
C           -2.77316981983210        1.24386226628046       -0.21543065070754
C           -1.93378543991219        0.19927424532291        0.16723372412698
N           -0.56754812528867        0.48048869470960        0.29836960015523
C            0.45458366704469       -0.34981465717363        0.65063395848448
O            0.33659670643041       -1.52329709719307        0.91592483834090
C            1.79701878483722        0.37609098119475        0.66162116645645
C            2.90029531001244       -0.53120770298290        1.18187851639573
S            4.52098746704843        0.29825084336449        1.20796253428986
C            4.96973445703395        0.16686290825804       -0.54695910402715
C           -2.47254559460618       -1.06200556700830        0.39989327508041
H           -4.24321532136149       -2.24528755823478        0.43188156966239
H           -5.72603430060474       -0.39160023202311       -0.24682131796061
H           -2.35658204286308        2.22570214773813       -0.39669598420800
H           -0.32504096763179        1.44272197274592        0.10308845116589
H            2.02028209852770        0.69726647309209       -0.35984804785945
H            1.72739145103779        1.26689753469684        1.29060020451643
H            2.69731818468363       -0.81994260839802        2.21202801101184
H            2.98517370936438       -1.43359881703867        0.57772809742498
H            4.27301300592422        0.73458774866726       -1.15709134757491
H            4.97418780571262       -0.87911305125250       -0.84039936292595
H            5.96591301475960        0.58467480224386       -0.64450318575728
H           -1.82665828714947       -1.87083586658469        0.69616648027427