25
 
O            0.40277248957192       -1.33042541889787        2.13758605323261
C            0.87499419190649       -1.08779079222837        1.01991387028996
C            2.19014670234301       -1.38368132703234        0.61013498664163
C            2.68046330655574       -1.27469030668278       -0.70384810136088
N            0.09816801075103       -0.45413150770044        0.01627043621287
C           -1.22217802542563       -0.11126721877997        0.01425389624074
C           -1.71862137109677        0.65465981902339       -1.05170030545961
C           -3.05137316244924        1.00116621001663       -1.11399174529758
C           -3.93053796397306        0.60017093410524       -0.12003585644958
C           -3.44907174690418       -0.15434216941956        0.93947756788868
C           -2.11947430438536       -0.51140115373836        1.01313501552219
H            2.87945748329346       -1.65277593788790        1.39934146778172
H            2.00461043085923       -1.48527061929473       -1.52405556118778
H            3.66600926756925       -1.69084291032048       -0.87367228069213
H            0.64513188328829       -0.07546177203413       -0.74605027342966
H           -1.03671672492568        0.97276767448454       -1.82997874611250
H           -3.41167935037764        1.59207312585185       -1.94736656321056
H           -4.97605535369785        0.87486146058913       -0.16995571203375
H           -4.12655228043487       -0.46967670102437        1.72331759753504
H           -1.74008217662084       -1.08924537593419        1.83975925157427
S            3.09117078802183        0.72985576726084       -1.30606133277847
C            3.07162361362994        1.48480318234902        0.32351751670856
H            2.43864651943836        2.36898410312894        0.30586465643512
H            4.08343948580580        1.75419746312638        0.62355427306888
H            2.65570828725748        0.73746347103604        1.01167671851438