29
 
C            3.15125915539135        2.34584526145524       -0.40982486148753
C            4.22021515150827        1.53426102595682       -0.07721482790477
C            4.00212843079431        0.19389493244339        0.18969906762348
C            2.73157622829905       -0.35772522590290        0.13169723063059
C            2.53363842481612       -1.81821839820390        0.42770305383830
C            1.65434548638672        0.47486278630701       -0.20621752508966
N            0.37139566626305       -0.09101355105930       -0.26262671765293
C           -0.82211887470465        0.49525505008299       -0.55454994764440
O           -0.98446438566569        1.66332289408102       -0.82289609148555
C           -1.97342878526216       -0.50709529212868       -0.49162157516402
C           -3.27254214001421        0.13351994357226       -0.95287727338394
S           -4.67705933609378       -1.02240541984605       -0.88575783795452
C           -5.06157886184565       -0.94642387307542        0.88753851323961
C            1.87362712716229        1.82158216098755       -0.47467649224605
H            3.30720236661717        3.39291102052965       -0.62085886483069
H            5.21973727091773        1.93893815646563       -0.02493283325360
H            4.83736456856957       -0.44082207278308        0.44948792873861
H            2.11543114396370       -2.34269184376861       -0.43294268479844
H            3.48746336871066       -2.28126623322235        0.66687874303547
H            1.87012913493120       -1.96197123697229        1.28201454008062
H            0.34636350410328       -1.07902102644035       -0.05731968459653
H           -1.74550036467060       -1.36944094907469       -1.12305494200008
H           -2.06856831355085       -0.85693817528406        0.54046882336377
H           -3.19103439381720        0.44401622225138       -1.99364314497857
H           -3.51639436350009        1.00630141448495       -0.34833392695304
H           -5.27029720237239        0.08255092371447        1.16685219621127
H           -5.94333864371598       -1.55931541540769        1.04143197476895
H           -4.23389270093955       -1.34247249166101        1.46904482197415
H            1.03834133771859        2.44955941249772       -0.73376099324543