25
 
O           -0.67154652865126       -1.20347107876439        1.21912162020486
C           -0.81318712590740       -0.80975462244160        0.05092714997825
C           -1.89201513666006       -1.01323237397335       -0.79774958333235
C           -3.09753071479824       -1.66151455959117       -0.36063693792800
N            0.26063815364288       -0.09414792672955       -0.59750895379191
C            1.51179123790234        0.21556233309692       -0.16214961605767
C            2.39169257398351        0.88370944531042       -1.03056390235537
C            3.66580318218639        1.22311748911853       -0.62850148862248
C            4.10863924831137        0.91102693982059        0.64685523870394
C            3.24783689863202        0.25146182692142        1.51364792318823
C            1.97191607803324       -0.09330681846235        1.12676159766105
H           -1.87446219280921       -0.59907999400611       -1.79882142727450
H           -2.96687805421411       -2.18365945241220        0.58316503977917
H           -3.59640159160379       -2.28155279761363       -1.10273241259199
H            0.05557188265346        0.17782336684864       -1.54873831172386
H            2.05594592830628        1.13225619993781       -2.03090168907496
H            4.32421719168355        1.73745028279309       -1.31886278749887
H            5.10953828456814        1.17791461218175        0.95978969302318
H            3.58345321082371        0.00296321270027        2.51285679075158
H            1.29711224418732       -0.60661562654970        1.79211571393654
S           -4.57246413655473       -0.42323344350048        0.04770007438632
C           -3.66178284560333        0.65868869735073        1.16678873876980
H           -4.09032104437119        1.65617999787003        1.11277400531075
H           -3.72243249031670        0.27511483184214        2.18300943662859
H           -2.62513425342497        0.66629945825244        0.83047917280488