29
 
C           -1.43486510037247       -0.59548912007424       -0.80062259039263
C           -2.79841875034271       -0.80321595075161       -0.80346215024901
C           -3.61951009493331       -0.17334430030091        0.12602296749785
C           -5.09868631882413       -0.41515700475547        0.11383267731514
C           -3.03081961209437        0.67158238400047        1.05589571407385
C           -1.66525227330440        0.89173732649146        1.06998605488708
C           -0.85398964371760        0.25493445639378        0.13852402970475
N            0.53337463469717        0.42831420167383        0.08299531074342
C            1.34375125350749        1.09876105834403        0.93809356959540
O            0.98097111005144        1.73168918333818        1.90533098259620
C            2.82069866204679        0.99876789878990        0.55394817314151
C            3.34757934493399       -0.43347822455742        0.56605429102257
S            2.92882811335355       -1.40097762232172       -0.92757281462910
C            4.12861116300704       -0.70422707254108       -2.09797987928303
H           -0.80806601060748       -1.09679293394359       -1.52546788963906
H           -3.23551843007810       -1.46610643611293       -1.53679056854617
H           -5.31215846718363       -1.46727117326186        0.30072898123846
H           -5.51917698521515       -0.15880702430589       -0.85783308005807
H           -5.59604092990142        0.17925134708187        0.87583122884235
H           -3.64898571931994        1.17152067702649        1.78779511192299
H           -1.22492758194323        1.54907168527287        1.80039352008232
H            0.99054544259320       -0.11637983106394       -0.64210287244504
H            2.96588966761749        1.45284577577074       -0.42937428449343
H            3.37942472948680        1.58738854188139        1.28421866382205
H            4.43479198512467       -0.44662599343385        0.64758826599110
H            2.92582070716297       -0.99267531968023        1.40078832393622
H            3.95578843228816        0.36078692715761       -2.22342581470159
H            5.13495496544031       -0.88954934606262       -1.73286260403158
H            3.97538570652558       -1.21655411005817       -3.04179903345246