23
 
O            1.90802219004686       -1.32242036506867       -1.40948344967312
C            1.96339339236820       -0.44717516424499       -0.57412456868978
C            3.24142526602766        0.13702553194264       -0.09733950212822
C            4.40018285181665       -0.28811149393646       -0.58035980763977
N            0.87307003206747        0.12383562684410        0.04434461726530
C           -0.47778856771751       -0.14975549977801       -0.12983168060755
C           -0.89775813573799       -1.12667908495862       -1.03892491288802
C           -2.23396917468874       -1.41022921055680       -1.22362125375922
C           -3.20514701873284       -0.72862617374733       -0.50692343829619
C           -2.81453641037453        0.23819381443829        0.39439960775110
C           -1.46661785600744        0.53714121038233        0.59309073975036
C           -1.25326831855388        1.61845953719263        1.61572881558653
F           -1.77075540216836        1.27538933535234        2.81102481944384
F            0.02114236659152        1.97358161577439        1.87302899833124
F           -1.87184707190176        2.76117631331399        1.26107330425596
H            3.19029917087093        0.91507899013455        0.65177186828327
H            5.34466449053636        0.11379338246781       -0.25687367418152
H            4.41807969463706       -1.06552215257758       -1.32695273095959
H            1.10357602767954        0.83952367962389        0.71537676678352
H           -0.14831695848064       -1.65985928964805       -1.59889257170088
H           -2.51892611311491       -2.17081399842768       -1.93413727894917
H           -4.25168401774428       -0.94623615089295       -0.64729293541860
H           -3.55324043741903        0.78222954636995        0.96406891913270