28
 
O           -1.12383031513936       -1.51499538257821       -0.84466610903499
C           -1.40880367122468       -1.03523810501835        0.26292541339533
C           -2.53952347699616       -1.23589641993056        1.02826604907066
C           -3.65307775705918       -2.03043639640428        0.55053213399123
N           -0.44457730122441       -0.17802927564639        0.93836246837145
C            0.80320523084377        0.18527125916744        0.58016721265858
C            1.39068779518916       -0.20091609251555       -0.64055124400687
C            2.66366058173404        0.19330279164240       -0.96323183633062
C            3.40859207550849        0.98495326881985       -0.08503743416665
C            4.77645870709237        1.43606030615448       -0.43912420718765
F            5.40292986013508        0.64667318485182       -1.33384339903935
F            5.61342543833129        1.51526505129281        0.62188581051285
F            4.81505348202093        2.68316802249785       -0.99100899635256
C            2.83973847013146        1.38650241709500        1.12342890218287
C            1.56631467492921        0.99353317158310        1.45009260059916
H           -2.65371431086167       -0.73229934923386        1.97961925531458
H           -3.38025882175067       -2.62192631306531       -0.32048215414133
H           -4.14034733546967       -2.64052914327887        1.31009125975061
H           -0.75767825422341        0.15596930007717        1.83939254816051
H            0.80392723293920       -0.81734040355613       -1.30246146906590
H            3.10228679980127       -0.11279929097438       -1.90200816163967
H            3.41163011013827        2.00274927134137        1.80334789680413
H            1.13393732143868        1.30539599333716        2.39200384906612
S           -5.14807731103222       -0.98253103358411       -0.06971850922879
C           -4.25320973811729        0.01027963924843       -1.28348895493689
H           -3.27473715738986        0.23428250473463       -0.86104642139748
H           -4.13941544549952       -0.55366510535471       -2.20653288695611
H           -4.81459688424576        0.92319612929864       -1.46148750839994