23
 
O           -2.17461832228426        1.86159567925430       -1.01950115291267
C           -2.45496473621326        0.73269535412244       -0.68282913106930
C           -3.85817450356793        0.24016128476113       -0.69352156206381
C           -4.37694259135578       -0.62670383486972        0.16229191921853
N           -1.54250153210705       -0.20328761435288       -0.26679516266083
C           -0.16536532084422       -0.07844546140409       -0.12725166578523
C            0.50966803109996        1.12401213681058       -0.33501652788699
C            1.87984901014577        1.18207637082857       -0.17776047084258
C            2.59122573471019        0.04519640779482        0.18386549890665
C            4.07534409995614        0.11651039069347        0.38456639100577
F            4.69802499898498       -1.03546531516047        0.08329116492422
F            4.40254970871201        0.38685266329283        1.66683496300512
F            4.66110959795473        1.06992477204136       -0.35497538177301
C            1.92618230309511       -1.15589283792747        0.39922205625294
C            0.55802763579774       -1.21488653127520        0.24221203644680
H           -4.47800087640930        0.73119335597183       -1.43032999619182
H           -3.80424920794646       -1.08590191829868        0.95295884598218
H           -5.41982305501419       -0.89323492007213        0.12734035890250
H           -1.90771977295897       -1.12431066773499       -0.06670060456954
H           -0.04353838604896        2.00243545154183       -0.62086695540136
H            2.40098834924856        2.11244320731473       -0.34144120008825
H            2.48123007259830       -2.03717723459511        0.68140825507026
H            0.04169876244638       -2.14979073873753        0.40623604312746