36
 
C           -5.71829504621060       -0.24462355000521       -2.09259717713459
C           -4.74932704270214       -1.23192213644273       -2.03024370512243
C           -3.66698418767810       -1.09115394969534       -1.18159082103902
C           -3.53992969439640        0.03788616097561       -0.37638348484967
C           -2.38859089422755        0.19418400604304        0.52625908522383
C           -2.55920542913313        0.66737231415885        1.82542474404779
C           -1.46737102680141        0.81282198376805        2.66015671198370
C           -0.19102167893016        0.50270583826315        2.22546440379184
C           -0.00794978723728        0.03226687873753        0.92946202259096
N            1.25090284494287       -0.29750885030778        0.40922763734868
C            2.47832711053137       -0.18985335723115        0.99134603941061
O            2.68240933129069        0.21402292782009        2.11239102031831
C            3.59621160790075       -0.62360429278575        0.04711853673114
C            4.92748991023644       -0.68819411604455        0.77832836214384
S            6.31184400060040       -1.08262734580577       -0.33617593236016
C            6.58629958646507        0.54963874062479       -1.08293624548127
C           -1.10802848250534       -0.12345236825220        0.09170410558353
C           -4.52307774060068        1.02196843961520       -0.44296362102684
C           -5.60143509905658        0.88249337956895       -1.29672774481756
H           -6.56166655305889       -0.35369751940214       -2.75833831072427
H           -4.83902511821481       -2.11607951102798       -2.64443963204749
H           -2.92323681024967       -1.87276700455583       -1.12352616271539
H           -3.55110310777384        0.90007261413376        2.18244363084265
H           -1.60740395025149        1.17384212949778        3.66807903847734
H            0.65745771596739        0.62297139031948        2.87664755112380
H            1.22652963034338       -0.64325992363183       -0.54066755535109
H            3.36263782860238       -1.59975397685408       -0.38377020826280
H            3.64921659964948        0.10359210977882       -0.76847392864977
H            5.14528526516737        0.25607671610857        1.27599806074873
H            4.91227836314790       -1.48014314346659        1.52561688942203
H            5.72931318455149        0.83779139904645       -1.68518628538647
H            7.46326321313312        0.45903723745996       -1.71472860698357
H            6.76661660199978        1.27833941987045       -0.29779567901502
H           -0.96254067553195       -0.47538181300933       -0.92102343500689
H           -4.42711663382249        1.90986638361553        0.16461545934735
H           -6.35277383614641        1.65707278911217       -1.34374640986365