31
 
O            2.09956747877280       -1.11613084806717        1.22513254906374
C            1.75036322003676       -0.68688126428266        0.11265577304480
C            2.53856533305437       -0.47797634296217       -1.00536440876605
C            3.97075454756325       -0.69461618514142       -0.97210018603502
N            0.35956561458176       -0.39251924754489       -0.15340906071742
C           -0.71718673462324       -0.47987594510664        0.64205111449640
C           -0.60496929475666       -0.87856649691588        1.99411717725425
C           -1.69864564371330       -0.95883359743690        2.80940359592175
C           -2.97626665496126       -0.64485784315217        2.32870516292592
C           -3.12262816940863       -0.25828313578628        1.02322085187646
C           -2.02452657034433       -0.16562703956874        0.15061148466604
C           -2.24065833278942        0.23381004442985       -1.21991045720374
O           -3.56196497850243        0.46102134863087       -1.51869055589711
C           -3.81123973732760        0.84127479986691       -2.85294233438016
O           -1.39524770964051        0.37758979369293       -2.09225982064195
H            2.10361212094673       -0.07975745224796       -1.91078396645398
H            4.26978015712884       -1.26594615105525       -0.09548584534495
H            4.39202820291987       -1.11495501913663       -1.88455650178199
H            0.16585752005314       -0.09015404235973       -1.10274141431774
H            0.38605018342394       -1.11834977051629        2.34636831023577
H           -1.57809734103688       -1.26734104947259        3.83975997397951
H           -3.83548042973737       -0.70847535376393        2.98260407311072
H           -4.10039454100167       -0.01338189349988        0.63547787464092
H           -3.50933919580612        0.04816286821808       -3.54320572339140
H           -4.88271380301869        1.01916000937372       -2.92575822735904
H           -3.25517261220694        1.74795509545825       -3.10728066271783
S            5.00690496754639        0.92284838307800       -0.82230475285612
C            4.19008788916329        1.59488629109778        0.64069501861229
H            4.57176815385134        1.10189720195546        1.53237129839681
H            4.38655866961142        2.66317294387518        0.68078736719941
H            3.12306769021662        1.40074989834164        0.53692244028127