25
 
O            0.80852814079598        0.15337031301214        1.43131735528781
C            0.87183248901447        0.65073385943862        0.29625081645466
C            1.93008605550383        1.33799116390331       -0.28106948202207
C            3.20102660943876        1.47643053161819        0.37479621615378
N           -0.28169334930180        0.60141653722937       -0.57128063687034
C           -1.53633408147502        0.12211377101085       -0.35451353821955
C           -2.50136390397522        0.25004820979643       -1.36799276294817
C           -3.78260020776414       -0.22774081338478       -1.19374420854236
C           -4.14841623981813       -0.84731905880008       -0.00954008916573
C           -3.20317839676600       -0.97979362426565        0.99858376238182
C           -1.91910887318130       -0.50841474770286        0.83893731142698
H            1.83965485064826        1.71262151069485       -1.29371461520843
H            3.72024981603234        2.41754016825413        0.20525024604611
H            3.15057356211909        1.22501127631439        1.43059611579032
H           -0.13677579602293        1.03905550893273       -1.47035163487239
H           -2.22629231234361        0.73366063848174       -2.29838610311866
H           -4.50747112750010       -0.11509952916621       -1.99156689002641
H           -5.15504614309966       -1.22087435250424        0.12502842860198
H           -3.47816982174020       -1.46268024762199        1.92810412976046
H           -1.17897075545833       -0.60542707766890        1.61632158352618
S            4.58342226848938        0.23913997307254       -0.28365301231149
C            3.63057417911253       -1.28249673041434       -0.11352351000001
H            3.76195423952915       -1.69136629298266        0.88601403743766
H            2.58459040703606       -1.02441723266559       -0.27821059049757
H            3.97292839072429       -1.99350375458225       -0.86106231700051