21
 
O            1.42846423849352       -1.46598126083844       -1.32194828053920
C            1.70559001471512       -0.61621798817890       -0.50369541062908
C            3.09736280287033       -0.27833783953923       -0.11803219773454
C            4.12183185788982       -0.91215156187553       -0.67041328719343
N            0.77473998707602        0.13946981407427        0.16861958661533
C           -0.61010018185987        0.10440742023993        0.07018608840861
C           -1.29729678556167       -0.75795267151628       -0.77935296767310
C           -2.67893321925788       -0.73522785561544       -0.82279039059392
C           -3.40715493427241        0.13932434695496       -0.02830704190761
C           -2.74532744926366        1.00248231390416        0.82081547466787
C           -1.35204009088202        0.99169030205860        0.87620210548333
C           -0.67879616072844        1.87429528134275        1.74607002665759
N           -0.10358248021217        2.58405108987699        2.44198819715209
H            3.23768789988692        0.49661569710909        0.62283880693534
H            3.94243384256980       -1.67951852579826       -1.40612387952849
H            5.14461353072268       -0.69466478895510       -0.41638304553578
H            1.12979009790877        0.81991794683531        0.83011319442360
H           -0.73927367086913       -1.43946982920177       -1.39885042342516
H           -3.19473587980810       -1.41125890083359       -1.48762575827194
H           -4.48513633131533        0.14659871573801       -0.07202930023435
H           -3.29013708810263        1.69192829421832        1.44871850292267