26
 
C           -4.66025177124139       -0.41441484349109       -0.07345370043629
C           -3.81956801264267       -1.16290528834934        0.73236766164291
C           -2.46284289479632       -0.89774089194605        0.78106931346556
C           -1.93533352874765        0.13401885807991        0.01137754075931
N           -0.57317951211819        0.46173402400956        0.00672396085750
C            0.45464202351506       -0.11093486628743        0.69511368018111
O            0.34669710087161       -1.04415836590921        1.45590476590938
C            1.78935114979521        0.56079449874563        0.38443227236110
C            2.89776171878158       -0.00477867181418        1.25771957161313
S            4.50951201121586        0.76991941865304        0.91504093201979
C            4.97365377705531       -0.12493246379310       -0.59565398890488
C           -2.78240171384702        0.88722870677077       -0.79937066123130
H           -2.37457060453266        1.69029507665318       -1.39867879881914
C           -4.13556799941509        0.61289737646537       -0.83993511021249
H           -5.71781310962345       -0.62821079126805       -0.10515536134436
H           -4.22135502304614       -1.96507665375952        1.33322894338804
H           -1.81100535140591       -1.48101927211987        1.40880238485506
H           -0.33909793185631        1.23876292757549       -0.59682323985325
H            1.70545269598579        1.63767920798777        0.54959678598817
H            2.01746105314275        0.39529201405199       -0.67243777542150
H            2.99682625633129       -1.08075631108502        1.11998738206682
H            2.68953352693103        0.19389239580251        2.30793209806173
H            5.96620013809255        0.21821948051588       -0.86685835287196
H            4.27600237397167        0.10189637279385       -1.39679370288233
H            4.99129678112863       -1.19179032066274       -0.39145856895489
H           -4.78140315354538        1.20408838238071       -1.47226643445782