25
 
O            0.86472110678370       -1.40713997155378        0.52908902798845
C            0.93481964388544       -0.17272358653010        0.63009777913135
C            2.03019942977758        0.59747185420084        0.99620886858495
C            3.32946285399394        0.02499942454832        1.21406561983872
N           -0.24528185250424        0.63115877275013        0.41311392441821
C           -1.52320435617733        0.27082642353980        0.11642527148430
C           -2.49974364660162        1.27145716567558       -0.02643812401245
C           -3.80596625643876        0.95190408824056       -0.32949734851407
C           -4.18604319896352       -0.36938469388449       -0.50128228432811
C           -3.22951892426100       -1.36631499582479       -0.36365432992696
C           -1.92075328374657       -1.06281532970545       -0.06098722097740
H            1.94024278398138        1.67676434167735        1.03565387134716
H            3.29424361664012       -1.05641623253173        1.31348145761814
H            3.92418140762034        0.48672311280433        1.99966087864965
H           -0.09023551273789        1.62440790821888        0.51797332616878
H           -2.21366779804748        2.30862630545474        0.10595491252414
H           -4.53902467232647        1.74350817014938       -0.43306069221787
H           -3.51552963567958       -2.40236328381775       -0.49612816415620
H           -1.17221262754193       -1.83090037025802        0.04839668145326
H           -5.21206353314244       -0.61794776464057       -0.73876250076180
S            4.57605733456628        0.26627784088019       -0.29407463747145
C            3.47900532340903       -0.31266253546256       -1.60245346910486
H            3.72108183204429        0.21683156911771       -2.52058441515700
H            2.46001453804999       -0.08681730683414       -1.28601471211660
H            3.59921542740137       -1.38547090622393       -1.74053421599811