29
Properties=species:S:1:pos:R:3:charge:R:1:forces:R:3 17_TS=T (SP=-1102.787714358178,U=-1102.54847165,H=-1102.54752744,G=-1102.6067896) energy=-30005.36742249452 pbc="F F F"
N       -2.98590638       0.17648116       0.12306335      -0.34326482      -0.00182826      -0.00188324      -0.00346505
C       -1.88550764       0.97618976       0.43416626       0.41672125      -0.00088007       0.00380828       0.00364487
C       -1.00255749       0.41285936       1.39891453      -0.25686476       0.00068261       0.00256667      -0.00064382
C        0.34544216       0.91106106       1.39811860      -0.08695950       0.00189039       0.00189359      -0.00228654
O       -1.63749445       2.02601373      -0.14698149      -0.41590750       0.00230158      -0.00263691       0.00070766
S        0.54598227      -0.47845926       0.08985369      -0.14144593      -0.00035154       0.00412960       0.00354295
C        2.25528279      -0.65287830      -0.57813298      -0.17633919       0.00649380      -0.00333549       0.00017641
H       -1.26388368      -0.43997347       2.00125766       0.13165535      -0.00305128      -0.00053637      -0.00397176
H        0.45857019       1.88379853       0.93006493       0.12985414       0.00217789      -0.00297817      -0.00141786
H        0.94468762       0.76412740       2.29223204       0.12693013      -0.00306430      -0.00356191      -0.00055318
H        2.61947961       0.20285552      -1.15193687       0.10427789      -0.00475844       0.00182037       0.00087155
H        3.00730596      -0.93494820       0.16192890       0.10326288      -0.00023866      -0.00533621       0.00228163
H        2.11131808      -1.48813639      -1.26219338       0.10229286      -0.00105272       0.00345601      -0.00163417
C       -4.02490793       0.47903901      -0.75230003       0.12508328      -0.00293200       0.00338387       0.00322171
C       -5.04669961      -0.50461346      -0.89874973      -0.17722543       0.00163414       0.00538610      -0.00044781
C       -6.09513146      -0.27564689      -1.72502082      -0.17653383       0.00060210      -0.00120728      -0.00011854
C       -6.17377543       0.93963232      -2.44786987       0.07723567      -0.00463535       0.00046180       0.00466750
C       -5.15796481       1.90363693      -2.30933508       0.27150506      -0.00291144      -0.00341047       0.00219579
C       -4.06896093       1.66237771      -1.44627719      -0.16526473       0.00493137      -0.00165184      -0.00717560
N       -5.22061072       3.07580983      -3.00611208      -0.41193315      -0.00273393      -0.00291548       0.00313350
C       -6.25217435       3.24062927      -3.78150955       0.26562092       0.00242612      -0.00179975       0.00107442
N       -7.28719963       2.38297453      -3.98608647      -0.40153158       0.00175985       0.00164894       0.00289353
C       -7.23057793       1.25977439      -3.32195768       0.07995023       0.00520879      -0.00201961      -0.00565248
H       -4.97486476      -1.43354084      -0.34888503       0.13344480      -0.00162388       0.00760799       0.00155205
H       -6.87653024      -1.01189748      -1.84180032       0.13107498       0.00147246      -0.00241053       0.00235201
H       -3.27457936       2.37937015      -1.32150217       0.14175057      -0.00340547      -0.00016723       0.00329356
H       -6.30730592       4.16797693      -4.33745711       0.06228224      -0.00561460       0.00018923      -0.00182964
H       -8.04480211       0.55611278      -3.46535050       0.08641429       0.00430422       0.00064427      -0.00148570
H       -3.07312671      -0.66951170       0.65238763       0.26391396       0.00319722      -0.00114555      -0.00492744
