34
Properties=species:S:1:pos:R:3:charge:R:1:forces:R:3 28_adduct=T (SP=-938.842670639807,U=-938.51666358,H=-938.51571937,G=-938.57495332) energy=-25546.897381223447 pbc="F F F"
N       -2.88005824       0.31520493       0.12704354      -0.41355053      -0.00543732      -0.00587864      -0.00486644
C       -2.76564272       0.40323161       1.47733809       0.33493546       0.00018226       0.00239912       0.00451063
C       -2.17320575      -0.82130224       2.13943896      -0.17028767       0.00471810       0.00171000      -0.00364710
H       -2.35927418      -0.85468890       3.21486689       0.07303760      -0.00234299      -0.00095985       0.00486252
C       -0.66451146      -0.62986663       1.81670128      -0.11479085       0.00356722      -0.00043425       0.00102275
O       -2.89582896       1.47049338       2.08964115      -0.49133527       0.00222581       0.00728538       0.00363806
S       -0.06283878      -1.92143744       0.63281896      -0.26547024       0.00081162      -0.00033705       0.00379257
C        1.15184295      -0.82481113      -0.15774044      -0.22003397       0.00400427       0.00389728      -0.00186326
H       -2.55508655      -1.74832697       1.71253533       0.07937805       0.00315396      -0.00169383      -0.00318862
H       -0.54751330       0.25737508       1.20632609       0.08015990      -0.00250118      -0.00365572       0.00185297
C        0.27923865      -0.52704512       3.00454164      -0.04576969       0.00032226      -0.00070579       0.00163009
H        0.63650400       0.08455238      -0.47111731       0.06599338       0.00109617      -0.00223514       0.00463187
H        1.96618350      -0.58104404       0.52576954       0.06796930      -0.00058675      -0.00164959      -0.00236083
H        1.55899111      -1.33415448      -1.02319475       0.11593790      -0.00407004      -0.00028534      -0.00376935
C       -2.83010119       1.51453258      -0.70009969      -0.11568632      -0.00116124      -0.00396977       0.00101359
H       -2.43671983      -0.49966334      -0.26923861       0.24831134       0.00004149      -0.00249667      -0.00011239
H        1.29049030      -0.77326094       2.67716345       0.06242446      -0.00017651       0.00741904       0.00057844
H       -0.00571816      -1.22321518       3.79376801       0.06810450      -0.00131271      -0.00830258      -0.00163779
N        0.38551009       0.84920614       3.62854659       0.00038925       0.00122660      -0.00095559      -0.00535854
C        0.58792823       1.89808023       2.60807284      -0.09429161       0.00325845       0.00327851      -0.00144871
C        1.55711182       0.84115629       4.53022849      -0.10619565      -0.00330999      -0.00095110      -0.00406518
H        1.45826496       0.01730864       5.23247422       0.07995871      -0.00080466      -0.00105965       0.00639817
H        1.60430510       1.78395229       5.06598433       0.08786329       0.00409152       0.00037736       0.00128401
H        2.45511938       0.70105864       3.93372711       0.07456478       0.00116795      -0.00500072      -0.00136573
H       -0.35251714       2.10720717       2.09407780       0.07203206      -0.00210934      -0.00213808       0.00791324
H        1.34069745       1.54950416       1.89654804       0.05995539      -0.00465543       0.00205017      -0.00171678
H        0.95509556       2.79344302       3.10768690       0.08387689       0.00212544       0.00441239       0.00013518
H       -1.89965065       2.06803452      -0.54086011       0.06299406       0.00223540       0.00126239      -0.00281677
H       -2.91104389       1.22708159      -1.74556618       0.08784537      -0.00009503       0.00307378       0.00106618
H       -3.65855905       2.16579573      -0.44046991       0.09123673       0.00300042      -0.00018362       0.00201359
C       -0.82624563       1.17053178       4.42145827      -0.10679312      -0.00067585       0.00347203      -0.00642990
H       -1.69244318       1.15083118       3.77374557       0.08849785       0.00125681      -0.00053772      -0.00209755
H       -0.92653746       0.43703300       5.21798611       0.07469656      -0.00557477       0.00103677      -0.00149197
H       -0.71478322       2.16826293       4.83241138       0.08404239      -0.00367249       0.00175586       0.00189281
