26
Properties=species:S:1:pos:R:3:charge:R:1:forces:R:3 2_carbanion=T (SP=-1009.306036415135,U=-1009.0905738,H=-1009.08962959,G=-1009.14671959) energy=-27460.555068951682 pbc="F F F"
C        1.88794461      -1.36571946      -0.13626430      -0.17412119      -0.00150353       0.00611855      -0.00072792
H        2.36679264      -0.40580680       0.04885020       0.09047093       0.00652988      -0.00013665       0.00329143
H        1.96493301      -1.62543915      -1.19201323       0.10210636       0.00305956       0.00930949       0.00088108
S        0.14548478      -1.34732834       0.42407236      -0.02941954       0.00501764       0.00713746       0.00006428
C       -2.56353149      -1.37863743      -0.70111755       0.42623594      -0.00497162      -0.00450346       0.00031477
O       -2.26223445      -1.70357003      -1.83614240      -0.47224933       0.00239995      -0.00167221       0.00473703
C       -1.78352482      -0.38238417       0.05521271      -0.10498010      -0.00794634      -0.00297023      -0.00107695
C       -0.53974904       0.03333750      -0.55398605      -0.03324568      -0.00373847      -0.00740693       0.00287627
H       -0.53483163      -0.32808876      -1.57461904       0.12133772      -0.00447373      -0.00007051       0.00023914
C        0.03275026       1.40306456      -0.39149961       0.05707547       0.00016017      -0.00206439      -0.00031800
C        0.47806336       2.07970119      -1.51873308      -0.13056129       0.00233611      -0.00492015       0.00140761
C        0.14320481       2.01782111       0.85152449      -0.10233758      -0.00434731      -0.00013120      -0.00318801
C        1.01863947       3.35456310      -1.41932087      -0.13814354      -0.00301861       0.00252856       0.00194634
H        0.38695486       1.60722520      -2.48592178       0.12739387       0.00262487      -0.00505651      -0.00120712
C        0.68494565       3.28721681       0.95385376      -0.12685578       0.00196697      -0.00023103      -0.00199173
H       -0.17430834       1.50525219       1.74734153       0.11880340       0.00043818      -0.00149923      -0.00105222
C        1.12043030       3.95864948      -0.18004245      -0.14507490       0.00125712       0.00331974       0.00220697
H        1.35421795       3.87543743      -2.30341504       0.14108288       0.00245933      -0.00503423       0.00061540
H        0.76696221       3.75890221       1.92150952       0.13839144      -0.00469623      -0.00591409      -0.00196156
H        1.53596486       4.95029825      -0.09650703       0.13880733       0.00382849       0.00315846       0.00263236
C       -2.30759451       0.14580399       1.25577863       0.24186684       0.00460050       0.00578025       0.00501603
N       -2.75206552       0.51523942       2.25601763      -0.39632189      -0.00194564      -0.00374704      -0.00767925
N       -3.61303447      -1.93297655      -0.03150420      -0.61428076       0.00405406       0.00293059      -0.00536697
H       -4.22969452      -2.52976466      -0.55590884       0.34391335      -0.00094473       0.00538309       0.00326977
H       -3.95076258      -1.50943094       0.81235592       0.29377627      -0.00042386       0.00075455       0.00344120
H        2.39111309      -2.12991644       0.45302955       0.12632972      -0.00272276      -0.00106306      -0.00836930
