21
Properties=species:S:1:pos:R:3:charge:R:1:forces:R:3 21_TS=T (SP=-1062.261861176438,U=-1062.0959178,H=-1062.0949736,G=-1062.14755823) energy=-28903.73208713168 pbc="F F F"
N       -3.31291382      -0.01276548       0.03328977      -0.43500033       0.00183132       0.00269557      -0.00274973
C       -2.10289842       0.51828488       0.35443706       0.45641956       0.00416342       0.00193382      -0.00472219
C       -1.31731126      -0.20763664       1.34758610      -0.14377891       0.00497564      -0.00311473       0.00142382
C       -0.01068840       0.17977776       1.49823600      -0.05358304       0.00630776      -0.00105856       0.00692194
O       -1.70772097       1.54840007      -0.17432310      -0.44473866      -0.00038778       0.00715432      -0.00398705
S        1.29603541      -0.64816230      -0.27054437      -0.14490290      -0.00026388      -0.00631265      -0.00128281
C        2.71372014       0.39854719      -0.18264837      -0.21846369      -0.00138561       0.00059151       0.00126372
H       -1.72166207      -1.05431976       1.87969181       0.13592651       0.00106673      -0.00246514       0.00279938
H        0.18079347       1.19332103       1.17289210       0.15239595      -0.00227045      -0.00221705       0.00012071
C        0.69296953      -0.30760644       2.72787525       0.30731571       0.00705219       0.00185513       0.00555012
H        2.44620299       1.44524427      -0.30787982       0.10483787      -0.00740941      -0.00014967      -0.00534006
H        3.26477240       0.29042186       0.75088006       0.09990756       0.00187499      -0.00193310      -0.00282569
H        3.36868816       0.10774731      -1.00554203       0.12177304       0.00119871       0.00192332       0.00627225
C       -4.13386794       0.60037823      -0.99045765      -0.13052142      -0.00331222       0.00212458      -0.00317470
H       -3.57517299      -0.89434362       0.42659647       0.29941097      -0.00759671      -0.00557557      -0.00098672
H       -3.63159280       0.59376149      -1.95705506       0.09379407      -0.00251544      -0.00079391      -0.00306297
H       -5.07220190       0.05867525      -1.07107029       0.09811614      -0.00152315       0.00236147       0.00307484
H       -4.33642967       1.63836076      -0.73779150       0.09625275      -0.00318965       0.00138479      -0.00003477
F        0.14119578       0.17871956       3.86085128      -0.13884494      -0.00877754      -0.00192154       0.00029114
F        0.64709626      -1.64177505       2.81850947      -0.12452190       0.00362245       0.00293890      -0.00418993
F        1.98529029       0.05896824       2.75466067      -0.13179439       0.00653739       0.00057759       0.00463864
