28
Properties=species:S:1:pos:R:3:charge:R:1:forces:R:3 24_carbanion=T (SP=-956.301215800905,U=-956.05719985,H=-956.05625565,G=-956.11229426) energy=-26018.15126741741 pbc="F F F"
N       -2.93712397      -0.26873033      -0.33013866      -0.13436602      -0.00507781      -0.00310466      -0.00210405
C       -1.75360391       0.47471657      -0.18684405       0.42839926       0.00065953      -0.00246449      -0.00591340
C       -0.93172448       0.18206237       0.93894112      -0.22843763      -0.00083716       0.00660796       0.00526956
C        0.38132825       0.81223404       0.96203158      -0.10465159      -0.00072915       0.00113907       0.00293815
O       -1.39538090       1.30844862      -1.02003301      -0.43237674       0.00240741       0.00145598       0.00406738
S        1.01267967      -0.73743917       0.20390486      -0.12805733      -0.00205666       0.00148625       0.00267559
C        2.83953605      -0.59367662       0.08022953      -0.18153000      -0.00217575       0.00787111      -0.00356740
H        0.47024203       1.63751678       0.25921355       0.12042979       0.00221811       0.00178263      -0.00300538
H        0.80087125       1.03035783       1.94402028       0.11429609      -0.00216396      -0.00737274      -0.00078023
H        3.19745631       0.16587800      -0.61780542       0.10039250      -0.00288868      -0.00713394       0.00050251
H        3.29963483      -0.42958637       1.05571738       0.09630271       0.00298862       0.00152441      -0.00309607
H        3.13707458      -1.57319298      -0.28960995       0.10827120      -0.00562035       0.00311478       0.00257743
C       -4.08990321       0.21275843      -0.97252993       0.11705119       0.00008258       0.00090025      -0.00197988
C       -5.28870106      -0.50545726      -0.88022309      -0.17589903       0.00528083      -0.00393518       0.00001642
C       -6.43390175      -0.03770328      -1.49799818      -0.15076947      -0.00024174       0.00218728       0.00143741
C       -6.41712115       1.14809898      -2.21274856      -0.15940984       0.00362278       0.00047617       0.00327410
C       -5.23433393       1.86410503      -2.29716624      -0.14669526      -0.00094012       0.00549592      -0.00096059
C       -4.07426001       1.41707910      -1.68975505      -0.14364722       0.00234035      -0.00214533      -0.00671193
H       -5.34573898      -1.42309379      -0.32033513       0.12312977       0.00125763      -0.00763508       0.00547411
H       -7.34878373      -0.60759556      -1.41818067       0.13258472      -0.00202361       0.00204211       0.00066239
H       -3.14494066       1.95964411      -1.75752883       0.13918516       0.00095220      -0.00088475       0.00398274
H       -5.21871174       2.79212629      -2.85114265       0.13358213       0.00241704      -0.00107850      -0.00578592
H       -7.31118296       1.50980717      -2.69624015       0.13647611       0.00197509       0.00156944       0.00511168
H       -1.21218045      -0.44439396       1.76828061       0.12190022      -0.00414194      -0.00345209      -0.00397976
C       -2.98280277      -1.60462933       0.22885058      -0.13929169      -0.00339028      -0.00323031      -0.00252268
H       -3.55892770      -1.64854848       1.15399801       0.08004282       0.00406783      -0.00069162      -0.00119868
H       -3.44151354      -2.28033737      -0.48973579       0.08733498       0.00406441      -0.00004911      -0.00354111
H       -1.96946961      -1.93426027       0.41800484       0.08575317      -0.00204701       0.00552335       0.00715722
