30
Properties=species:S:1:pos:R:3:charge:R:1:forces:R:3 25_adduct=T (SP=-1032.07259400475,U=-1031.80850624,H=-1031.80756203,G=-1031.86722496) energy=-28084.84479222147 pbc="F F F"
N       -2.95301971       0.01383909       0.06564185      -0.35587668      -0.00186440      -0.00108182      -0.00316118
C       -1.99134125       0.77084510       0.65892689       0.41391867      -0.00107845       0.00134185      -0.00337457
C       -0.98517534       0.01143368       1.51106785      -0.14789386      -0.00189773       0.00124424      -0.00089815
C        0.41829909       0.22816610       0.97143630      -0.12042103      -0.00069005      -0.00017065      -0.00038346
O       -1.89294797       1.97435329       0.53311904      -0.43424091       0.00035275      -0.00054400       0.00259075
S        0.61163135      -0.72060659      -0.55608007      -0.18662164       0.00476801      -0.00182289      -0.00265427
C        2.27838135      -0.20077579      -0.99304876      -0.19980927       0.00059780       0.00082994      -0.00075358
H       -2.94332844      -0.96785327       0.27071802       0.26417205       0.00018281       0.00146299      -0.00202702
H        0.56197164       1.28762004       0.76777823       0.10327037       0.00003292      -0.00020572       0.00236752
H        1.16353491      -0.10123521       1.69253775       0.09301365      -0.00263692      -0.00051755       0.00252558
H        2.32413896       0.87136436      -1.16885501       0.09208105       0.00007349       0.00024460       0.00649804
H        3.00019286      -0.47300206      -0.22591988       0.09135895      -0.00431127      -0.00315162      -0.00695657
H        2.54185522      -0.71405130      -1.91380384       0.11527405      -0.00470731       0.00087099      -0.00424840
C       -4.01703434       0.48960605      -0.74666543       0.09867158      -0.00003096      -0.00001464      -0.00019691
C       -5.23818531      -0.16255546      -0.69679964      -0.15605259       0.00367153       0.00140223       0.00648730
C       -6.30177980       0.24828872      -1.48951242      -0.17136471       0.00454398      -0.00023653       0.00205334
C       -6.13184885       1.32479396      -2.35176545       0.14936599       0.00147976       0.00327515       0.00060921
C       -4.90146521       1.97295693      -2.41010445      -0.15977813      -0.00051048       0.00350646      -0.00126271
C       -3.85290044       1.56619045      -1.61133032      -0.10691072      -0.00015806       0.00093910      -0.00174504
H       -5.36985225      -0.99727364      -0.01982940       0.12804683      -0.00003272       0.00431115       0.00202355
H       -7.24261369      -0.27287782      -1.42089623       0.12965089      -0.00183688      -0.00060502      -0.00632660
H       -2.90171392       2.07408116      -1.64235626       0.13387899       0.00225036      -0.00073903       0.00187510
H       -1.05308774       0.43066781       2.51456739       0.09073799      -0.00109923       0.00070448       0.00279109
H       -4.78995026       2.80659403      -3.08775370       0.13688873       0.00354027      -0.00089625       0.00194678
H       -1.22417166      -1.05038161       1.57229156       0.07285823      -0.00168681       0.00009634       0.00048685
O       -7.10238136       1.81513453      -3.17345691      -0.24289592      -0.00725950      -0.00512041      -0.00128834
C       -8.37838017       1.21048317      -3.10358050      -0.08262830       0.00412880       0.00315457       0.00337144
H       -9.00939462       1.75395652      -3.79911688       0.09582295       0.00103371      -0.00880706       0.00009956
H       -8.34066874       0.16025553      -3.40004935       0.07782532       0.00079460       0.00445278       0.00464937
H       -8.80304602       1.28786344      -2.10068461       0.07765751       0.00234976      -0.00392436      -0.00509736
