7
 energy: -10.800178780406 gnorm: 0.000172290746 xtb: 6.7.1 (edcfbbe)
C           -0.58000705975059       -0.51044500960503       -0.00002501108268
C            0.00181239671010        0.77137093696812        0.00001535443642
C            1.31775654117269        0.95935565960638        0.00000717488772
H           -0.70370342521658        1.59124451155535        0.00001417946403
H            1.73859557629423        1.94936983171734       -0.00000134501693
H            2.00584479103648        0.13052261804904       -0.00001079734461
N           -1.06500782024633       -1.55199554829120        0.00000044465605
