27
 energy: -41.511478498805 gnorm: 0.000170224652 xtb: 6.7.1 (edcfbbe)
C            3.25570063017110       -0.87625969724507       -1.33224272645771
C            1.91029592398319       -0.75058801836334       -1.08269275050054
C            1.44447528283258       -0.36869511180721        0.20099687724285
C            2.41769056825459       -0.11771909878258        1.20248212948986
C            3.75812306960118       -0.25342556980019        0.93734117776827
C            4.18972610002540       -0.63547516657819       -0.32948437414214
C            0.08962218368187       -0.22838306078186        0.50669982612400
C           -1.00856127130199       -0.48898277221746       -0.41173149815853
C           -2.36425343239663       -0.55048211863839        0.22948887218406
O           -2.70670071261670        0.12582844068973        1.17956336743665
O           -3.16072169333608       -1.39949725440582       -0.40327300510956
C           -4.52232823673139       -1.48803345767737        0.02859608533253
S           -1.29067799900251        0.95321515226242       -1.62729462484421
C           -1.23156063793793        2.36588801066100       -0.49716796074544
H           -0.19143177130811        0.15779120901477        1.47659563306758
H           -0.86351269199950       -1.32693673666244       -1.09186324235501
H           -0.21335141936101        2.50282845205205       -0.14677560868199
H           -1.55668680160365        3.22540259624400       -1.07298145115700
H           -1.91148014471294        2.18571194268710        0.33179393648467
H           -4.88763958663988       -2.44074271085200       -0.34198565176696
H           -4.57192806974822       -1.44022801216331        1.11708112386996
H           -5.09322754474515       -0.66259884744438       -0.39742503904949
H            2.08116072767581        0.17903082817606        2.18465781852061
H            4.48227374796882       -0.06125238099159        1.71471413542641
H            5.24361722531647       -0.74027058082239       -0.53385304018342
H            3.59165138299454       -1.16323367759083       -2.31732209398703
H            1.19852317093166       -0.92209835891260       -1.87451191580421
