15
 energy: -22.827427852344 gnorm: 0.000474733194 xtb: 6.7.1 (edcfbbe)
N           -2.31845008647112       -0.42669360046292       -0.71279731281968
C           -1.25698073356849        0.15534647773134       -0.09866566940154
C           -0.79242991169904       -0.47483294024362        1.09586555643281
C            0.35826177687140        0.03258290000004        1.83329031581350
O           -0.73520967354551        1.18469577011645       -0.57995312388745
S            1.79676734517184       -0.86241447127694        1.04330689528251
C            2.26840486699224        0.32931737384465       -0.23176393376960
H           -1.21032575896916       -1.42499023674790        1.38345592083953
H            0.53298836249620        1.09519405818527        1.68776962984370
H            0.37378548004969       -0.24836809914787        2.88135888734949
H            1.36394477094377        0.72753978260543       -0.68770437395195
H            2.84425201346224        1.12757997194929        0.22651046111908
H            2.86324532601596       -0.20159071134039       -0.96647677267827
H           -2.70291222921720        0.01515920430765       -1.52979500067581
H           -2.77277154853340       -1.23089547952077       -0.32078147949672
