41
 energy: -61.354967801093 gnorm: 0.000231061953 xtb: 6.7.1 (edcfbbe)
N           -3.19522640779999        0.45817818707387        0.36307202811570
C           -2.40375877659816        1.39179420963038        0.95191215635196
C           -1.64968824203008        0.85622155747894        2.14997067076741
H           -1.43515561448690        1.67924462809190        2.83205555264755
C           -0.30914701276345        0.26528086281463        1.70384672692878
O           -2.26059758728371        2.53669780843065        0.54788691609833
S           -0.55893239347576       -1.19325942531091        0.60637988806005
C           -0.15933946877377       -0.47058429281629       -1.01052744104075
H           -2.22572401061915        0.09539465721376        2.67390618685942
H            0.23639599113285        0.99368435847254        1.10210472275281
C            0.52120940769357       -0.18656678295235        2.90479443277352
H           -0.76354518783205        0.41684607530502       -1.17489449240063
H            0.89906950650352       -0.22966657512134       -1.04253890967185
H           -0.39283762223284       -1.22547939005637       -1.75311565365593
C           -3.93613253348910        0.54414676588523       -0.81370906625647
C           -4.40004181890502       -0.62571177977699       -1.37559480405161
C           -5.15690998125058       -0.58493959952302       -2.55610005401162
C           -5.44697668047378        0.66410597167674       -3.17392756813921
C           -4.96320296462692        1.84585725887858       -2.57657637113346
C           -4.22933860477037        1.78482374005049       -1.42651518898881
H           -4.18383714117207       -1.58230439632446       -0.92350334994414
H           -3.85565034637918        2.68684085638450       -0.96983098294282
H           -3.11375591923476       -0.48313252430970        0.73371213321590
H            1.49186646158433       -0.56875732678788        2.53948012438018
H           -0.00378029451072       -1.01665183889762        3.38395073979530
N            0.68699436943936        0.86657512108890        3.89072803123872
C            1.56739805126632        1.92169197582929        3.42646268487522
C            1.14701740734350        0.32705647453207        5.15645688408935
H            0.42865660842701       -0.40759778242189        5.51415741373836
H            1.20832067647805        1.13612044425091        5.88130275986722
H            2.13487678269697       -0.15173791955728        5.07909984125932
H            1.13955841265583        2.40056237050725        2.54809246456639
H            2.57314829082990        1.54996319080688        3.17367624286569
H            1.66105700502474        2.67146807510508        4.20917224393424
H           -5.18924879279758        2.78842441128302       -3.04695612028630
N           -6.17260986610870        0.72012902093961       -4.31285521242460
C           -6.58726860984101       -0.40962333105061       -4.81022647317877
N           -6.37421678026740       -1.64101996777725       -4.31686346914298
H           -7.16789432469808       -0.36279665938035       -5.72215613655140
C           -5.67431312920466       -1.72154468980520       -3.21437498736853
H           -5.50472885942372       -2.71625373988065       -2.82094456400588
