42
 energy: -61.811781795197 gnorm: 0.000400046550 xtb: 6.7.1 (edcfbbe)
N           -3.20820912558253        0.68024950719573        0.30844887641322
C           -2.29636606029914        1.55001834281495        0.78122502522904
C           -1.63721384543786        1.10616764842501        2.08221299585226
H           -1.43550440865022        2.02010463485401        2.64323573301626
C           -0.32556476195796        0.38062573175426        1.75754172096068
O           -1.94672340033506        2.59719064876705        0.22961648962255
S           -0.63663544509635       -1.09098823982649        0.66220487405448
C           -0.26418535094578       -0.40841066487062       -0.96470555272069
H           -2.30357458653847        0.45168438792738        2.64122452700447
H            0.32616011791460        1.03582000832307        1.17934955820676
C            0.36578912807729       -0.19265608999976        2.99685128614696
H           -0.83922904128049        0.49793176689340       -1.13333171700557
H            0.80174314593049       -0.21582114722729       -1.04252902535604
H           -0.56179790787404       -1.16053368041375       -1.68985264706828
C           -3.88711794952487        0.66657413654773       -0.92246101209069
C           -4.60409759667031       -0.49226000753990       -1.23596543172003
C           -5.29921831901204       -0.59101878025796       -2.45010764090927
C           -5.26015187377606        0.50496246914548       -3.36709309890981
C           -4.53510951954668        1.64610577042465       -3.02652124974899
C           -3.85569429733386        1.72879875886044       -1.81322532267868
H           -4.63199820341894       -1.32903886226300       -0.55045183106968
H           -3.30442291653477        2.62357893349775       -1.57150952830303
H           -3.35440573269351       -0.16687369541143        0.84459361659242
H            1.29387184936647       -0.67101331875386        2.68159217262138
H           -0.28744604544834       -0.96236029064163        3.41111498126384
N            0.67466411071997        0.79840649712357        4.05180826914784
C            1.62491445647583        1.82354813415543        3.59293091276158
C            1.19253767724667        0.11493488336433        5.24914987517481
H            0.47367540216201       -0.61620466052620        5.60865467597286
H            1.38416339658298        0.83849525976726        6.03699173044225
H            2.12085146839801       -0.39538093358729        5.00484644957198
H            1.20803987751637        2.39439720977972        2.76791677272279
H            2.54446363523356        1.34564535171769        3.26401948975071
H            1.85398630624194        2.50736959555868        4.40611766721895
H           -4.51202571136595        2.47158120543497       -3.72257285642999
N           -5.92065594170194        0.44363191101935       -4.56292229021669
C           -6.58435488554885       -0.68345050403487       -4.79694257153436
N           -6.69676102520476       -1.75409150517450       -4.04115619702530
H           -7.10804510205817       -0.72280670148225       -5.75183935940754
C           -6.04592507171964       -1.70577425937187       -2.85475198031064
H           -6.13975859012057       -2.58885719875996       -2.23241338559375
H           -0.20192785618347        1.26688774675713        4.30819499834067
