29
 energy: -48.196621104095 gnorm: 0.000101003798 xtb: 6.7.1 (edcfbbe)
N           -3.09210777031935       -0.01014857801810       -0.23607280906383
C           -1.74582197148538        0.47220029991031       -0.20436504463939
C           -0.96143837154152       -0.16040559217015        0.72883976843858
C            0.45152539593851        0.17971144037197        0.87574082291247
O           -1.39725850177414        1.42243634975298       -0.95966765947202
S            1.62240994148530       -1.07054062387973        0.08297575005386
C            3.16988988795039       -0.12575208098872        0.25137054470724
H           -1.34534424583782       -0.98947017497129        1.30503852552589
H            0.66108003647631        1.11793643797376        0.35981529524844
H            0.78990719137090        0.21550028098679        1.91315824887278
H            3.08674306355499        0.78878108757456       -0.32969623531147
H            3.33664680716615        0.09795912455941        1.30083890139203
H            3.96267960776852       -0.75394958529375       -0.13633150149397
C           -4.17521248185703        0.41382257242795       -0.93514682177205
C           -5.39263036239945       -0.30663282729954       -0.74889164651393
C           -6.53460232985446        0.04475049190080       -1.39338801657888
C           -6.54080557539846        1.14837204782937       -2.27558081513947
C           -5.32609879720517        1.87803367112662       -2.47423531675852
C           -4.16490787652078        1.50000199143184       -1.80331031337002
N           -5.31517880721283        2.94558096801199       -3.31908285662003
C           -6.43533417581252        3.24675695402126       -3.91053701072745
N           -7.62215478926512        2.63414173713315       -3.79883006701639
C           -7.65713039771956        1.59602148421495       -2.98437893466550
H           -5.38455966502810       -1.14989113891206       -0.07305700483928
H           -7.45086588147773       -0.50702925226348       -1.24406489785424
H           -3.25149784246850        2.05014150342806       -1.95729641026035
H           -6.41188985610343        4.09963304060570       -4.57885737933084
H           -8.61418573468087        1.09658994014272       -2.88888263174199
H           -3.24699049774960       -0.80415756960735        0.36985051601792
