41
 energy: -61.356000611795 gnorm: 0.000242365092 xtb: 6.7.1 (edcfbbe)
N           -3.22083747885273        0.38815805163244        0.45700442700437
C           -2.49015745301727        1.31719111743282        1.13038505118060
C           -1.67014212802004        0.72198678174107        2.25421055756265
H           -1.49862846029684        1.48434284114081        3.01454085805750
C           -0.30255938977505        0.28664081673243        1.71854481801741
O           -2.44085509714804        2.50225875825633        0.83901460684279
S           -0.47457527961175       -1.08627922190700        0.50302784578866
C           -0.19517936479602       -0.19900702673367       -1.05609633366714
H           -2.17236704428584       -0.13167371800068        2.70617894815330
H            0.15943200420079        1.10786342175603        1.16844592179995
C            0.60558565988599       -0.19514537036451        2.84913994551085
H           -0.87388531719598        0.64627705350534       -1.12524736304138
H            0.83846367252052        0.13121142965158       -1.09957954923186
H           -0.39487115398926       -0.90607155389637       -1.85368786293691
C           -3.96555260729136        0.54254597425322       -0.70650580000852
C           -4.35469560380280       -0.64998947856814       -1.36818383715554
C           -5.08338105627182       -0.60842544948738       -2.51794159728794
C           -5.46305450770328        0.63509095749082       -3.06491359545933
C           -5.07653640133860        1.83481511234511       -2.40291712008868
C           -4.32428958782811        1.76961851030745       -1.21798153377965
N           -5.43154063154766        3.04004490117979       -2.90889623125940
C           -6.12756791434448        3.04203730859110       -4.00884264800635
N           -6.54185847862354        1.97791395841698       -4.71462423341163
C           -6.21137472054290        0.79926656353365       -4.24358689199184
H           -4.05335175428177       -1.59750974441634       -0.94796899842540
H           -5.37766427059949       -1.51380020125715       -3.02581785118154
H           -4.03710294561468        2.68767318536386       -0.73484312732911
H           -6.40910176749451        4.00811474353425       -4.40814846432077
H           -6.54640471593755       -0.05854982115841       -4.81379064698156
H           -3.07436740758878       -0.57630708490325        0.73807938275749
H            1.58877184589683       -0.46460163246751        2.42193654428421
H            0.16616801032721       -1.10222135644479        3.27143388667595
N            0.72591261076477        0.78156708345772        3.91707122017252
C            1.49097747870256        1.94652804827166        3.51506351660404
C            1.28989297245032        0.17918435667191        5.11047054354357
H            0.65745482645100       -0.64748913023957        5.42707391510566
H            1.31212618168474        0.92439235112842        5.90288831625913
H            2.31194417655676       -0.19698986268190        4.95231052574214
H            0.98296086633780        2.46099238392060        2.70197412190255
H            2.51111663848240        1.68803368866409        3.18941427815317
H            1.55872559354480        2.63074125352461        4.35815445443803
