36
 energy: -54.365666778675 gnorm: 0.000079383865 xtb: 6.7.1 (edcfbbe)
N           -3.56848301265954        0.14821112676328        0.05014979622625
C           -2.28993421257072        0.62927895853431        0.23984585778938
C           -1.58842247321414       -0.01074031795035        1.32612308562755
C           -0.29540048554774        0.28043773445555        1.61051072535947
O           -1.78393487197665        1.53911698166348       -0.45363762528972
H           -2.12858391738916       -0.74940985496145        1.90126209672753
H            0.20001541653133        0.99820985316597        0.97490381269890
C            0.45575262230812       -0.33907280960030        2.73724897085073
C           -4.53199976473254        0.49471171827781       -0.87502187430513
C           -5.72758853407242       -0.25014112556089       -0.86730996866967
C           -6.73916654238628        0.02016383544752       -1.74577728525370
C           -6.60559972893904        1.06554471976467       -2.68793696722806
C           -5.39551568964771        1.82819203948236       -2.69661581778662
C           -4.37984030357328        1.53611040517422       -1.79583305761798
N           -5.24030819486028        2.85064876372227       -3.59664181874635
C           -6.24365072099821        3.06345935846090       -4.41468603632041
N           -7.40341236631036        2.42348699558248       -4.50012558642802
C           -7.57294648857024        1.41978514282569       -3.62529363734956
H           -5.84110689322163       -1.05344617207832       -0.15217732470215
H           -7.65309530646711       -0.55639155802036       -1.73824960064545
H           -3.47217012319007        2.11520422557648       -1.81807673062567
H           -6.10905073392021        3.87689866042864       -5.12330166716147
H           -8.51804871778480        0.89284572374900       -3.69050823350605
H           -3.84044770444133       -0.61625922596413        0.65521263643033
H            1.48839186724837       -0.53969325142706        2.44864140768856
H           -0.02807488270639       -1.27118706630669        3.03124363244644
N            0.49316313782644        0.55528829128124        3.94332584979014
C            1.24246073271793        1.79093305168860        3.67300187747669
C            1.04965410335859       -0.14956839136306        5.10721087638812
H            0.45996285511063       -1.03463237901174        5.33101997077163
H            1.04910210351453        0.50471157316732        5.97524751676627
H            2.07224541734500       -0.45097216866466        4.89236681274993
H            0.79685038603040        2.32122619882087        2.83522381402142
H            2.27294658425592        1.54455576644467        3.42774408210466
H            1.22815932689619        2.43593849779842        4.54771058288749
H           -0.47837688396375        0.81651869863372        4.14565282683496
