41
 energy: -61.629056941197 gnorm: 0.000088442698 xtb: 6.7.1 (edcfbbe)
N           -3.06722218495021       -0.01063184325673        0.11865301526940
C           -1.89078812111019        0.55597998113446        0.45387479139134
C           -1.13728543069750       -0.22770128811594        1.52212299404268
C            0.32879007021330        0.17919368858269        1.59946673212392
O           -1.44629750549345        1.61057139982234       -0.01877095303693
S            1.31389053694827       -0.66413627372094        0.29320766529613
C            1.49615283641456        0.66060253919010       -0.93216594276417
H           -1.21317874170132       -1.29788401323034        1.32632661704971
H            0.42068813842222        1.24514899611736        1.38153089374828
C            0.94626132887606       -0.17331939474364        2.95102576252260
H            0.52680842023151        1.12164621389825       -1.10005931903320
H            2.21132618755867        1.39094211517754       -0.56495527979875
H            1.85887665262424        0.19743068922241       -1.84288670913438
C           -4.05370171742601        0.39466569438046       -0.79019350811951
C           -5.20331160169082       -0.38937225938770       -0.87215146457598
C           -6.22165372010135       -0.06693615917857       -1.74215424834442
C           -6.11904991487130        1.06858098236582       -2.57509214515223
C           -4.93757810387577        1.87173944424405       -2.49202880846960
C           -3.92583296588868        1.52980976202362       -1.60667997251314
N           -4.80123636707769        2.98376443600892       -3.29042512771525
C           -5.81285534451273        3.23441041302991       -4.10404433707437
N           -6.94292095262151        2.57730386636108       -4.26894939826905
C           -7.08982205055022        1.47713143828640       -3.48667078531999
H           -5.29677621507548       -1.26362007099770       -0.24159005738759
H           -7.11272275411771       -0.67641126983001       -1.80190880893776
H           -3.04412428948971        2.14663131330351       -1.55317268717640
H           -5.69129771727877        4.11760577113202       -4.73124071312517
H           -8.01751088834687        0.93051536253834       -3.61645201086078
H           -3.30330317365638       -0.86395277492041        0.61007845224932
H            1.99164311383397        0.18412770441412        2.96235424534831
H            0.96483239020288       -1.26292850257881        3.03546003507941
N            0.18019527604051        0.34870637941371        4.07005290094226
C            0.21393540468431        1.79753217703944        4.13263797470949
C            0.63542701821055       -0.23285326164375        5.31949249468079
H            0.53673676307456       -1.31475729731489        5.26336546449624
H            0.00601990392393        0.13638532704539        6.12641428477921
H            1.68317298592406        0.01681218559757        5.54341120708306
H           -0.24299382208907        2.21634354201681        3.23788254800803
H            1.23914897944947        2.18986840405633        4.22169284643035
H           -0.36298866423801        2.12544964854409        4.99491254896709
H           -1.59175375978392       -0.01543506602896        2.49438880257856
