19
 energy: -26.561202350073 gnorm: 0.000173588254 xtb: 6.7.1 (edcfbbe)
N           -2.72344542862803        0.08041885282653        0.08605593190951
C           -2.09171676270513        0.97030593617996        0.85643771267560
C           -1.03201928831772        0.38127674813297        1.77527510998976
C            0.32288216984997        0.40307407288263        1.07699462739433
O           -2.32523430944740        2.17729474814390        0.82952091173602
S            0.35358968533808       -0.76193502893546       -0.33642930930854
C            2.04896657836882       -0.46358333961245       -0.90434520356981
H           -2.42355895462224       -0.88315428907576        0.10241964761229
H            0.53591935621703        1.40074168670145        0.68934088999830
H            1.11270286459132        0.09533334248927        1.76274967103425
H            2.14561221518497        0.57488444538581       -1.20800725258366
H            2.74320927818767       -0.70129423006658       -0.10389472080953
H            2.21220200198586       -1.12011534598993       -1.75169369979428
C           -3.67701531370487        0.44829701851329       -0.93529221431518
H           -0.97245236871310        1.00621472260161        2.66742842064281
H           -1.28898059697035       -0.63869096855258        2.05919427701618
H           -3.27450965456871        0.23046353074033       -1.92484803888925
H           -4.60707270195993       -0.09961821653536       -0.79178104165629
H           -3.86507877008700        1.51708631417034       -0.84812571908392
