33
 energy: -48.677334386867 gnorm: 0.000092010960 xtb: 6.7.1 (edcfbbe)
N           -2.72505528148320        0.03866832477065        0.03951487333542
C           -2.21476914589937        0.93221970220152        0.89138749082951
C           -1.15579474231317        0.38079657786066        1.83355426523146
C            0.20802082375255        0.37264674093959        1.15149904693747
O           -2.54153961934568        2.11680473882178        0.90503460715218
S            0.29722726074826       -0.91907461197102       -0.14464980398103
C            1.93527585706320       -0.52954747894343       -0.81676881783505
H           -2.40043170068304       -0.91643103187969        0.06915667977457
H            0.40382251669971        1.33432880145182        0.67464928758526
H            0.99366789919958        0.15303265884244        1.87504563478061
H            1.92132971879894        0.47463014028617       -1.23052577287592
H            2.67747361221539       -0.61613295745649       -0.02891533360011
H            2.12926787755561       -1.25583323088349       -1.59819723745070
C           -3.71116765864163        0.36394090922869       -0.97245689097605
H           -1.10640390638464        1.03929910384073        2.70199813551556
H           -1.41716002150782       -0.62715244657567        2.15546009110170
H           -3.32133213516318        0.08657104275435       -1.95477075575792
H           -3.85356930353162        1.44762140462907       -0.92955270065801
C           -5.01125667816315       -0.34737579806173       -0.70073166356437
C           -5.74965069100491       -0.02558050923886        0.43449155432303
C           -5.46687141844023       -1.33792142449358       -1.54971703960725
C           -6.92863503321434       -0.69248844246280        0.69976217189279
H           -5.39275785736162        0.74802857337803        1.09795410982422
C           -6.66124788752287       -2.01039708318831       -1.28581582000667
H           -4.91574303920196       -1.61057717188305       -2.43608223859464
C           -7.39367180143970       -1.68347858930167       -0.15128031866218
H           -7.50285862331946       -0.44224125284006        1.57879754201706
H           -8.31888944121960       -2.18576445968084        0.07921243420111
O           -7.01158777669906       -2.96442094890366       -2.19605306491176
C           -8.20678665119211       -3.69286291337113       -1.99040107505040
H           -8.26766133721928       -4.38434401980538       -2.82772151554381
H           -8.17134542847006       -4.25340471491713       -1.05265705953932
H           -9.07789838661262       -3.03255963313677       -1.99522081588464
