29
 energy: -39.238785627897 gnorm: 0.000195557151 xtb: 6.7.1 (edcfbbe)
N           -2.73907296858872        0.34478984112006       -0.13684490263788
C           -1.72812384930171        1.05967380589870        0.44902994620640
C           -0.77572191357395        0.27785852759063        1.18181275437969
C            0.30680503239685        0.82769456904992        1.81690270114626
O           -1.71806115665937        2.30676962296274        0.37052654260493
S            2.16078268757693        0.91593760887186        0.30342920164087
C            1.21669389929122        0.76139287695363       -1.21503988038170
H           -0.88858306166809       -0.79757150833441        1.16881510365232
H            0.33609870130920        1.90941127042947        1.87805283522748
C            1.06239121159238        0.06016306020072        2.86288240376505
H            0.17314353881226        0.57668340513978       -0.93325616997965
H            1.28144118004819        1.68682448996343       -1.78524548442719
H            1.59899272798760       -0.07334253525118       -1.79851185658656
C           -3.75065460817707        0.94343041033647       -0.97084107884406
H           -2.67854822869282       -0.65964118606024       -0.12073031298170
H            2.01297221172612        0.58503605729624        3.07180574248470
H            1.31047791491207       -0.92602520139352        2.46075912111426
N            0.28062669161576       -0.14090039904287        4.07935061888732
C           -0.11899378110265        1.11825497045920        4.67589740837628
C            1.03100011179581       -0.94270026999195        5.02668878366097
H            1.27132581634054       -1.89832836260651        4.56495268418304
H            0.41207685940911       -1.11607367821501        5.90470813722147
H            1.96971166809982       -0.45723763471494        5.33728443031475
H           -0.75066786032448        1.65857749687018        3.97317772132193
H            0.74442516450108        1.75389815241830        4.93186846852823
H           -0.69061189244716        0.91311672232533        5.57906705834188
H           -3.62325370336887        0.65177418990961       -2.01638751595224
H           -4.74393323813961        0.65304046594429       -0.62728390450462
H           -3.63473915535144        2.02349323185643       -0.88487055677208
