18
 energy: -31.125236006258 gnorm: 0.000663225537 xtb: 6.7.1 (edcfbbe)
O           -1.07439463512149        0.94162953903893       -0.47585887894752
C           -1.31018723275566       -0.34729906581555       -0.27482245033766
C           -0.79950193531967       -0.81149403078660        1.05012440532010
C           -0.40876495666361        0.02131994196431        2.02045519289977
O           -1.89461532821753       -1.05953993121079       -1.06459372208082
S            1.56375110414464       -0.92595380117283       -1.06876591496771
C            2.26131883794334        0.65274498427434       -0.57355029350795
C           -0.78368197766876       -2.21676125370083        1.22867766698383
H           -0.44185187012617        1.08670573913066        1.87272114498457
H           -0.06048924822699       -0.35406014636397        2.96732600620558
H            2.81114585348779        1.06277793069702       -1.41578262930305
H            1.44732796157224        1.31529943262025       -0.29110913763183
H            2.92727899555307        0.48628195037978        0.26811070123250
C           -1.52119364978297        1.49599691187335       -1.71585439353813
N           -0.76655319932422       -3.35157025224500        1.39188666471428
H           -1.30601356837267        2.55815733921493       -1.65561279485417
H           -2.58898395583475        1.31610160061150       -1.84369932583732
H           -0.98348919528377        1.03091711149268       -2.54343224132865
