30
 energy: -46.419432984316 gnorm: 0.000259000900 xtb: 6.7.1 (edcfbbe)
C           -1.18100770014915        2.16951837098375       -0.29443367710377
H           -2.12447860887072        1.63287891655396       -0.27399393870739
H           -0.85486213085831        2.35261703096669       -1.31356210214027
S            0.08206545435004        1.19866016808751        0.58052550169516
C            1.17304897824616       -1.25576894273919       -0.08967466399327
C            0.00419861244629       -0.31283185622873       -0.47017032708628
H            0.17630757161095        0.02679085489475       -1.49655891527738
C           -1.31613610487194       -1.02557143088049       -0.37440906136763
C           -1.87209043543593       -1.58414423113026       -1.51961834926963
C           -1.98143428312348       -1.15265193306673        0.83770627372428
C           -3.07400041782801       -2.26575569127338       -1.45094340769525
H           -1.36403310878525       -1.48350435068676       -2.46774569613122
C           -3.18447424452942       -1.83267623186800        0.90365150422842
H           -1.55676662379996       -0.71020955462535        1.72649623654279
C           -3.73180849555976       -2.39186092529071       -0.23890625721422
H           -3.49779343829882       -2.69578019056401       -2.34531149913929
H           -3.69318714438597       -1.92387798377562        1.85067945497435
H           -4.67050625233954       -2.92116746547951       -0.18553731891387
N            2.45119644804920       -0.61378867185998       -0.27644230920833
C            3.01946095142239       -0.29403224276303       -1.45800150944949
C            4.23644897539424        0.39418712311905        0.23364395167816
C            4.19008715505990        0.36316162057768       -1.16700118723579
H            2.57091618969532       -0.55925271211368       -2.39322232998969
H            4.98788150940756        0.81308234320449        0.87195395155581
H            4.90757684096283        0.76238762131516       -1.85270481353174
N            3.18038091303677       -0.19748036281684        0.75696501270804
C            1.05511131380888       -1.71468142486701        1.28034823129883
N            0.94305531462430       -2.11852768906028        2.34323877508161
H            1.11534504511564       -2.14246452698385       -0.73963808996827
H           -1.26727228439421        3.10577436837081        0.24531655993511
