18
 energy: -27.188644251181 gnorm: 0.000169032670 xtb: 6.7.1 (edcfbbe)
C            3.15896457865328       -2.02624667321875        0.00000426553174
S            2.56133217270647       -0.31210882018701       -0.00001121797484
C            0.76338203319315       -0.64571606867750       -0.00000490704507
C           -0.00251607517489        0.66571841488743       -0.00000154635497
C           -1.49302491244376        0.43389794123458       -0.00000390572491
H            4.24199534899533       -1.97631661002854       -0.00000097094071
H            2.80415538127813       -2.52864504733131        0.89467474663637
H            2.80414756475744       -2.52866404901377       -0.89465245344735
H            0.52760857631914       -1.23218001029908        0.88853499998837
H            0.52760173076041       -1.23217899105889       -0.88854373687570
H            0.25332719951358        1.26102156224348        0.87874192275844
H            0.25332779511143        1.26102558803380       -0.87874217423776
O           -2.15867845285503        1.58126051510542        0.00000489179572
O           -2.03157924451677       -0.65209942700191       -0.00001105778107
C           -3.58858018732160        1.51747399312923        0.00000313110699
H           -3.92547301966077        2.54908135231233        0.00001081464245
H           -3.93840577050677        0.98987163763944       -0.88787520213139
H           -3.93840771880875        0.98985769223102        0.88787240005369
