20
Properties=species:S:1:pos:R:3:charge:R:1:forces:R:3 energy=-13025.509278119127 pbc="F F F"
C        4.18667900       0.58112605       0.19273077      -0.27694994      -0.00063779       0.00015797      -0.00334767
C        3.12206747      -0.17257744      -0.03530119      -0.15192676      -0.00338363      -0.00069936       0.00114207
C        1.74766029       0.41378475       0.04157208       0.44842821      -0.00643890       0.00112174       0.00224881
O        1.56090441       1.58339435       0.30932841      -0.43428388      -0.00215517      -0.00050299      -0.00038090
N        0.74362745      -0.48239234      -0.21491251      -0.36170763       0.00091211      -0.00335338       0.00034678
C       -0.64961793      -0.26015003      -0.22736002       0.12605655       0.00411762      -0.00035639      -0.00085726
C       -1.46350160      -1.35262631      -0.52296627      -0.16816668       0.00712112       0.00381853      -0.00266577
C       -2.83988559      -1.21737747      -0.55605724      -0.13869256       0.00057764      -0.00393629       0.00299858
C       -3.42452126       0.01268421      -0.29281126      -0.15798961       0.00191532      -0.00304741       0.00124132
C       -2.61270050       1.09686299       0.00091528      -0.13588329      -0.00233124       0.00528509      -0.00015326
H       -3.05617357       2.06024299       0.20751603       0.13514748      -0.00296817       0.00737131       0.00207192
C       -1.23089315       0.97593255       0.03675023      -0.12454889       0.00598203      -0.00263561       0.00332219
H        4.06809862       1.62677646       0.43827408       0.15899412       0.00271709       0.00415856      -0.00064883
H        5.18856964       0.17852148       0.13981568       0.14654890       0.00290879       0.00138003       0.00448580
H        3.22391531      -1.22310967      -0.28076296       0.12171219      -0.00260145      -0.00321038      -0.00256079
H        1.01695151      -1.42499647      -0.42239859       0.26806360       0.00102573      -0.00717896      -0.00354504
H       -1.01145695      -2.31490719      -0.72891529       0.13085490       0.00159698       0.00332687       0.00133441
H       -3.45658515      -2.07416348      -0.78719347       0.13597128      -0.00330502      -0.00475178      -0.00122064
H       -4.49884162       0.12238128      -0.31604798       0.13753487      -0.00261720       0.00344499      -0.00197190
H       -0.60319864       1.81744796       0.26509053       0.14083713      -0.00243598      -0.00039315      -0.00183967
