25
Properties=species:S:1:pos:R:3:charge:R:1:forces:R:3 energy=-24950.590308574472 pbc="F F F"
O        0.39344174       0.39411433      -1.66080394      -0.50972205       0.00451447       0.00100371      -0.00256306
C        0.75446163      -0.49374488      -0.85596892       0.31517118       0.00096811       0.00189191       0.00130738
C        1.95122736      -1.18867230      -0.82879643      -0.47584829       0.00022367       0.00145281       0.00327506
C        3.04658034      -0.85274795      -1.75565543      -0.11261614      -0.00040354      -0.00332762       0.00317047
N       -0.15910083      -0.85246844       0.21063330      -0.38522905      -0.00215035      -0.00445466       0.00340514
C       -1.41710544      -0.39118266       0.50506655       0.21092607       0.00011066       0.00297131       0.00703165
C       -2.13544943       0.48974158      -0.32249069      -0.13723046       0.00089155       0.00188750      -0.00154141
C       -3.41092625       0.88870279       0.03884440      -0.16167961       0.00008008       0.00288078      -0.00242471
C       -4.01771424       0.45035193       1.21071741      -0.22145545      -0.00398863      -0.00145991      -0.00561714
C       -3.31088108      -0.41682726       2.03252388      -0.17675135       0.00010276       0.00625388      -0.00004550
C       -2.03782565      -0.83046322       1.69020905      -0.18853760      -0.00114159      -0.00415983       0.00489781
H        2.17636843      -1.87234364      -0.01863629       0.10601463       0.00085766      -0.00705277      -0.00475822
H        2.67377292      -0.26695540      -2.59951851       0.08584195       0.00273192      -0.00719472       0.00497988
H        3.56795014      -1.72629055      -2.14916002       0.07191781       0.00061097       0.00324569      -0.00251209
H        0.23685229      -1.49390414       0.86956410       0.23782398       0.00061687      -0.00315059       0.00620876
H       -1.65783491       0.83121059      -1.22368846       0.12434936      -0.00222863       0.00150945      -0.00549404
H       -3.94590189       1.56374367      -0.61743368       0.11052021       0.00172134       0.00870908       0.00063263
H       -3.75576981      -0.77561621       2.95283285       0.11187745       0.00721205      -0.00088006      -0.00209758
H       -1.49872491      -1.50516911       2.34557521       0.10715231       0.00012718      -0.00905368       0.00100107
H       -5.01327687       0.77645584       1.47621665       0.11806469      -0.00286356      -0.00239173       0.00039977
S        4.43003933       0.15150975      -1.01942747      -0.30638474      -0.00436172       0.00235238      -0.00175876
C        3.43045931       1.56285233      -0.52032241      -0.19516712      -0.00217057       0.00761783      -0.00124886
H        2.89880126       1.97119668      -1.37583960       0.08533028      -0.00171532       0.00445490       0.00381291
H        4.08751469       2.32320393      -0.09901144       0.09349383      -0.00203412       0.00134726      -0.00241435
H        2.69985756       1.24572171       0.21795045       0.09213826       0.00228804      -0.00445314      -0.00764630
