25
Properties=species:S:1:pos:R:3:charge:R:1:forces:R:3 energy=-24950.4279140211 pbc="F F F"
O       -0.34219449      -2.47895913       1.18912745      -0.57786995       0.00311021      -0.00622838      -0.00568593
C        0.43917320      -1.62824769       0.72026586       0.30844641       0.00163802      -0.00103536       0.00799294
C        1.83069419      -1.67487528       0.73760867      -0.48495877       0.00209356      -0.00276356       0.00389811
C        2.70208002      -0.57064567       0.33872615      -0.11181322      -0.00073032       0.00051118      -0.00245385
N       -0.12081687      -0.45611498       0.08822967      -0.31462505       0.00115853      -0.00312916      -0.00254776
C       -1.44254303      -0.11422644      -0.06666518       0.19208270      -0.00009183      -0.00036892      -0.00143295
C       -1.76592750       0.91903899      -0.96376729      -0.19408023       0.00081299       0.00163454      -0.00038565
C       -3.06632150       1.35326067      -1.13147072      -0.18024497       0.00034707       0.00012622       0.00360300
C       -4.10035146       0.77160534      -0.41024667      -0.20936465      -0.00291307       0.00113805      -0.00341302
C       -3.79129245      -0.25665404       0.47215914      -0.16972466      -0.00400268       0.00137256      -0.00261844
C       -2.49433649      -0.70927944       0.64986353      -0.13611066      -0.00022530       0.00243628       0.00008508
H        2.26013852      -2.58597687       1.12447918       0.10619730      -0.00085730      -0.00067661       0.00767910
H        3.70355286      -0.68484919       0.75495061       0.07097743      -0.00299016       0.00417019      -0.00229786
H        2.32413810       0.41044832       0.65486392       0.07202632      -0.00074638      -0.00371413       0.00310078
H        0.50653149       0.03274571      -0.52808986       0.24151361      -0.00283888       0.00126721      -0.00274581
H       -0.96744344       1.37493699      -1.53685167       0.11688385       0.00464177       0.00316901       0.00751214
H       -3.27352051       2.15265195      -1.83211913       0.11473894       0.00350891      -0.00173675      -0.00114223
H       -5.11975176       1.10714561      -0.53650395       0.11936212      -0.00509831       0.00045366       0.00163470
H       -2.24919709      -1.52132206       1.31255379       0.12783787       0.00189368       0.00448237      -0.00153527
H       -4.58750718      -0.72474700       1.03786771       0.11279429      -0.00041375      -0.00249070      -0.00086003
S        3.01383263      -0.34746306      -1.50107137      -0.25490719       0.00539257       0.00009695      -0.00214776
C        3.97961734       1.16481142      -1.35305853      -0.18898022       0.00241726       0.00655162      -0.00191896
H        4.29674171       1.48725282      -2.34328188       0.09478078      -0.00690375      -0.00243316       0.00001552
H        3.38655096       1.95894500      -0.90099935       0.07072543       0.00398672      -0.00111577      -0.00010755
H        4.86496745       1.00293783      -0.73988153       0.07431252      -0.00318856      -0.00171732      -0.00422837
