22
Properties=species:S:1:pos:R:3:charge:R:1:forces:R:3 energy=-18594.104505285144 pbc="F F F"
O        1.63824291      -1.43089819       1.75578946      -0.44040304       0.00378786       0.00601939       0.00302583
C        1.87424500      -0.68181114       0.83074503       0.44053400       0.00006068       0.00495030      -0.00055896
C        3.29336610      -0.40583420       0.44334867      -0.15079978      -0.00283468      -0.00024984      -0.00139927
C        3.72423468       0.17588663      -0.66509150      -0.27226543      -0.00115111      -0.00753373      -0.00165089
N        0.91366850      -0.03267984       0.08791147      -0.28444058      -0.00118080       0.00158835       0.00034949
C       -0.46884729      -0.11764423       0.21103191       0.09086452      -0.00252189      -0.00786977      -0.00035776
C       -1.08227998      -0.92094787       1.18447177      -0.12031577      -0.00269917      -0.00143653       0.00315060
C       -2.45491669      -0.98877557       1.29498112      -0.12863921      -0.00258752      -0.00004129      -0.00154808
C       -3.28620224      -0.26860624       0.44587384      -0.13363023       0.00143792      -0.00197761      -0.00504611
C       -2.71628091       0.52422354      -0.52002181      -0.13976450      -0.00232509       0.00630113      -0.00116606
C       -1.33125456       0.60340581      -0.64077090       0.08759353      -0.00132219      -0.00174696       0.00382220
N       -0.84889390       1.48235373      -1.71196392       0.45396030      -0.00074610       0.00325703       0.00500878
O       -1.66700373       2.03685054      -2.41050751      -0.33268121       0.00267160       0.00003446      -0.00192051
O        0.35887210       1.63277350      -1.87021872      -0.32342419      -0.00314204      -0.00039959       0.00277688
H        3.99506645      -0.77376462       1.17616903       0.12966293       0.00117273       0.00367438      -0.00606727
H        3.06141068       0.51572445      -1.44559514       0.13919704       0.00228764      -0.00265688       0.00169585
H        4.78239097       0.31349749      -0.83855507       0.15270153      -0.00401226       0.00014464       0.00019316
H        1.22400325       0.61883720      -0.62030455       0.24729559       0.00764992       0.00100264       0.00274389
H       -0.45053413      -1.48369272       1.84666270       0.14450790      -0.00250672      -0.00207233       0.00231659
H       -2.88315402      -1.61791441       2.06159296       0.14329463       0.00364528      -0.00230008      -0.00290522
H       -4.35969472      -0.32628010       0.53517593       0.14733866       0.00514758       0.00079280       0.00348668
H       -3.32209377       1.09842003      -1.19897148       0.14941332      -0.00083255       0.00051988      -0.00594899
