20
Properties=species:S:1:pos:R:3:charge:R:1:forces:R:3 energy=-13025.509263323396 pbc="F F F"
C        4.23595759      -0.12586812       0.16671865      -0.27687088       0.00121691       0.00068510       0.00044570
C        3.06401248      -0.55525777      -0.27557143      -0.15201521      -0.00162771       0.00132614       0.00282402
C        1.79586282       0.07727599       0.20428167       0.44841513      -0.00795882       0.00519018      -0.00207663
O        1.79471523       0.99344525       1.00121434      -0.43433011      -0.00350957       0.00054651       0.00370236
N        0.66133781      -0.46893702      -0.33538290      -0.36167631      -0.00417630      -0.00625899       0.00039397
C       -0.68309216      -0.11066221      -0.10120853       0.12609594      -0.00047811       0.00189138      -0.00140505
C       -1.66000361      -0.83400856      -0.78331352      -0.16811819       0.00000681       0.00027870      -0.00168218
C       -3.00153381      -0.54373592      -0.61013613      -0.13869365      -0.00161665      -0.00622405       0.00229235
C       -3.38812255       0.47419553       0.24935868      -0.15794757       0.00417296      -0.00167267       0.00144684
H       -4.43451192       0.70366352       0.38890282       0.13756582       0.00225767      -0.00041881      -0.00268698
C       -2.41463703       1.19126025       0.92687543      -0.13592096       0.00511439       0.00188505       0.00000157
C       -1.06542328       0.91141098       0.76170229      -0.12461670       0.00407412      -0.00100414       0.00486027
H        5.16507900      -0.56571704      -0.16743638       0.14659254       0.00493987      -0.00566993      -0.00096321
H        4.28225011       0.68433988       0.88019821       0.15895602       0.00092254       0.00597125       0.00186151
H        2.99949462      -1.36787461      -0.98959957       0.12176988      -0.00040145      -0.00029670      -0.00169303
H        0.78410079      -1.22553736      -0.98251664       0.26803440      -0.00185717      -0.00423365      -0.00629386
H       -1.36332265      -1.63041100      -1.45439337       0.13084808       0.00163608       0.00166938      -0.00054893
H       -3.74594930      -1.11462960      -1.14646870       0.13593909      -0.00605127      -0.00240288      -0.00477756
H       -2.70321192       1.98619832       1.59963936       0.13518421       0.00359905       0.00241101       0.00117885
H       -0.31190337       1.46770406       1.28775667       0.14078853      -0.00026337       0.00632720       0.00311960
