20
Properties=species:S:1:pos:R:3:charge:R:1:forces:R:3 energy=-13025.464021919031 pbc="F F F"
O        1.15129008      -2.21060490      -0.72163294      -0.45737225      -0.00634191      -0.00159343       0.00286730
C        1.59967387      -1.09095539      -0.58604212       0.46582535       0.00108139       0.00536930      -0.00267423
C        3.07574993      -0.85034164      -0.71862026      -0.14973478       0.00097829      -0.00147247       0.00467645
C        3.74372218       0.19114915      -0.24242727      -0.27897471       0.00255439      -0.00420242       0.00579446
N        0.84742679       0.02347866      -0.32224201      -0.33175719      -0.00116895       0.00075479      -0.00052700
C       -0.54270642       0.10954700      -0.10925297       0.11859226       0.00303600       0.00578564       0.00379150
C       -1.10197164       1.38537607      -0.06652382      -0.16580293      -0.00443755       0.00237746       0.00188436
C       -2.45650093       1.55452589       0.15982823      -0.13874400      -0.00659072      -0.00305282       0.00065950
C       -3.27226527       0.44909562       0.35004088      -0.15490763      -0.00064199      -0.00988290      -0.00041735
C       -2.71242515      -0.81796566       0.31098985      -0.13723801       0.00549791      -0.00822625       0.00124813
C       -1.35615479      -1.00283763       0.08283182      -0.12270385       0.00585512       0.00701256       0.00151465
H        3.58192775      -1.66349065      -1.21742407       0.12665151       0.00266905      -0.00011256      -0.00545548
H        3.25776562       0.97765608       0.31869390       0.13563158       0.00548859       0.00708545      -0.00093289
H        4.81275369       0.28346966      -0.36610818       0.15125903       0.00208020      -0.00492732      -0.00348642
H        1.31468313       0.90578857      -0.41746624       0.25498384      -0.00419534      -0.00106287       0.00306940
H       -0.46648887       2.25046679      -0.21131053       0.12893066       0.00300215      -0.00418798      -0.00496384
H       -2.87358211       2.55090131       0.18851304       0.13732715       0.00164937       0.00421277      -0.00303786
H       -4.33067268       0.57476199       0.52613266       0.13831778       0.00045580       0.00218030       0.00242413
H       -3.33777035      -1.68651077       0.45906462       0.13601436      -0.00688436      -0.00251725      -0.00163146
H       -0.92335672      -1.98665507       0.04765352       0.14370175      -0.00408830       0.00646016      -0.00480324
