25
Properties=species:S:1:pos:R:3:charge:R:1:forces:R:3 energy=-24950.591776352652 pbc="F F F"
O        1.05276492       1.35003067      -0.33714210      -0.50895208      -0.00121690      -0.00726200       0.00013903
C        0.93229196       0.17961063      -0.76444690       0.31481993       0.00440641      -0.00387093      -0.00600393
C        1.90984988      -0.63933661      -1.30243532      -0.47593352       0.00637016      -0.00257356      -0.00338200
C        3.31963886      -0.21220668      -1.34559527      -0.11254221      -0.00084708       0.00186659      -0.00317910
N       -0.37600986      -0.43895068      -0.68663300      -0.38473752      -0.00010277       0.00004005       0.00189588
C       -1.56355385       0.03702542      -0.19175553       0.21108428      -0.00218734       0.00303106       0.00094411
C       -1.74408221       1.35395413       0.26733403      -0.13751996      -0.00298907       0.00202716       0.00678185
C       -2.98487596       1.75801040       0.73051115      -0.16168343      -0.00579882      -0.00113467      -0.00102164
C       -4.07692682       0.89742329       0.76357848      -0.22140005       0.00105854      -0.00268175       0.00283363
C       -3.90090755      -0.40544165       0.31754181      -0.17673160      -0.00313223       0.00254501       0.00144003
C       -2.67242787      -0.82977358      -0.15061705      -0.18834996      -0.00489155      -0.00103905      -0.00088278
H        1.69668224      -1.67502456      -1.54007930       0.10620692      -0.00274640       0.00227535      -0.00759881
H        3.39998470       0.87075563      -1.22494802       0.08582208      -0.00187810       0.00065835       0.00089455
H        3.83191413      -0.49130449      -2.26728012       0.07187697       0.00063140      -0.00407235       0.00236747
H       -0.37799141      -1.39620932      -0.98043304       0.23740628       0.00634759      -0.00193429       0.00364024
H       -0.89437722       2.01325953       0.24354653       0.12437493       0.00003834      -0.00153179      -0.00235631
H       -3.10049363       2.77779245       1.07655778       0.11057058       0.00536876      -0.00339094      -0.00136049
H       -5.03817990       1.23164339       1.12778674       0.11809050       0.00769499       0.00195784       0.00273563
H       -4.73009126      -1.10232932       0.33420608       0.11180314      -0.00190642       0.00404774      -0.00136240
H       -2.55315838      -1.85118858      -0.49431269       0.10717088      -0.00038642      -0.00050358      -0.00401314
S        4.41322419      -0.94588012      -0.03060771      -0.30668586      -0.00084557       0.00403397       0.00668395
C        3.49975823      -0.31400793       1.38647592      -0.19605277       0.00120069       0.00554798      -0.00696697
H        3.42025593       0.76848605       1.33337547       0.08527033      -0.00414243       0.00596887       0.00256642
H        4.02673794      -0.59891033       2.29636359       0.09353490      -0.00214959      -0.00431824       0.00471000
H        2.49678535      -0.73067763       1.38355913       0.09255730       0.00210418       0.00031479       0.00049492
