20
Properties=species:S:1:pos:R:3:charge:R:1:forces:R:3 energy=-15727.60362281738 pbc="F F F"
O        1.18704490      -2.26551624       0.69641079      -0.45533970       0.00577541      -0.00330623       0.00230012
C        1.62418396      -1.16070242       0.44737394       0.45853218       0.00030050       0.00136647       0.00005036
C        3.10093522      -0.93473401       0.32570441      -0.14798872      -0.00200086      -0.00162423       0.00330026
C        3.72037384       0.23308847       0.41447716      -0.27588406      -0.00226285      -0.00219225       0.00143079
N        0.85074427      -0.04696030       0.24979819      -0.31410611       0.00052628       0.00272368      -0.00649240
C       -0.54361244       0.05608248       0.34082963       0.10312735      -0.00093708      -0.00130483       0.00095004
C       -1.39476078      -0.93692486       0.81014924      -0.12134390      -0.00261814      -0.00144593       0.00091864
C       -2.76259946      -0.69826266       0.86834171      -0.14023481      -0.00289162       0.00356939      -0.00133036
C       -3.29829346       0.51300140       0.46551186      -0.15178674      -0.00236878       0.00235039      -0.00466908
C       -2.45994585       1.51509687      -0.00666914      -0.14957668       0.00185312       0.00056633       0.00170586
C       -1.11088361       1.26451221      -0.05527769       0.07663847       0.00113363      -0.00094483       0.00124527
F       -0.26167251       2.22674692      -0.50481676      -0.13409702       0.00195473      -0.00008334       0.00202375
H        3.65104492      -1.85539061       0.19900789       0.12786783      -0.00240653      -0.00162786       0.00262614
H        4.79516924       0.30724832       0.33397322       0.15115061      -0.00452145      -0.00017246      -0.00310681
H        3.18662345       1.15368871       0.60053110       0.13751861       0.00277357       0.00049974      -0.00046631
H        1.30546390       0.76791471      -0.12387668       0.25975907      -0.00077888       0.00847513      -0.00396190
H       -0.97064856      -1.87717514       1.11556859       0.14261331       0.00104549      -0.00286473       0.00030019
H       -3.41161053      -1.47942356       1.23429879       0.13852774       0.00707246      -0.00127341       0.00081016
H       -4.36180429       0.69060919       0.51276269       0.13995662      -0.00248162      -0.00024556      -0.00092745
H       -2.83465372       2.47395485      -0.33173006       0.15466601       0.00083184      -0.00246446       0.00329262
