25
Properties=species:S:1:pos:R:3:charge:R:1:forces:R:3 energy=-27652.781467023626 pbc="F F F"
O        0.69313840       1.08601568      -1.28367328      -0.50426871       0.00495761      -0.00111856      -0.00182288
C        0.84509987      -0.14383577      -1.09657704       0.29584429      -0.00164533       0.00394867      -0.00022763
C        2.00812272      -0.88370358      -1.16530034      -0.48035020       0.00107320       0.00080493       0.00305461
C        3.30159995      -0.22842273      -1.42707851      -0.11521141       0.00103664      -0.00379835       0.00483279
N       -0.33967631      -0.91405444      -0.75980177      -0.37955141      -0.00279075      -0.00246015      -0.00422513
C       -1.47733642      -0.46054418      -0.14427843       0.20783959       0.00056366       0.00223123       0.00483685
C       -1.81489683       0.88747706       0.05465516      -0.14746933      -0.00103038       0.00191881      -0.00438369
C       -3.01021143       1.22797921       0.67428673      -0.16761638      -0.00033293       0.00132460      -0.00047889
C       -3.90767966       0.26602377       1.11452931      -0.21662076       0.00626081       0.00125411       0.00657707
C       -3.59266280      -1.07522099       0.92843969      -0.18817386      -0.00263447       0.00113601      -0.00368838
C       -2.40887481      -1.40183857       0.31735019       0.08019242      -0.00248301       0.00123124      -0.00509268
F       -2.10140280      -2.72310136       0.14078393      -0.17245927       0.00166181      -0.00394503       0.00315194
H        2.02333047      -1.92006268      -0.84950570       0.11126412       0.00522616      -0.00108745      -0.00427951
H        3.97568494      -0.82969885      -2.03749229       0.07553285      -0.00111853      -0.00362566      -0.00709554
H        3.15659971       0.73460045      -1.92270012       0.08596068       0.00056956       0.00349048       0.00533374
H       -0.15646516      -1.89329160      -0.63447503       0.25069904       0.00058115      -0.00085489       0.00074779
H       -1.11070366       1.62477924      -0.29099776       0.12604363       0.00132442      -0.00049138       0.00084829
H       -3.23766515       2.27654999       0.81315358       0.11372276      -0.00381708      -0.00504369      -0.00010036
H       -4.83437936       0.54062232       1.59619567       0.11988771      -0.00335781       0.00390670      -0.00178031
H       -4.24909492      -1.87149534       1.24865991       0.12815796       0.00202069      -0.00031238       0.00419994
S        4.33168503       0.13142917       0.08082985      -0.30169654       0.00038907       0.00344788      -0.00204504
C        3.15287369       1.22364788       0.89496287      -0.20332476       0.00105953       0.00107126       0.00202777
H        2.92606819       2.07716889       0.26126575       0.08663057      -0.00296736      -0.00116132       0.00110418
H        3.58675675       1.56610293       1.83351177       0.09588883      -0.00171280      -0.00379651      -0.00179990
H        2.22689460       0.68527565       1.08006063       0.09907815      -0.00283389       0.00192871       0.00030490
