26
Properties=species:S:1:pos:R:3:charge:R:1:forces:R:3 energy=-27668.584467806788 pbc="F F F"
C       -2.72046528      -2.42584558      -0.25100847      -0.15658666      -0.00433297       0.00574507      -0.00208009
C       -1.61338426      -1.60413377      -0.36785822      -0.14492215      -0.00102443       0.00166920       0.00230164
C       -1.42098795      -0.53554597       0.50564735       0.11787514      -0.00351982      -0.00153794      -0.00019593
N       -0.27049703       0.25945923       0.30223561      -0.32654616       0.00219512       0.00215370      -0.00171110
C        0.29195804       1.15899524       1.15922294       0.40477532       0.00069762       0.00458884       0.00277446
O       -0.15933177       1.43033075       2.25222519      -0.44215712       0.00348688      -0.00215966       0.00508960
C        1.58126706       1.79218335       0.65150691      -0.14174715       0.00654551       0.00014008      -0.00204078
C        2.74940152       0.80346865       0.57974359      -0.12186439       0.00322380      -0.00333296      -0.00224802
S        2.82258739      -0.21842489      -0.91708223      -0.17829023      -0.00097996       0.00336991       0.00245660
C        3.22102643       1.05890331      -2.12559282      -0.18355313      -0.00217541       0.00237722      -0.00029039
C       -2.35570867      -0.28436563       1.50507071      -0.10610307      -0.00267506      -0.00497153       0.00167253
C       -3.46677465      -1.10640550       1.62222215      -0.14915156      -0.00096795      -0.00378856      -0.00285479
C       -3.63287048      -2.15896488       0.74917082       0.10811062       0.00143136      -0.00416934       0.00570985
F       -4.71701285      -2.95234313       0.87636375      -0.14519934      -0.00103758      -0.00009939      -0.00592787
H       -2.88381420      -3.26035382      -0.91664298       0.15263323       0.00341835       0.00647066       0.00581849
H       -0.88480074      -1.79740074      -1.14502583       0.12703991       0.00285362      -0.00065655       0.00260494
H        0.28312992       0.01456597      -0.50768438       0.22566757       0.00492819      -0.00628648       0.00091111
H        1.83421762       2.57632202       1.35665557       0.09841525      -0.00434744       0.00039833       0.00347140
H        1.41354755       2.24576388      -0.32392699       0.06737822       0.00225177      -0.00163505      -0.00380344
H        2.71576499       0.12171395       1.42574103       0.11297665      -0.00590913       0.00190297      -0.00037033
H        3.69124888       1.34355229       0.63798887       0.09611051      -0.00176514       0.00149442       0.00106487
H        4.09032243       1.62750133      -1.80743693       0.09442083      -0.00134649      -0.00075605      -0.00728130
H        2.38729597       1.73720405      -2.28730843       0.08190479      -0.00116104      -0.00271139      -0.00169317
H        3.45249729       0.55847773      -3.06171798       0.12082272      -0.00426814       0.00012382       0.00569041
H       -2.20859347       0.53714910       2.18349633       0.13665888       0.00705793       0.00094660      -0.00197845
H       -4.20499034      -0.93851881       2.39238514       0.15133129      -0.00258060       0.00072349      -0.00709009
