25
Properties=species:S:1:pos:R:3:charge:R:1:forces:R:3 energy=-37458.919777641684 pbc="F F F"
O        0.76532617      -1.20917120      -0.76178945      -0.49829319       0.00206215       0.00149603       0.00333234
C        0.81384733       0.03463556      -0.88401123       0.30467451       0.00545434      -0.00004943      -0.00614228
C        1.84311065       0.80695839      -1.38908192      -0.48750871       0.00671805       0.00145525       0.00102781
C        3.12066636       0.19195049      -1.79387961      -0.11465108      -0.00390851      -0.00041338      -0.00592432
N       -0.33143620       0.80424622      -0.42922970      -0.38592622       0.00372499      -0.00008520      -0.00479481
C       -1.52400371       0.39740738       0.10133258       0.21351510       0.00185276       0.00005615      -0.00519622
C       -1.87059227      -0.95424141       0.28672976      -0.14371040       0.00009205       0.00026864       0.00153516
C       -3.10400695      -1.27694576       0.81994149      -0.16330823      -0.00313167      -0.00191268      -0.00391722
C       -4.03476089      -0.31040200       1.19209172      -0.18953517       0.00320927       0.00219295       0.00699958
C       -3.67437754       1.01142045       1.00758884       0.01759364      -0.00331429       0.00312994      -0.00224482
Cl      -4.80500950       2.27919296       1.46276060      -0.16669421       0.00015287      -0.00224611      -0.00274170
C       -2.45991244       1.38191269       0.47815438      -0.14650826       0.00016860      -0.00058336       0.00086795
H        1.80449442       1.88912723      -1.34661951       0.10905595      -0.00318725       0.00136252      -0.00203035
H        3.54307300       0.62521149      -2.70115201       0.07628459       0.00082858       0.00291817       0.00035111
H        3.00188096      -0.88249535      -1.95244690       0.08790464      -0.00433602       0.00015784       0.00420184
H       -0.20148870       1.79263581      -0.52537440       0.23996715       0.00615379       0.00069835       0.00460788
H       -1.15098843      -1.70032292       0.00106203       0.12486312       0.00130338       0.00166030      -0.00153627
H       -3.35372951      -2.32146365       0.95082634       0.11388838      -0.00064969      -0.00553832       0.00574899
H       -4.99562643      -0.56814891       1.60780815       0.11978925       0.00086042       0.00002026       0.00066649
H       -2.22979604       2.43247970       0.35307997       0.10827813       0.00016916      -0.00045741       0.00192127
S        4.51212141       0.36717600      -0.57317108      -0.29602844      -0.00222216       0.00157855       0.00030700
C        3.70232375      -0.46627241       0.80241336      -0.19840409       0.00115361       0.00195092      -0.00905750
H        4.40088468      -0.51674071       1.63682106       0.09700546      -0.00390512       0.00284715       0.00557767
H        2.81301445       0.08947468       1.08575996       0.09115727      -0.00286922      -0.00509910       0.00611490
H        3.40180028      -1.47036231       0.51493819       0.08659083      -0.00638006      -0.00540815       0.00032556
