26
Properties=species:S:1:pos:R:3:charge:R:1:forces:R:3 energy=-24966.504246030585 pbc="F F F"
C       -3.39725070       1.35983784       0.15056400      -0.14552332       0.00283723      -0.00069719      -0.00101978
C       -4.12909924       0.93511864      -0.94950320      -0.16124639      -0.00376194      -0.00131702       0.00343493
C       -3.53255570       0.08770553      -1.86983530      -0.13959242       0.00247607       0.00246046      -0.00055253
H       -4.09087069      -0.25052887      -2.73083600       0.13377059      -0.00016039       0.00146685       0.00083755
C       -2.22119118      -0.33938363      -1.71584716      -0.11643180       0.00248295      -0.00031444       0.00589876
C       -1.49325240       0.09084432      -0.61099339       0.13779505       0.00315815       0.00448194      -0.00097504
N       -0.16229758      -0.29799359      -0.35614320      -0.32153371       0.00134156      -0.00139900      -0.00316678
C        0.71809720      -0.91407236      -1.19699196       0.40964940       0.00146196      -0.00738629      -0.00082278
O        0.45727973      -1.24718644      -2.33386256      -0.44759899      -0.00196762       0.00248102       0.00471071
C        2.10350684      -1.13384752      -0.60139846      -0.14151670       0.00506405       0.00682436       0.00111188
C        2.86899188       0.16953686      -0.34624707      -0.11808325      -0.00058574       0.00252476       0.00425280
S        2.50155209       1.00708579       1.21969843      -0.17972890      -0.00099509       0.00426697      -0.00853671
C        3.20085149      -0.19144909       2.37054645      -0.18240754       0.00206228      -0.00004950       0.00045827
C       -2.09084621       0.93914966       0.32069430      -0.15081820       0.00342586       0.00037309      -0.00056662
H       -3.84438028       2.02216390       0.87792845       0.13511388      -0.00241315      -0.00474874      -0.00138729
H       -5.14908206       1.26175578      -1.08647058       0.13595301      -0.00495790      -0.00010056       0.00180224
H       -1.75987398      -0.98874451      -2.43807736       0.13719875       0.00094056       0.00039343       0.00137608
H        0.21963943       0.04255499       0.51585384       0.22603948      -0.00156317      -0.00063983      -0.00506070
H        2.02188335      -1.70716473       0.32066401       0.06623267       0.00093722       0.00283279      -0.00232734
H        2.65579984      -1.72406037      -1.32440623       0.09632007       0.00094059       0.00049815       0.00254617
H        2.66531732       0.88377817      -1.14003163       0.11064777       0.00655475      -0.00542256      -0.00164410
H        3.93884178      -0.02534111      -0.35444303       0.09424216      -0.00558012      -0.00423613       0.00123677
H        4.22602256      -0.42942191       2.10105832       0.09318467      -0.00075269       0.00014513      -0.00074733
H        2.61613649      -1.10675444       2.40534803       0.08141211      -0.00374893      -0.00380104      -0.00215626
H        3.19512483       0.26564051       3.35604701       0.11912116      -0.00395031      -0.00219340       0.00118552
H       -1.52331052       1.27406596       1.17973979       0.12780052      -0.00324505       0.00355655       0.00011145
