20
Properties=species:S:1:pos:R:3:charge:R:1:forces:R:3 energy=-25533.683095813245 pbc="F F F"
O        1.16811824       0.16580485       2.27536140      -0.45212805       0.00413260      -0.00104500       0.00370061
C        1.59899392       0.27227655       1.14550642       0.45510864      -0.00407791       0.00307223      -0.00155460
C        3.06603526       0.47820973       0.91371252      -0.14625528      -0.00403930      -0.00277204      -0.00315630
C        3.71567881       0.29622517      -0.22660275      -0.27314097       0.00134373      -0.00277619      -0.00189285
N        0.82560580       0.22710134       0.01133009      -0.30891243      -0.00124835      -0.00376904       0.00277846
C       -0.55075774      -0.02048385      -0.08667171       0.11683533      -0.00114852       0.00058791       0.00406453
C       -1.33693587      -0.43407341       0.98787082      -0.11707542      -0.00171311       0.00327721       0.00147090
C       -2.69012316      -0.67183398       0.80892555      -0.13095354      -0.00114456      -0.00120307      -0.00494526
C       -3.28889762      -0.50459165      -0.42940658      -0.14582205       0.00188570      -0.00354501      -0.00689979
C       -2.52149472      -0.10024745      -1.50885186      -0.12584046       0.00273602       0.00815886       0.00021885
C       -1.17134885       0.13293374      -1.33100075      -0.04363675       0.00434184      -0.00658523       0.00406838
Cl      -0.21437515       0.62516872      -2.70814857      -0.05272051      -0.00113293       0.00284537       0.00718475
H        3.59021951       0.75963912       1.81508305       0.12817527      -0.00542529      -0.00537254      -0.00251197
H        3.21753932      -0.02936785      -1.12942981       0.13690023       0.00170992      -0.00042220      -0.00665000
H        4.78394382       0.44495206      -0.29186935       0.15119150       0.00316301       0.00866107       0.00107816
H        1.26577429       0.50298037      -0.84943589       0.24427862       0.00304692      -0.00196660      -0.00071491
H       -0.86790232      -0.55612212       1.94769315       0.14312625      -0.00476520       0.00226184       0.00071848
H       -3.27975336      -0.99160364       1.65531917       0.13971958       0.00224061       0.00742360      -0.00233090
H       -4.34414937      -0.68685917      -0.56245480       0.14209890       0.00071452      -0.00429060       0.00468022
H       -2.95507253       0.03674574      -2.48767656       0.13905120      -0.00061954      -0.00254054       0.00069334
