26
Properties=species:S:1:pos:R:3:charge:R:1:forces:R:3 energy=-24966.46239923631 pbc="F F F"
C       -4.03781859       0.26365013       1.54312647      -0.14083651       0.00038977      -0.00368146      -0.00352815
C       -2.65840223       0.17873231       1.60906548      -0.15627301       0.00159384       0.00284185      -0.00173805
C       -1.90596753      -0.06189378       0.45994254       0.14366326       0.00523865       0.00149800      -0.00204279
N       -0.50786152      -0.12068245       0.61664545      -0.36199799       0.00335762      -0.00415136      -0.00070949
C        0.45549245      -0.41858873      -0.31082539       0.41706645       0.00086526      -0.00013811      -0.00186789
O        0.21941014      -0.67963704      -1.46974392      -0.42433846      -0.00201324      -0.00217721       0.00146561
C        1.87087977      -0.40627416       0.24747817      -0.13439587      -0.00409560       0.00113834      -0.00028977
C        2.88509543      -0.75806794      -0.82540345      -0.10210314      -0.00583113       0.00056733       0.00170781
S        4.58705763      -0.78104781      -0.22381242      -0.21003860      -0.00212218      -0.00031132      -0.00241653
C        4.90930516       0.99526404      -0.16860598      -0.20199132      -0.00091328      -0.00079938       0.00125096
C       -2.55241344      -0.22195925      -0.76275675      -0.11644159       0.00389479       0.00323501       0.00264985
C       -3.93628542      -0.13324955      -0.81306858      -0.13400108       0.00372305      -0.00279802      -0.00183764
C       -4.68703435       0.10826459       0.32688174      -0.16136031       0.00049720       0.00002457      -0.00164176
H       -5.76362342       0.17375938       0.26971423       0.13600434      -0.00008568       0.00027812       0.00444665
H       -4.60790320       0.45059276       2.44203481       0.13451195       0.00374759       0.00037034       0.00268963
H       -2.15207835       0.29629525       2.55876726       0.12721822       0.00585878       0.00417221      -0.00450251
H       -0.18328172       0.06013798       1.54948842       0.26185372      -0.00286010      -0.00248494      -0.00498656
H        1.92854829      -1.11682188       1.07354812       0.07681569       0.00328762       0.00318179      -0.00143996
H        2.07117983       0.57868789       0.67382119       0.06881706      -0.00618006      -0.00313066       0.00558317
H        2.79874512      -0.06869094      -1.66101123       0.09904693      -0.00180237      -0.00260003      -0.00083257
H        2.67526815      -1.74888546      -1.21534484       0.11221768       0.00036934      -0.00139001       0.00264036
H        4.31194706       1.49381424       0.59076669       0.08806747       0.00069799      -0.00217513       0.00189144
H        4.71791797       1.45149497      -1.13700528       0.09378967       0.00059506       0.00102028       0.00277491
H        5.96071350       1.11896827       0.07775903       0.11608513      -0.00180122       0.00516109       0.00106217
H       -1.97404422      -0.41266053      -1.64819868       0.13549933      -0.00488882       0.00173606      -0.00181761
H       -4.42981414      -0.25791175      -1.76638853       0.13312101      -0.00152384       0.00061268       0.00148813
