25
Properties=species:S:1:pos:R:3:charge:R:1:forces:R:3 energy=-24950.59160685765 pbc="F F F"
O        0.67172531      -1.21237249      -0.95251314      -0.50790572      -0.00231346       0.00216537      -0.00135723
C        0.80812869       0.02986814      -0.88001673       0.31476182       0.00516410       0.00031633       0.00230801
C        1.90427693       0.79188538      -1.24554015      -0.47582516       0.00320435      -0.00138707      -0.00554663
C        3.14476459       0.15503256      -1.72265309      -0.11254749       0.00177255      -0.00081206      -0.00146234
N       -0.28942062       0.80062955      -0.33139250      -0.38422373       0.00194426       0.00158407       0.00593608
C       -1.51963217       0.40600478       0.12980363       0.21132365      -0.00241355       0.00175745      -0.00104632
C       -1.97741874      -0.92303181       0.08829112      -0.13748121       0.00117400      -0.00148865      -0.00014795
C       -3.24198076      -1.23145972       0.56015885      -0.16167749       0.00096192      -0.00041984      -0.00056762
C       -4.09021405      -0.26328506       1.08650175      -0.22157353      -0.00001442      -0.00272048       0.00000590
C       -3.64025193       1.04913653       1.13422168      -0.17675743      -0.00349612      -0.00268199      -0.00077677
C       -2.38296090       1.38024323       0.66694058      -0.18845476      -0.00453153       0.00213649      -0.00017517
H        1.94043994       1.85310045      -1.02839402       0.10631372      -0.00216578      -0.00215558      -0.00757710
H        3.61593832       0.68458434      -2.55169749       0.07177676       0.00271528       0.00423089       0.00261315
H        2.95497539      -0.87357016      -2.03855724       0.08580031      -0.00409133       0.00144500      -0.00090455
H       -0.08299583       1.77682058      -0.24785707       0.23723735      -0.00006817       0.00308350       0.00119548
H       -1.31554805      -1.66797805      -0.31653841       0.12432607       0.00394656      -0.00065425      -0.00317651
H       -3.57277494      -2.26163764       0.51369333       0.11053152       0.00033292       0.00026393       0.00406123
H       -5.07425021      -0.52412506       1.44943154       0.11806359       0.00180212      -0.00114831       0.00211445
H       -4.27637447       1.82637355       1.54008746       0.11178657       0.00282321       0.00111806      -0.00082657
H       -2.04830451       2.41058810       0.71126268       0.10710330       0.00000744       0.00239489       0.00009997
S        4.51853724       0.04797649      -0.47160224      -0.30714655      -0.00291415      -0.00418708       0.00387106
C        3.62143837      -0.92263885       0.75118124      -0.19643810       0.00151095       0.00334569      -0.00651108
H        2.76586451      -0.35415974       1.10361020       0.09228209      -0.00192783      -0.00096806       0.00246902
H        3.25904372      -1.84761999       0.31058735       0.08529395      -0.00177445      -0.00375288      -0.00084146
H        4.29381250      -1.14794713       1.57820302       0.09343052      -0.00164883      -0.00146512       0.00624322
