29
Properties=species:S:1:pos:R:3:charge:R:1:forces:R:3 energy=-34143.98004195896 pbc="F F F"
C       -1.85121582      -0.92754042      -0.84408238      -0.10238139      -0.00215866       0.00247318      -0.00047417
C       -3.11233645      -0.35054592      -0.88338472      -0.12960471      -0.00111317      -0.00220989       0.00494317
C       -3.41200272       0.76234480      -0.11446947       0.00618787       0.00534419       0.00068244       0.00311838
C       -4.76183245       1.41415603      -0.16796916       0.32143396      -0.00030235       0.00208087      -0.00073041
F       -5.26456017       1.63458136       1.06419798      -0.14115296      -0.00230742      -0.00341574      -0.00023536
F       -4.71502526       2.61949748      -0.77518207      -0.14306748      -0.00054993       0.00054826      -0.00255533
F       -5.65957728       0.67221916      -0.83757275      -0.13352047       0.00049748       0.00244604       0.00166660
C       -2.43494906       1.30949535       0.70799363      -0.13095255       0.00112937      -0.00393324       0.00270650
C       -1.17934497       0.74232411       0.75296225      -0.14248967       0.00094931       0.00254547       0.00058908
C       -0.87436432      -0.37781191      -0.02127757       0.11433077      -0.00085760       0.00139561      -0.00147348
N        0.43203440      -0.88220300       0.09074091      -0.31814730      -0.00384651      -0.00001999       0.00182050
C        1.01797000      -1.89184614      -0.62333039       0.40324676      -0.00075673       0.00273908      -0.00856439
O        0.43857296      -2.56120828      -1.44950346      -0.44049484       0.00792010       0.00180269       0.00342104
C        2.49399122      -2.12668323      -0.30112927      -0.14090000      -0.00863230      -0.00206504      -0.00113649
C        3.34827976      -0.85952451      -0.34354931      -0.11430763      -0.00334026       0.00273698       0.00524684
S        3.44612674      -0.05054725       1.28081281      -0.16567814      -0.00182155      -0.00923152       0.00150125
C        4.12089403       1.53557978       0.75667205      -0.18725753       0.00105751      -0.00419262       0.00062401
H       -1.62287124      -1.79013576      -1.44247370       0.13931979      -0.00311631       0.00020456       0.00044173
H       -3.86688161      -0.78123672      -1.52335706       0.14130747       0.00596301      -0.00501823      -0.00038698
H       -2.65826622       2.17655990       1.31314208       0.14109555      -0.00249280      -0.00320705      -0.00341586
H       -0.41861775       1.16962170       1.39161635       0.12195141      -0.00060731       0.00574598      -0.00226356
H        1.02850353      -0.38405445       0.73712257       0.22367133       0.00104464      -0.00123853       0.00030293
H        2.85411372      -2.83177386      -1.04417459       0.09963801      -0.00154580       0.00210532      -0.00276771
H        2.57812700      -2.60583073       0.67581150       0.08239647       0.00238052      -0.00205589       0.00210628
H        2.92742592      -0.15722898      -1.06352566       0.08527592       0.00262988       0.00387482      -0.00166856
H        4.36466875      -1.08421874      -0.65836923       0.10421222      -0.00052821       0.00236470       0.00440077
H        5.09130111       1.41526010       0.28314566       0.09684426       0.00384555      -0.00084152      -0.00224720
H        4.24003665       2.14249273       1.64920187       0.12124764      -0.00069237       0.00196667      -0.00193972
H        3.44123750       2.04143501       0.07594528       0.08779524       0.00190718       0.00171709      -0.00303070
