36
Properties=species:S:1:pos:R:3:charge:R:1:forces:R:3 energy=-31258.40187299031 pbc="F F F"
C       -2.97332028       2.21966130       1.95048209      -0.14133243       0.00008571      -0.00166757      -0.00043320
C       -2.43318497       0.97684492       2.25152217      -0.13922894       0.00234572       0.00094439       0.00004143
C       -2.07498337       0.10555848       1.23415269      -0.11081324       0.00120008      -0.00035256       0.00149223
C       -2.26180204       0.46074045      -0.10327878       0.05661186      -0.00003745       0.00484062       0.00240322
C       -1.90174285      -0.47511568      -1.20293498       0.01993264      -0.00425202       0.00040288       0.00259289
C       -2.85529409      -0.81879727      -2.15178723      -0.14475617       0.00043373       0.00222967      -0.00300112
C       -2.56991842      -1.72933903      -3.15600471      -0.16656406      -0.00083656      -0.00304447       0.00087485
C       -1.30214969      -2.28869784      -3.22238775      -0.14929135      -0.00170058      -0.00231839      -0.00276123
C       -0.32345560      -1.94246972      -2.30486020      -0.12530203       0.00097243       0.00274419      -0.00472610
C       -0.61173113      -1.01910056      -1.30297807       0.10520460      -0.00379400       0.00158559      -0.00145326
N        0.36091791      -0.55387454      -0.40392565      -0.32205898      -0.00054970      -0.00255767      -0.00044421
C        1.55167410      -1.11877760      -0.04374649       0.41215762      -0.00282004      -0.00626486       0.00104852
O        1.98772970      -2.15017068      -0.50618430      -0.42790711      -0.00013801       0.00219921      -0.00329587
C        2.27785022      -0.32790651       1.02909655      -0.12827900      -0.00022993      -0.00174604       0.00009950
C        3.66691865      -0.88352920       1.27774656      -0.11396506      -0.00064461       0.00204567       0.00347006
S        4.57046480      -0.00608548       2.57018321      -0.20943706       0.00107763      -0.00112470       0.00340168
C        5.00287366       1.49906654       1.67079522      -0.20292220       0.00279880       0.00375717      -0.00131432
C       -2.83582298       1.69809316      -0.39202984      -0.13173811      -0.00367296       0.00341963       0.00142795
C       -3.17359253       2.57691932       0.62543157      -0.13895370       0.00328409       0.00311232       0.00304008
H       -3.24119207       2.90213900       2.74425774       0.13798271      -0.00400854      -0.00352468      -0.00216642
H       -2.28611000       0.68250281       3.28119724       0.13344620       0.00301977       0.00134973      -0.00146712
H       -1.65895745      -0.86293745       1.47761277       0.11266274       0.00227944      -0.00296656      -0.00151642
H       -3.84012159      -0.37503448      -2.08877375       0.12278432      -0.00014288      -0.00429184      -0.00351308
H       -3.32974891      -1.99627913      -3.87504980       0.13946913       0.00007935       0.00146021       0.00210573
H       -1.06024519      -3.00289646      -3.99690158       0.13843773      -0.00494504      -0.00408459      -0.00050163
H        0.66273022      -2.36901534      -2.35234374       0.13265890       0.00287866       0.00724002      -0.00042411
H        0.10954669       0.26915421       0.11453312       0.22280689      -0.00117503       0.00398706       0.00557818
H        2.30833377       0.72288766       0.73261440       0.07137616       0.00194353      -0.00270640      -0.00401275
H        1.67645028      -0.37262820       1.94098150       0.07768522      -0.00114602      -0.00242396      -0.00127008
H        3.59649809      -1.92008186       1.59207601       0.11397345      -0.00014828       0.00312331       0.00088413
H        4.24431586      -0.87490160       0.35582031       0.09777681       0.00000800      -0.00110590       0.00556837
H        5.65295671       2.07838834       2.32086686       0.11724950       0.00370909       0.00263959       0.00278553
H        4.12657447       2.09672530       1.43337065       0.08680964      -0.00046100       0.00549872       0.00033093
H        5.53852816       1.26291347       0.75472522       0.09427858       0.00277636      -0.00700435      -0.00232505
H       -3.00663522       1.97017943      -1.42387020       0.12223326       0.00256327      -0.00226480       0.00045880
H       -3.60070252       3.53880412       0.38038116       0.13701148      -0.00075318      -0.00313008      -0.00297822
