30
Properties=species:S:1:pos:R:3:charge:R:1:forces:R:3 energy=-19317.375862935856 pbc="F F F"
O        3.35174330      -0.65628282       0.78010709      -0.43318644      -0.00488755      -0.00139096       0.00345977
C        2.58723101      -0.19442325      -0.04339630       0.44397166       0.00107730       0.00111717      -0.00249086
C        3.06490601       0.38674091      -1.33101662      -0.14264178       0.00036149       0.00377453      -0.00203033
C        4.35698644       0.42075615      -1.61932169      -0.27995932      -0.00058274      -0.00482921      -0.00197645
N        1.22996859      -0.14744668       0.09670006      -0.32047224       0.00166800       0.00262575      -0.00102419
C        0.42677724      -0.59522203       1.15846425       0.09184963       0.00304574      -0.00397746      -0.00092842
C        0.93997659      -1.19501522       2.30454898      -0.13173220      -0.00311778      -0.00179579       0.00166826
C        0.07810996      -1.61034854       3.30874478      -0.14878252      -0.00624853       0.00264566      -0.00121447
C       -1.29214203      -1.43689361       3.18781658      -0.16490971      -0.00379532       0.00086125      -0.00285567
C       -1.80116586      -0.83971169       2.04458772      -0.14329584      -0.00320545       0.00382439       0.00149517
C       -0.96001439      -0.41578925       1.02670424      -0.00641877       0.00225259       0.00018397       0.00527977
C       -1.50377996       0.22660493      -0.20963128       0.03716725       0.00043171      -0.00357671       0.00326862
C       -1.82430785      -0.54201001      -1.32560058      -0.13349296       0.00633813      -0.00310464      -0.00095551
C       -2.29383713       0.05388251      -2.48820861      -0.13610937       0.00250026      -0.00129123      -0.00071669
C       -2.44187170       1.43200216      -2.55271057      -0.13750048      -0.00138268       0.00022253       0.00360300
C       -2.12130012       2.20859936      -1.44834092      -0.13606694       0.00309994       0.00325809       0.00213442
C       -1.65212486       1.60898931      -0.28731517      -0.13378209       0.00305447      -0.00328666       0.00020218
H        2.32475740       0.77871432      -2.02005659       0.12029524       0.00355295       0.00328756      -0.00777505
H        5.07647696       0.02358407      -0.91741089       0.15995651       0.00318825       0.00312037      -0.00364561
H        4.71826811       0.83820499      -2.54836437       0.14869402      -0.00190312       0.00061499       0.00323475
H        0.72304257       0.26684873      -0.66754612       0.22534157      -0.00159783      -0.00053525      -0.00035923
H        2.00342238      -1.32680918       2.39019195       0.13831268      -0.00445476       0.00251814       0.00058762
H        0.49666224      -2.07383604       4.19149559       0.14031065      -0.00172309       0.00236866      -0.00583295
H       -1.96421858      -1.76000646       3.96919067       0.14079717       0.00461097       0.00041599      -0.00099606
H       -2.86930300      -0.70224811       1.94515625       0.13020006      -0.00453646      -0.00079005       0.00080495
H       -1.69471010      -1.61382906      -1.27858182       0.12866028       0.00106713      -0.00448884       0.00125605
H       -2.53765038      -0.56146011      -3.34257046       0.13721544      -0.00104271      -0.00545051      -0.00049616
H       -2.80776484       1.89721706      -3.45668063       0.13969550       0.00045009       0.00072543       0.00342779
H       -2.22998345       3.28313455      -1.48739103       0.13714240      -0.00078959       0.00592660       0.00306140
H       -1.38942556       2.21392874       0.56890438       0.12874062       0.00256809      -0.00297377      -0.00018699
