30
Properties=species:S:1:pos:R:3:charge:R:1:forces:R:3 energy=-19317.36631912979 pbc="F F F"
O        3.77997579       0.40406135       1.95667470      -0.45784381       0.00411687       0.00090692      -0.00223282
C        4.02174687       0.21400141       0.78273693       0.46682772       0.00027283      -0.00240192       0.00009357
C        5.44404515       0.11538136       0.31396246      -0.15133250       0.00115200       0.00329625      -0.00037805
C        5.85673501      -0.42770255      -0.82327522      -0.27959973       0.00013343      -0.00362477       0.00129632
N        3.07726086       0.08564471      -0.20019911      -0.32494587       0.00019229      -0.00147580      -0.00038747
C        1.67294983       0.07379585      -0.07575197       0.10712168       0.00026355       0.00652697       0.00061510
C        0.93039993       0.08769936      -1.25294028      -0.16739456       0.00058675       0.00432136      -0.00155855
C       -0.45005045       0.06056623      -1.21464979      -0.13754149      -0.00124505       0.00834265       0.00178096
C       -1.12685987       0.03004332       0.00190992       0.01026498      -0.00300008       0.00017630       0.00147416
C       -2.61012579       0.00992643       0.04594557       0.03562803      -0.00401865      -0.00321820       0.00483250
C       -3.33498150      -0.79684807      -0.82903131      -0.13831334      -0.00191378      -0.00346974       0.00251600
C       -4.71973027      -0.82588257      -0.78590555      -0.14105159      -0.00124635      -0.00839871       0.00291472
C       -5.40633626      -0.03841241       0.12611332      -0.14284942       0.00224991       0.00149740      -0.00355315
C       -4.69576396       0.77522388       0.99627902      -0.14163493      -0.00175082       0.00396251       0.00004557
C       -3.31070953       0.79525014       0.95994921      -0.13798817      -0.00213965       0.00211695       0.00257859
C       -0.37287409       0.01486862       1.17024995      -0.13119639      -0.00062828       0.00333649      -0.00082724
C        1.01229688       0.03091400       1.14762392      -0.11719872      -0.00102089       0.00256187      -0.00089129
H        6.14314952       0.50520244       1.03850868       0.12625316       0.00059063      -0.00011213       0.00298045
H        5.17010547      -0.87510089      -1.52872526       0.13555002       0.00116890      -0.00619250      -0.00058120
H        6.90444857      -0.47545613      -1.08150674       0.15088987       0.00358628       0.00456041       0.00682090
H        3.42265078       0.12165749      -1.14059781       0.25586227      -0.00316614      -0.00184320      -0.00502351
H        1.44308577       0.12055070      -2.20566074       0.13086930      -0.00142114       0.00072401      -0.00485630
H       -1.00971136       0.08991868      -2.13854213       0.12310448       0.00152351      -0.00015154      -0.00073941
H       -2.81085122      -1.42119842      -1.53878341       0.12510690      -0.00196110      -0.00105842      -0.00076242
H       -5.26093311      -1.46459887      -1.46803890       0.13648576      -0.00371570      -0.00407076      -0.00524162
H       -6.48631300      -0.05827107       0.15860398       0.13814366       0.00339769       0.00134953      -0.00099663
H       -5.21888651       1.39515296       1.70920503       0.13633938       0.00256681       0.00395211       0.00316986
H       -2.77016899       1.44053817       1.63781529       0.12530601       0.00645977      -0.00341990       0.00028709
H       -0.87694164      -0.03239478       2.12488638       0.12345717      -0.00124458      -0.00397255      -0.00221670
H        1.57711222       0.01334569       2.06161328       0.14168002       0.00021132      -0.00422195      -0.00115988
