25
Properties=species:S:1:pos:R:3:charge:R:1:forces:R:3 energy=-24950.592651187588 pbc="F F F"
O        0.95283698      -1.38544815       0.06242982      -0.50805295       0.00355950       0.00202391      -0.00086873
C        0.90126377      -0.25365370       0.59500931       0.31432775       0.00154491      -0.00136031       0.00460929
C        1.92088052       0.44155399       1.22164459      -0.47690585       0.00181943       0.00234196      -0.00123753
C        3.29760549      -0.08409764       1.23553168      -0.11237963      -0.00068746      -0.00244677      -0.00097312
N       -0.36165141       0.45616204       0.55465665      -0.38592491       0.00008161       0.00252060       0.00395630
C       -1.55894021       0.11590964      -0.02353775       0.21108860       0.00157307       0.00133641      -0.00278929
C       -1.80410777      -1.13069557      -0.62642257      -0.13765346      -0.00093464      -0.00167068       0.00118190
C       -3.04850367      -1.40063905      -1.16959370      -0.16161367       0.00001112      -0.00034075      -0.00469648
C       -4.08126827      -0.46973610      -1.14837672      -0.22113504      -0.00293848      -0.00272793       0.00341022
C       -3.84269993       0.76340339      -0.55735779      -0.17672381       0.00127741      -0.00034324      -0.00036200
C       -2.60995581       1.05292836      -0.00424061      -0.18864341       0.00123864       0.00070527      -0.00116441
H        1.77288254       1.46036974       1.55996931       0.10639824      -0.00262825       0.00137925       0.00324377
H        3.81511716       0.07213940       2.18294043       0.07203317      -0.00060846       0.00570614      -0.00224338
H        3.30484993      -1.15398158       1.01442621       0.08583926      -0.00191389      -0.00310364       0.00149807
H       -0.30332435       1.38472268       0.92481656       0.23781565      -0.00309622       0.00368571       0.00346669
H       -0.99890371      -1.84370013      -0.64603625       0.12466788       0.00086582      -0.00132611       0.00013434
H       -3.21417798      -2.36959710      -1.62381142       0.11060873       0.00193374      -0.00027656      -0.00735446
H       -5.04507850      -0.69933248      -1.58004938       0.11806882      -0.00176085       0.00102166      -0.00107585
H       -2.44312854       2.02055396       0.45559413       0.10721395       0.00618290       0.00083169      -0.00003781
H       -4.62600386       1.51103804      -0.52603102       0.11183770       0.00179422      -0.00117539       0.00352412
S        4.45765494       0.68909320       0.00215369      -0.30677855      -0.00149434      -0.00421890      -0.00341856
C        3.51838573       0.26457121      -1.47404831      -0.19566208      -0.00160380      -0.00043533       0.00153671
H        3.35267750      -0.80839627      -1.52511636       0.08533777       0.00028599       0.00187594       0.00587585
H        2.55135718       0.75779380      -1.43831130       0.09275775       0.00107829      -0.00579792      -0.00541700
H        4.07904959       0.59145544      -2.34918918       0.09347796      -0.00558021       0.00179445      -0.00079883
