20
Properties=species:S:1:pos:R:3:charge:R:1:forces:R:3 energy=-13025.50927336895 pbc="F F F"
C        4.22938716      -0.23697030       0.29479817      -0.27689019       0.00258768      -0.00001765      -0.00054502
C        3.06946243       0.29536436       0.64780318      -0.15206543       0.00007771      -0.00355311       0.00214916
C        1.78989659      -0.23643100       0.08362087       0.44832516      -0.00270824       0.00388378      -0.00339715
O        1.76892607      -1.15817479      -0.70660698      -0.43432185      -0.00655073      -0.00200339      -0.00026261
N        0.66968458       0.40806087       0.53789207      -0.36165646      -0.00232899       0.00001872       0.00414560
C       -0.67942279       0.16214820       0.20605037       0.12613761       0.00036788       0.00390705       0.00161472
C       -1.08310871      -0.83390587      -0.67739273      -0.12451188       0.00718453       0.00369260      -0.00167928
C       -2.43528784      -0.99896751      -0.94176173      -0.13591968       0.00476098      -0.00392431       0.00201339
C       -3.39089231      -0.19279075      -0.34368291      -0.15796161       0.00404610      -0.00266792       0.00007639
C       -2.98315841       0.79896544       0.53634649      -0.13867995      -0.00321350       0.00052478       0.00196782
H       -3.71433131       1.43707224       1.01182378       0.13597366       0.00007161       0.00544687       0.00476717
C       -1.63819887       0.97465944       0.80893242      -0.16813174      -0.00108151       0.00038950       0.00171273
H        4.25731707      -1.06062571      -0.40421594       0.15896071       0.00271548      -0.00124006      -0.00175123
H        5.16619843       0.13104681       0.68908599       0.14656614       0.00510812      -0.00008191       0.00126249
H        3.02370401       1.12130287       1.34790552       0.12178145      -0.00312785       0.00031816      -0.00055568
H        0.80858458       1.15565264       1.19246780       0.26807877      -0.00373420       0.00062803      -0.00335293
H       -0.34401369      -1.45962492      -1.14236911       0.14077684       0.00224935      -0.00281785      -0.00079903
H       -2.73983713      -1.77509865      -1.62907105       0.13516672      -0.00263094      -0.00403895      -0.00446636
H       -4.43988077      -0.33467165      -0.55895159       0.13754450      -0.00135211       0.00272422      -0.00083961
H       -1.32392994       1.74984216       1.49676294       0.13082723      -0.00244116      -0.00118839      -0.00206010
