32
Properties=species:S:1:pos:R:3:charge:R:1:forces:R:3 energy=-31171.77607213194 pbc="F F F"
C       -3.59038706      -2.42460209       0.02768720      -0.14959452      -0.00094957       0.00323108      -0.00020914
C       -2.44490637      -3.10502621      -0.36697564      -0.14017247      -0.00064048      -0.00433833       0.00106375
C       -1.23523329      -2.45313082      -0.49410929      -0.12881468      -0.00026307       0.00412603       0.00088128
C       -1.14170776      -1.08243666      -0.22688281       0.10764576       0.00810805       0.00201234      -0.00035365
N        0.05254073      -0.37757096      -0.33770409      -0.30888090       0.00521605       0.00192061      -0.00517144
C        1.28524209      -0.81746408      -0.73879745       0.40079051       0.00404395       0.00429351       0.00065123
O        1.54073109      -1.95784234      -1.06132216      -0.42491844      -0.00200221       0.00292997      -0.00061163
C        2.32396642       0.29264410      -0.75133542      -0.13991533       0.00041681       0.00186475      -0.00176793
C        3.67884364      -0.20825622      -1.21990196      -0.12084890       0.00126395       0.00117638      -0.00045715
S        4.93867166       1.08291920      -1.27327802      -0.21024454       0.00914093      -0.00030637      -0.00029383
C        5.29802328       1.23685981       0.49064933      -0.20503500      -0.00124956      -0.00193959       0.00024410
C       -2.30411347      -0.38449070       0.17197614       0.03021527       0.00445478       0.00129228      -0.00236781
C       -2.27185789       1.07166357       0.46444097       0.44861600       0.00204366      -0.00036954       0.00358361
O       -1.29072278       1.78911166       0.40425674      -0.42870498       0.00148656      -0.00124647       0.00588033
O       -3.47259087       1.54825094       0.81699405      -0.25858176      -0.00370590      -0.00200927      -0.00466555
C       -3.53184640       2.94763040       1.11196630      -0.08008906       0.00113062       0.00026611       0.00101375
C       -3.51111283      -1.07389203       0.29243003      -0.14421523       0.00136908       0.00118921       0.00037935
H       -4.53366481      -2.93853053       0.12756131       0.13986583      -0.00219549       0.00018388      -0.00203817
H       -2.49028291      -4.16292709      -0.58130211       0.13786253      -0.00341553      -0.00673559       0.00388292
H       -0.34687320      -2.97458555      -0.79803173       0.13371973      -0.00069315       0.00761910       0.00047840
H       -0.02644767       0.61012850      -0.10570642       0.24835807      -0.00606125      -0.00015294      -0.00059129
H        2.38066524       0.71931551       0.25286289       0.07903844      -0.00066161      -0.00256930      -0.00146261
H        1.96197080       1.09087065      -1.40143928       0.08811045      -0.00513079      -0.00062368      -0.00157775
H        4.01726427      -1.02943544      -0.59278138       0.09962707      -0.00083559       0.00451915       0.00800454
H        3.59815325      -0.59917932      -2.22970374       0.11447947       0.00078251       0.00062237      -0.00121062
H        4.45143422       1.63306785       1.04553230       0.08845965      -0.00316385      -0.00286335      -0.00345333
H        5.59109797       0.27757448       0.91041713       0.09534916      -0.00369049      -0.00013505       0.00280404
H        6.12912485       1.93133799       0.58282342       0.11802630      -0.00158039      -0.00311354      -0.00340847
H       -3.22895229       3.52996889       0.24600958       0.09227957       0.00051060      -0.00622608      -0.00540307
H       -2.87945668       3.18522459       1.94778211       0.09219338       0.00443463      -0.00473102       0.00346664
H       -4.56543305       3.14840483       1.36510157       0.09847490      -0.00006137       0.00295454       0.00082220
H       -4.38972043      -0.53195954       0.59732758       0.12690377      -0.00810306      -0.00284183       0.00188693
