31
Properties=species:S:1:pos:R:3:charge:R:1:forces:R:3 energy=-31155.907397897943 pbc="F F F"
O        2.10503809      -0.99725580       1.21462488      -0.48898092       0.00016698      -0.00328892      -0.00284558
C        1.76097615      -0.69395463       0.04804752       0.28450027       0.00397071      -0.00355628      -0.00288354
C        2.57171744      -0.53909891      -1.05811631      -0.48959458       0.00167794       0.00197877      -0.00356799
C        4.03339647      -0.65765255      -0.92794601      -0.12347466      -0.00296838      -0.00169837      -0.00417821
N        0.35421566      -0.43991124      -0.21335504      -0.33249357      -0.00064690      -0.00252844      -0.00234378
C       -0.71230274      -0.49723051       0.61359558       0.19497198       0.00114261       0.00515919       0.00531440
C       -0.57760526      -0.86813127       1.98128726      -0.15957116      -0.00605258      -0.00207795       0.00341736
C       -1.67190260      -0.92945551       2.80089482      -0.18029585      -0.00795412       0.00173137       0.00053659
C       -2.95878795      -0.63003228       2.33926249      -0.20533843      -0.00131094       0.00457837       0.00022387
C       -3.11548908      -0.26420181       1.02369091      -0.16820782       0.00289979      -0.00174071       0.00091422
C       -2.02810457      -0.18791018       0.14197712       0.04636036       0.00043479      -0.00345120       0.00289349
C       -2.27133290       0.20756346      -1.25603626       0.44186056       0.00140876      -0.00665703       0.00130484
O       -3.58512304       0.47916747      -1.50879350      -0.28916931       0.00423279       0.00091962       0.00127108
C       -3.86063518       0.86694543      -2.84670133      -0.08425780      -0.00180795      -0.00170985       0.00142415
O       -1.45654622       0.30473336      -2.15002140      -0.46364722       0.00203115       0.00119933       0.00106432
H        2.17711092      -0.18044053      -1.99910608       0.12931159      -0.00361588      -0.00404905      -0.00330791
H        4.30462935      -1.20915892      -0.02380879       0.08632565       0.00141366       0.00749251      -0.00432407
H        4.50701433      -1.14667711      -1.77999070       0.07969458       0.00122905       0.00333506      -0.00126666
H        0.15971084      -0.17184004      -1.16639614       0.23850913       0.00533288       0.00186690      -0.00458428
H        0.41643770      -1.09433523       2.32323750       0.12377774      -0.00563585      -0.00032967       0.00236274
H       -1.53250890      -1.21882534       3.83505905       0.11729074      -0.00079556       0.00469639      -0.00369393
H       -3.81364730      -0.68154823       2.99605021       0.12274800       0.00063333       0.00129251      -0.00544368
H       -4.09839838      -0.02803070       0.65010474       0.11049283       0.00628769      -0.00153619       0.00311436
H       -3.56098781       0.08631387      -3.54169812       0.07563261      -0.00380401       0.00108089      -0.00137874
H       -4.93232100       1.02713245      -2.89561687       0.07719629      -0.00086937       0.00296639       0.00007363
H       -3.32894345       1.78146801      -3.09900218       0.07495932      -0.00066369      -0.00445928       0.00316393
S        4.95864134       0.95353798      -0.82621909      -0.29130471       0.00080843      -0.00265136      -0.00127578
C        4.15929856       1.58079758       0.66098478      -0.20293891       0.00502492      -0.00332260       0.00418153
H        4.28172845       0.88182964       1.48448209       0.08637390      -0.00584706      -0.00027493       0.00727248
H        4.61503431       2.53615236       0.91902589       0.09921774      -0.00378936       0.00503719       0.00201097
H        3.09538730       1.70761210       0.47602109       0.09005164       0.00706653      -0.00000262       0.00055055
