26
Properties=species:S:1:pos:R:3:charge:R:1:forces:R:3 energy=-27462.593695782678 pbc="F F F"
O        0.15401651       1.65389673       1.30290035      -0.49215919      -0.00343090      -0.00195187       0.00229397
C        0.67473367       1.38462225       0.21062783       0.27787301       0.00232776       0.00466607       0.00111025
C        2.00148794       1.55937510      -0.18057828      -0.50030434       0.00533069      -0.00300081       0.00006499
C        2.53227202       1.14024550      -1.48469652      -0.12794602       0.00033427       0.00035950       0.00067883
N       -0.18372275       0.77030299      -0.80598314      -0.35857663      -0.00072443       0.00398805      -0.00745091
C       -1.27747039       0.03354639      -0.38645526       0.18663189       0.00306285      -0.00128494       0.00131238
C       -1.31750022      -1.35096599      -0.60298888      -0.14765199      -0.00167943      -0.00316677      -0.00084717
C       -2.39840479      -2.10762701      -0.19986340      -0.18598878      -0.00083986       0.00074363       0.00644781
C       -3.48975399      -1.51098576       0.42501633      -0.17700247      -0.00292387      -0.00270349      -0.00442909
C       -3.48018737      -0.14308288       0.62255535      -0.16575456      -0.00086285      -0.00226781      -0.00124077
C       -2.39408853       0.63426516       0.22011730       0.11538347       0.00175889      -0.00329832       0.00244343
C       -2.51372365       2.05844350       0.35645633       0.25527164       0.00209543      -0.00024431       0.00250164
N       -2.77548942       3.17382854       0.44835329      -0.48356196      -0.00100745       0.00243140      -0.00293192
H        2.66951379       1.92961878       0.58450449       0.11140439      -0.00633025      -0.00234907       0.00059158
H        3.53737689       1.51809762      -1.66706441       0.08014745      -0.00027090       0.00707919       0.00117650
H        1.90155576       1.47406566      -2.31366136       0.08270135      -0.00269058      -0.00100716      -0.00242976
H        0.40208252       0.23810607      -1.44026265       0.22001004      -0.00002122      -0.00478876      -0.00146264
H       -0.45739022      -1.82046485      -1.06617381       0.12338793       0.00107443       0.00280133       0.00256702
H       -2.39232400      -3.17740987      -0.36470164       0.12025138       0.00139253       0.00709682       0.00289818
H       -4.33319510      -2.10324100       0.74789371       0.12590449       0.00324975       0.00112839      -0.00136936
H       -4.31957287       0.35028186       1.08959365       0.11840805       0.00462158       0.00025042       0.00055893
S        2.70612843      -0.72129671      -1.84801605      -0.24568051       0.00366517      -0.00004300       0.00024848
C        3.56344599      -1.17755949      -0.32973472      -0.19643544      -0.00116759       0.00256742      -0.00600890
H        3.68283939      -2.25959303      -0.30900871       0.09982456      -0.00025968      -0.00423474      -0.00150157
H        2.95900484      -0.85599264       0.51288299       0.08538166      -0.00743936      -0.00119141       0.00183618
H        4.54339932      -0.70719155      -0.27007038       0.07848062       0.00073453      -0.00157985       0.00294162
