29
Properties=species:S:1:pos:R:3:charge:R:1:forces:R:3 energy=-28068.911475280725 pbc="F F F"
O        1.53371150      -0.54852364       1.64590849      -0.51071292      -0.00480183      -0.00067254       0.00094736
C        1.46676925       0.36117642       0.78603773       0.29962113       0.00032887      -0.00394501      -0.00261573
C        2.50399764       1.12306574       0.27232385      -0.49055320      -0.00255311      -0.00058240      -0.00358322
C        3.89679069       0.84891807       0.65827882      -0.12466867      -0.00050450       0.00157859      -0.00186120
N        0.17475931       0.66951300       0.22304598      -0.35101044       0.00117975      -0.00407864       0.00078834
C       -1.05058090       0.11077747       0.47135353       0.18125692       0.00172352       0.00161715       0.00392433
C       -1.29712252      -0.85962874       1.44766628      -0.15675786       0.00473860      -0.00094533      -0.00414633
C       -2.58083614      -1.35832079       1.64180654      -0.19600521       0.00738723       0.00361817       0.00374711
C       -3.64531930      -0.91627291       0.87786100      -0.23540853       0.00446138      -0.00430914       0.00629786
C       -3.42104516       0.04761289      -0.10450860      -0.19929986      -0.00458474       0.00044791       0.00689696
C       -2.15289164       0.55219558      -0.30254789       0.16240059       0.00196085      -0.00650589       0.00097560
O       -1.84797238       1.51806465      -1.24222386      -0.24438038       0.00797703       0.00197989       0.00390945
C       -2.86270401       1.87206625      -2.14444100      -0.07891539       0.00644467       0.00054308      -0.00005288
H        2.33408691       1.81705868      -0.54115921       0.11341229       0.00462358       0.00566434      -0.00052190
H        4.49641141       1.74846450       0.80393153       0.07444564       0.00045605       0.00284554       0.00065835
H        3.93621363       0.25756162       1.57669577       0.08491478       0.00120937       0.00424811       0.00000355
H        0.21063697       1.34475626      -0.51665455       0.24421419      -0.00708168       0.00243901       0.00646398
H       -0.45348743      -1.19296389       2.02746919       0.12004537      -0.00432298       0.00054436      -0.00238516
H       -2.73785875      -2.10531697       2.40894077       0.11598752       0.00062788      -0.00048856      -0.00916763
H       -4.64278818      -1.30277032       1.02869229       0.11907559       0.00205851      -0.00168467      -0.00142660
H       -4.24656468       0.39611184      -0.70496821       0.10770828      -0.00449378       0.00040181      -0.00103193
H       -3.22692633       1.00646711      -2.70008215       0.06356058      -0.00214260       0.00345677      -0.00507247
H       -3.70234403       2.35620725      -1.64206721       0.06333861      -0.00156259      -0.00035102      -0.00031434
H       -2.41026377       2.57739946      -2.83586835       0.07230631      -0.00198123       0.00275326      -0.00889943
S        4.90634803      -0.10471599      -0.58735519      -0.30458465      -0.00357806      -0.00553591       0.00057339
C        3.86170201      -1.56984503      -0.64235424      -0.19956377      -0.00735192      -0.00296763       0.00215470
H        3.71769577      -1.97142455       0.35751985       0.08496213       0.00438137       0.00055323      -0.00146313
H        2.88845733      -1.30669232      -1.04634388       0.08956326      -0.00049770      -0.00283141       0.00269622
H        4.34256382      -2.31650668      -1.27362067       0.09504782      -0.00410162       0.00220674       0.00250475
